4
Lattice="3.554368548689233 -4.878998617329767e-19 -4.0017037654781115e-17 2.8167389340860357e-18 3.5545241068104363 -1.575933232712049e-14 -3.246911795277501e-17 -1.651247708347729e-14 3.554523245964321" Properties=species:S:1:pos:R:3:forces:R:3:energies:R:1 energy=-22.829610171585312 stress="-0.0011067241903461084 -7.446303390686678e-18 2.0182304239547643e-17 -7.446303390686678e-18 -0.0010869436352831856 -5.119260624711613e-15 2.0182304239547643e-17 -5.119260624711613e-15 -0.001087053136607918" free_energy=-22.829610171585312 pbc="T T T"
Al       0.00000000      -0.00000000       0.00000000      -0.00000000       0.00000002      -0.00000002      -5.03367403
Ni       0.00000000       1.77726205       1.77726162      -0.00000000      -0.00000002       0.00000002      -5.93197499
Ni       1.77718427      -0.00000000       1.77726162       0.00000000       0.00000001       0.00000002      -5.93198059
Ni       1.77718427       1.77726205       0.00000000       0.00000000      -0.00000002      -0.00000001      -5.93198056
