1
Lattice="2.3579787895621767 -2.8846228664688256e-08 1.361379430498396 0.7859932466411834 2.223124058598172 1.3613794304982327 1.0938164852154828e-07 7.734426802564658e-08 2.722759703492719" Properties=species:S:1:pos:R:3:forces:R:3:energies:R:1 energy=-7.290659139109055 stress="-5.8015925318624545e-05 4.4097465281503254e-08 -6.202251823913073e-08 4.4097465281503254e-08 -5.786661171306395e-05 -4.3856479330838314e-08 -6.202251823913073e-08 -4.3856479330838314e-08 -5.788862161039459e-05" free_energy=-7.290659139109055 pbc="T T T"
Rh       0.00000000       0.00000000       0.00000000       0.00000000       0.00000000       0.00000000      -7.29065914
