56
Lattice="9.308207273456244 -1.1185474582631966e-07 -3.290948727651626 -4.65410324244277 8.061143673295186 -3.2909487637395527 1.1465304623340157e-07 1.5438671224189872e-07 9.872844491589627" Properties=species:S:1:pos:R:3:forces:R:3:energies:R:1 energy=-293.2460955116036 stress="-0.00012843007841362438 1.107985213972257e-08 -1.6071388765754088e-08 1.107985213972257e-08 -0.00012845963126934104 -2.4276443117860718e-08 -1.6071388765754088e-08 -2.4276443117860718e-08 -0.00012845149413978234" free_energy=-293.2460955116036 pbc="T T T"
Al       0.00000000      -0.00000000       0.00000000       0.00000000       0.00000000      -0.00000000      -4.58258172
Al      -2.32705162       4.03057184      -1.64547438      -0.00000000      -0.00000000      -0.00000000      -4.58258169
Al       0.00000006       0.00000008       4.93642225       0.00000000       0.00000000       0.00000000      -4.58258171
Al       4.65410364      -0.00000006      -1.64547436      -0.00000000       0.00000000       0.00000000      -4.58258171
Al      -2.32705156       4.03057191       3.29094786       0.00000000      -0.00000000       0.00000000      -4.58258171
Al       4.65410369       0.00000002       3.29094788      -0.00000000       0.00000000      -0.00000000      -4.58258171
Al       2.32705202       4.03057178      -3.29094875       0.00000000      -0.00000000      -0.00000000      -4.58258169
Al       2.32705207       4.03057186       1.64547350       0.00000000      -0.00000000       0.00000000      -4.58258172
Al       1.12567942       2.08083817      -1.59195116      -0.00226578       0.00392435       0.00320416      -4.51472053
Al      -1.08783237       6.04585776      -3.23742553       0.00453156      -0.00000008       0.00320424      -4.51472054
Al       1.08783284       2.01528595       3.23742461      -0.00453145       0.00000005      -0.00320409      -4.51472053
Al       3.45273125       1.94973354       0.05352284      -0.00226580      -0.00392432       0.00320418      -4.51472054
Al      -1.12567908       2.08083837       6.52837293       0.00226581       0.00392445      -0.00320429      -4.51472055
Al       6.94330892       0.06555230       0.05352278      -0.00226576       0.00392416       0.00320419      -4.51472053
Al      -0.03784636       3.96501958       4.98994503      -0.00226581      -0.00392440       0.00320439      -4.51472055
Al       1.08783295       6.04585773      -1.69899806      -0.00453148      -0.00000002      -0.00320422      -4.51472054
Al       2.36489845       0.06555238       1.59195070       0.00226581       0.00392427      -0.00320427      -4.51472054
Al      -1.08783252       2.01528595       1.69899722       0.00453138       0.00000003       0.00320407      -4.51472053
Al       5.85547624       1.94973360       1.59195029       0.00226581      -0.00392425      -0.00320412      -4.51472053
Al       0.03784684       3.96501953      -0.05352364       0.00226572      -0.00392425      -0.00320424      -4.51472053
Al       3.52842473       5.98030555       4.88289816       0.00226578      -0.00392435      -0.00320416      -4.51472053
Al       5.74193652       2.01528596       6.52837253      -0.00453156       0.00000008      -0.00320424      -4.51472054
Al       3.56627130       6.04585777       0.05352239       0.00453145      -0.00000005       0.00320409      -4.51472053
Al       1.20137290       6.11141017       3.23742416       0.00226580       0.00392432      -0.00320418      -4.51472054
Al       5.77978322       5.98030534      -3.23742593      -0.00226581      -0.00392445       0.00320429      -4.51472055
Al      -2.28920478       7.99559141       3.23742422       0.00226576      -0.00392416      -0.00320419      -4.51472053
Al       4.69195050       4.09612414      -1.69899803       0.00226581       0.00392440      -0.00320439      -4.51472055
Al       3.56627119       2.01528599       4.98994506       0.00453148       0.00000002       0.00320422      -4.51472054
Al       2.28920570       7.99559134       1.69899630      -0.00226581      -0.00392427       0.00320427      -4.51472054
Al       5.74193667       6.04585777       1.59194978      -0.00453138      -0.00000003      -0.00320407      -4.51472053
Al      -1.20137210       6.11141011       1.69899671      -0.00226581       0.00392425       0.00320412      -4.51472053
Al       4.61625731       4.09612418       3.34447064      -0.00226572       0.00392425       0.00320424      -4.51472053
Ni      -1.13490535       5.99628632       4.19463459       0.00039404      -0.00068264       0.00111476      -6.17633955
Ni       4.65410390       3.93142879       0.82273627      -0.00000001      -0.00136534       0.00000010      -6.17633955
Ni       3.43333757       2.01528590      -2.38726158      -0.00078828      -0.00000004       0.00111476      -6.17633954
Ni      -2.24119116       3.98100033       0.82273674       0.00118232      -0.00068266      -0.00000001      -6.17633953
Ni       7.00977559       0.04957147      -2.38726156       0.00039413       0.00068262       0.00111474      -6.17633953
Ni      -3.40471704       6.09542927      -2.46821157       0.00118241       0.00068267       0.00000003      -6.17633955
Ni       2.24119168       3.98100043       4.11368459      -0.00118233      -0.00068282       0.00000007      -6.17633955
Ni       1.13490613       5.99628620       0.74178628      -0.00039416      -0.00068258      -0.00111463      -6.17633953
Ni       0.00000004       0.09914321       7.40463340       0.00000014       0.00136524      -0.00000006      -6.17633954
Ni       5.87487002       2.01528587       4.03273467       0.00078816       0.00000017      -0.00111481      -6.17633954
Ni       3.40471761       6.09542928      -2.46821195      -0.00118231       0.00068260      -0.00000013      -6.17633952
Ni       2.29843173       0.04957152       4.03273513      -0.00039411       0.00068276      -0.00111482      -6.17633956
Ni       5.78900949       2.06485740      -0.90368759      -0.00039404       0.00068264      -0.00111476      -6.17633955
Ni       0.00000024       4.12971493       2.46821073       0.00000001       0.00136534      -0.00000010      -6.17633955
Ni       1.22076657       6.04585781       5.67820858       0.00078828       0.00000004      -0.00111476      -6.17633954
Ni       6.89529530       4.08014339       2.46821026      -0.00118232       0.00068266       0.00000001      -6.17633953
Ni      -2.35567145       8.01157224       5.67820856      -0.00039413      -0.00068262      -0.00111474      -6.17633953
Ni       8.05882118       1.96571444       5.75915857      -0.00118241      -0.00068267      -0.00000003      -6.17633955
Ni       2.41291246       4.08014329      -0.82273759       0.00118233       0.00068282      -0.00000007      -6.17633955
Ni       3.51919802       2.06485752       2.54916072       0.00039416       0.00068258       0.00111463      -6.17633953
Ni       4.65410411       7.96200051      -4.11368640      -0.00000014      -0.00136524       0.00000006      -6.17633954
Ni      -1.22076588       6.04585785      -0.74178767      -0.00078816      -0.00000017       0.00111481      -6.17633954
Ni       1.24938654       1.96571443       5.75915896       0.00118231      -0.00068260       0.00000013      -6.17633952
Ni       2.35567242       8.01157219      -0.74178813       0.00039411      -0.00068276       0.00111482      -6.17633956
