8
Lattice="4.902591543608763 7.464797706946864e-15 -4.3342780982345185e-15 6.868971442961713e-15 4.902591543608732 -3.4103200794533976e-14 -4.553644416506305e-15 -5.0734199027592307e-14 4.902591543608734" Properties=species:S:1:pos:R:3:forces:R:3:energies:R:1 energy=-42.88230243495277 stress="-0.0008177907146419483 7.870008553618086e-16 -4.828818746554774e-16 7.870008553618086e-16 -0.0008177907146452948 -4.740450354703226e-15 -4.828818746554774e-16 -4.740450354703226e-15 -0.0008177907146451075" free_energy=-42.88230243495277 pbc="T T T"
Al       4.14206327       4.14206327       4.14206327      -0.00772044      -0.00772044      -0.00772044      -5.30945260
Al       3.21182405       0.76052827       1.69076750       0.00772044       0.00772044      -0.00772044      -5.30945260
Al       1.69076750       3.21182405       0.76052827      -0.00772044       0.00772044       0.00772044      -5.30945260
Al       0.76052827       1.69076750       3.21182405       0.00772044      -0.00772044       0.00772044      -5.30945260
Pd       0.72535751       0.72535751       0.72535751      -0.01102735      -0.01102735      -0.01102735      -5.41112301
Pd       1.72593826       4.17723403       3.17665328       0.01102735       0.01102735      -0.01102735      -5.41112301
Pd       3.17665328       1.72593826       4.17723403      -0.01102735       0.01102735       0.01102735      -5.41112301
Pd       4.17723403       3.17665328       1.72593826       0.01102735      -0.01102735       0.01102735      -5.41112301
