2
Lattice="3.0006690201452577 1.400119664500388e-16 -1.2807625807650745e-16 -2.611640208806363e-16 3.000669020145259 -1.3183109032119516e-16 -4.867795837412297e-18 -8.483271270084337e-16 3.0006690201452577" Properties=species:S:1:pos:R:3:forces:R:3:energies:R:1 energy=-13.311840752008798 stress="-0.0006374497675152743 -4.923552922467036e-17 -4.8234847149387017e-17 -4.923552922467036e-17 -0.0006374497675149362 -1.637716293017896e-16 -4.8234847149387017e-17 -1.637716293017896e-16 -0.0006374497675152261" free_energy=-13.311840752008798 pbc="T T T"
Al      -0.00000000      -0.00000000      -0.00000000      -0.00000001      -0.00000001      -0.00000001      -5.82685517
Rh       1.50033451       1.50033451       1.50033451       0.00000001       0.00000001       0.00000001      -7.48498558
