1
Lattice="2.1492814053185945 6.061742016758386e-08 1.2408881825306441 0.716426855603167 2.026362344363584 1.240888182530645 -1.3155201913248286e-09 -9.302121704479854e-10 2.4817763572402245" Properties=species:S:1:pos:R:3:forces:R:3:energies:R:1 energy=-5.731895276296691 stress="-0.0006993619118957439 -4.7365882822169464e-08 7.882502442257266e-10 -4.7365882822169464e-08 -0.0006991451681354628 5.57377156120739e-10 7.882502442257266e-10 5.57377156120739e-10 -0.0006994088158509267" free_energy=-5.731895276296691 pbc="T T T"
Ni       0.00000000       0.00000000       0.00000000       0.00000000       0.00000000       0.00000000      -5.73189528
