8
Lattice="4.8657922 0.0 0.0 -0.0 4.8657922 -0.0 0.0 -0.0 4.8657922" Properties=species:S:1:pos:R:3 pbc="T T T"
Al       4.10893321       4.10893321       4.10893321
Al       3.18975509       0.75685899       1.67603711
Al       1.67603711       3.18975509       0.75685899
Al       0.75685899       1.67603711       3.18975509
Pd       0.72125404       0.72125404       0.72125404
Pd       1.71164206       4.14453816       3.15415014
Pd       3.15415014       1.71164206       4.14453816
Pd       4.14453816       3.15415014       1.71164206
