128
Lattice="13.209774159058638 0.0 0.0 0.0 13.209774159058638 0.0 0.0 0.0 13.209774159058638" Properties=species:S:1:pos:R:3 pbc="T T T"
Ta       0.00000000       0.00000000       0.00000000
Ta       1.65122177       1.65122177       1.65122177
Ta       0.00000000       0.00000000       3.30244354
Ta       1.65122177       1.65122177       4.95366531
Ta       0.00000000       0.00000000       6.60488708
Ta       1.65122177       1.65122177       8.25610885
Ta       0.00000000       0.00000000       9.90733062
Ta       1.65122177       1.65122177      11.55855239
Ta       0.00000000       3.30244354       0.00000000
Ta       1.65122177       4.95366531       1.65122177
Ta       0.00000000       3.30244354       3.30244354
Ta       1.65122177       4.95366531       4.95366531
Ta       0.00000000       3.30244354       6.60488708
Ta       1.65122177       4.95366531       8.25610885
Ta       0.00000000       3.30244354       9.90733062
Ta       1.65122177       4.95366531      11.55855239
Ta       0.00000000       6.60488708       0.00000000
Ta       1.65122177       8.25610885       1.65122177
Ta       0.00000000       6.60488708       3.30244354
Ta       1.65122177       8.25610885       4.95366531
Ta       0.00000000       6.60488708       6.60488708
Ta       1.65122177       8.25610885       8.25610885
Ta       0.00000000       6.60488708       9.90733062
Ta       1.65122177       8.25610885      11.55855239
Ta       0.00000000       9.90733062       0.00000000
Ta       1.65122177      11.55855239       1.65122177
Ta       0.00000000       9.90733062       3.30244354
Ta       1.65122177      11.55855239       4.95366531
Ta       0.00000000       9.90733062       6.60488708
Ta       1.65122177      11.55855239       8.25610885
Ta       0.00000000       9.90733062       9.90733062
Ta       1.65122177      11.55855239      11.55855239
Ta       3.30244354       0.00000000       0.00000000
Ta       4.95366531       1.65122177       1.65122177
Ta       3.30244354       0.00000000       3.30244354
Ta       4.95366531       1.65122177       4.95366531
Ta       3.30244354       0.00000000       6.60488708
Ta       4.95366531       1.65122177       8.25610885
Ta       3.30244354       0.00000000       9.90733062
Ta       4.95366531       1.65122177      11.55855239
Ta       3.30244354       3.30244354       0.00000000
Ta       4.95366531       4.95366531       1.65122177
Ta       3.30244354       3.30244354       3.30244354
Ta       4.95366531       4.95366531       4.95366531
Ta       3.30244354       3.30244354       6.60488708
Ta       4.95366531       4.95366531       8.25610885
Ta       3.30244354       3.30244354       9.90733062
Ta       4.95366531       4.95366531      11.55855239
Ta       3.30244354       6.60488708       0.00000000
Ta       4.95366531       8.25610885       1.65122177
Ta       3.30244354       6.60488708       3.30244354
Ta       4.95366531       8.25610885       4.95366531
Ta       3.30244354       6.60488708       6.60488708
Ta       4.95366531       8.25610885       8.25610885
Ta       3.30244354       6.60488708       9.90733062
Ta       4.95366531       8.25610885      11.55855239
Ta       3.30244354       9.90733062       0.00000000
Ta       4.95366531      11.55855239       1.65122177
Ta       3.30244354       9.90733062       3.30244354
Ta       4.95366531      11.55855239       4.95366531
Ta       3.30244354       9.90733062       6.60488708
Ta       4.95366531      11.55855239       8.25610885
Ta       3.30244354       9.90733062       9.90733062
Ta       4.95366531      11.55855239      11.55855239
Ta       6.60488708       0.00000000       0.00000000
Ta       8.25610885       1.65122177       1.65122177
Ta       6.60488708       0.00000000       3.30244354
Ta       8.25610885       1.65122177       4.95366531
Ta       6.60488708       0.00000000       6.60488708
Ta       8.25610885       1.65122177       8.25610885
Ta       6.60488708       0.00000000       9.90733062
Ta       8.25610885       1.65122177      11.55855239
Ta       6.60488708       3.30244354       0.00000000
Ta       8.25610885       4.95366531       1.65122177
Ta       6.60488708       3.30244354       3.30244354
Ta       8.25610885       4.95366531       4.95366531
Ta       6.60488708       3.30244354       6.60488708
Ta       8.25610885       4.95366531       8.25610885
Ta       6.60488708       3.30244354       9.90733062
Ta       8.25610885       4.95366531      11.55855239
Ta       6.60488708       6.60488708       0.00000000
Ta       8.25610885       8.25610885       1.65122177
Ta       6.60488708       6.60488708       3.30244354
Ta       8.25610885       8.25610885       4.95366531
Ta       6.60488708       6.60488708       6.60488708
Ta       8.25610885       8.25610885       8.25610885
Ta       6.60488708       6.60488708       9.90733062
Ta       8.25610885       8.25610885      11.55855239
Ta       6.60488708       9.90733062       0.00000000
Ta       8.25610885      11.55855239       1.65122177
Ta       6.60488708       9.90733062       3.30244354
Ta       8.25610885      11.55855239       4.95366531
Ta       6.60488708       9.90733062       6.60488708
Ta       8.25610885      11.55855239       8.25610885
Ta       6.60488708       9.90733062       9.90733062
Ta       8.25610885      11.55855239      11.55855239
Ta       9.90733062       0.00000000       0.00000000
Ta      11.55855239       1.65122177       1.65122177
Ta       9.90733062       0.00000000       3.30244354
Ta      11.55855239       1.65122177       4.95366531
Ta       9.90733062       0.00000000       6.60488708
Ta      11.55855239       1.65122177       8.25610885
Ta       9.90733062       0.00000000       9.90733062
Ta      11.55855239       1.65122177      11.55855239
Ta       9.90733062       3.30244354       0.00000000
Ta      11.55855239       4.95366531       1.65122177
Ta       9.90733062       3.30244354       3.30244354
Ta      11.55855239       4.95366531       4.95366531
Ta       9.90733062       3.30244354       6.60488708
Ta      11.55855239       4.95366531       8.25610885
Ta       9.90733062       3.30244354       9.90733062
Ta      11.55855239       4.95366531      11.55855239
Ta       9.90733062       6.60488708       0.00000000
Ta      11.55855239       8.25610885       1.65122177
Ta       9.90733062       6.60488708       3.30244354
Ta      11.55855239       8.25610885       4.95366531
Ta       9.90733062       6.60488708       6.60488708
Ta      11.55855239       8.25610885       8.25610885
Ta       9.90733062       6.60488708       9.90733062
Ta      11.55855239       8.25610885      11.55855239
Ta       9.90733062       9.90733062       0.00000000
Ta      11.55855239      11.55855239       1.65122177
Ta       9.90733062       9.90733062       3.30244354
Ta      11.55855239      11.55855239       4.95366531
Ta       9.90733062       9.90733062       6.60488708
Ta      11.55855239      11.55855239       8.25610885
Ta       9.90733062       9.90733062       9.90733062
Ta      11.55855239      11.55855239      11.55855239
