128
Lattice="13.200536554751604 0.0 0.0 0.0 13.200536554751604 0.0 0.0 0.0 13.200536554751604" Properties=species:S:1:pos:R:3 pbc="T T T"
Nb       0.00000000       0.00000000       0.00000000
Nb       1.65006707       1.65006707       1.65006707
Nb       0.00000000       0.00000000       3.30013414
Nb       1.65006707       1.65006707       4.95020121
Nb       0.00000000       0.00000000       6.60026828
Nb       1.65006707       1.65006707       8.25033535
Nb       0.00000000       0.00000000       9.90040242
Nb       1.65006707       1.65006707      11.55046949
Nb       0.00000000       3.30013414       0.00000000
Nb       1.65006707       4.95020121       1.65006707
Nb       0.00000000       3.30013414       3.30013414
Nb       1.65006707       4.95020121       4.95020121
Nb       0.00000000       3.30013414       6.60026828
Nb       1.65006707       4.95020121       8.25033535
Nb       0.00000000       3.30013414       9.90040242
Nb       1.65006707       4.95020121      11.55046949
Nb       0.00000000       6.60026828       0.00000000
Nb       1.65006707       8.25033535       1.65006707
Nb       0.00000000       6.60026828       3.30013414
Nb       1.65006707       8.25033535       4.95020121
Nb       0.00000000       6.60026828       6.60026828
Nb       1.65006707       8.25033535       8.25033535
Nb       0.00000000       6.60026828       9.90040242
Nb       1.65006707       8.25033535      11.55046949
Nb       0.00000000       9.90040242       0.00000000
Nb       1.65006707      11.55046949       1.65006707
Nb       0.00000000       9.90040242       3.30013414
Nb       1.65006707      11.55046949       4.95020121
Nb       0.00000000       9.90040242       6.60026828
Nb       1.65006707      11.55046949       8.25033535
Nb       0.00000000       9.90040242       9.90040242
Nb       1.65006707      11.55046949      11.55046949
Nb       3.30013414       0.00000000       0.00000000
Nb       4.95020121       1.65006707       1.65006707
Nb       3.30013414       0.00000000       3.30013414
Nb       4.95020121       1.65006707       4.95020121
Nb       3.30013414       0.00000000       6.60026828
Nb       4.95020121       1.65006707       8.25033535
Nb       3.30013414       0.00000000       9.90040242
Nb       4.95020121       1.65006707      11.55046949
Nb       3.30013414       3.30013414       0.00000000
Nb       4.95020121       4.95020121       1.65006707
Nb       3.30013414       3.30013414       3.30013414
Nb       4.95020121       4.95020121       4.95020121
Nb       3.30013414       3.30013414       6.60026828
Nb       4.95020121       4.95020121       8.25033535
Nb       3.30013414       3.30013414       9.90040242
Nb       4.95020121       4.95020121      11.55046949
Nb       3.30013414       6.60026828       0.00000000
Nb       4.95020121       8.25033535       1.65006707
Nb       3.30013414       6.60026828       3.30013414
Nb       4.95020121       8.25033535       4.95020121
Nb       3.30013414       6.60026828       6.60026828
Nb       4.95020121       8.25033535       8.25033535
Nb       3.30013414       6.60026828       9.90040242
Nb       4.95020121       8.25033535      11.55046949
Nb       3.30013414       9.90040242       0.00000000
Nb       4.95020121      11.55046949       1.65006707
Nb       3.30013414       9.90040242       3.30013414
Nb       4.95020121      11.55046949       4.95020121
Nb       3.30013414       9.90040242       6.60026828
Nb       4.95020121      11.55046949       8.25033535
Nb       3.30013414       9.90040242       9.90040242
Nb       4.95020121      11.55046949      11.55046949
Nb       6.60026828       0.00000000       0.00000000
Nb       8.25033535       1.65006707       1.65006707
Nb       6.60026828       0.00000000       3.30013414
Nb       8.25033535       1.65006707       4.95020121
Nb       6.60026828       0.00000000       6.60026828
Nb       8.25033535       1.65006707       8.25033535
Nb       6.60026828       0.00000000       9.90040242
Nb       8.25033535       1.65006707      11.55046949
Nb       6.60026828       3.30013414       0.00000000
Nb       8.25033535       4.95020121       1.65006707
Nb       6.60026828       3.30013414       3.30013414
Nb       8.25033535       4.95020121       4.95020121
Nb       6.60026828       3.30013414       6.60026828
Nb       8.25033535       4.95020121       8.25033535
Nb       6.60026828       3.30013414       9.90040242
Nb       8.25033535       4.95020121      11.55046949
Nb       6.60026828       6.60026828       0.00000000
Nb       8.25033535       8.25033535       1.65006707
Nb       6.60026828       6.60026828       3.30013414
Nb       8.25033535       8.25033535       4.95020121
Nb       6.60026828       6.60026828       6.60026828
Nb       8.25033535       8.25033535       8.25033535
Nb       6.60026828       6.60026828       9.90040242
Nb       8.25033535       8.25033535      11.55046949
Nb       6.60026828       9.90040242       0.00000000
Nb       8.25033535      11.55046949       1.65006707
Nb       6.60026828       9.90040242       3.30013414
Nb       8.25033535      11.55046949       4.95020121
Nb       6.60026828       9.90040242       6.60026828
Nb       8.25033535      11.55046949       8.25033535
Nb       6.60026828       9.90040242       9.90040242
Nb       8.25033535      11.55046949      11.55046949
Nb       9.90040242       0.00000000       0.00000000
Nb      11.55046949       1.65006707       1.65006707
Nb       9.90040242       0.00000000       3.30013414
Nb      11.55046949       1.65006707       4.95020121
Nb       9.90040242       0.00000000       6.60026828
Nb      11.55046949       1.65006707       8.25033535
Nb       9.90040242       0.00000000       9.90040242
Nb      11.55046949       1.65006707      11.55046949
Nb       9.90040242       3.30013414       0.00000000
Nb      11.55046949       4.95020121       1.65006707
Nb       9.90040242       3.30013414       3.30013414
Nb      11.55046949       4.95020121       4.95020121
Nb       9.90040242       3.30013414       6.60026828
Nb      11.55046949       4.95020121       8.25033535
Nb       9.90040242       3.30013414       9.90040242
Nb      11.55046949       4.95020121      11.55046949
Nb       9.90040242       6.60026828       0.00000000
Nb      11.55046949       8.25033535       1.65006707
Nb       9.90040242       6.60026828       3.30013414
Nb      11.55046949       8.25033535       4.95020121
Nb       9.90040242       6.60026828       6.60026828
Nb      11.55046949       8.25033535       8.25033535
Nb       9.90040242       6.60026828       9.90040242
Nb      11.55046949       8.25033535      11.55046949
Nb       9.90040242       9.90040242       0.00000000
Nb      11.55046949      11.55046949       1.65006707
Nb       9.90040242       9.90040242       3.30013414
Nb      11.55046949      11.55046949       4.95020121
Nb       9.90040242       9.90040242       6.60026828
Nb      11.55046949      11.55046949       8.25033535
Nb       9.90040242       9.90040242       9.90040242
Nb      11.55046949      11.55046949      11.55046949
