128
Lattice="11.51005496656438 0.0 0.0 0.0 11.51005496656438 0.0 0.0 0.0 11.51005496656438" Properties=species:S:1:pos:R:3 pbc="T T T"
Ni       0.00000000       0.00000000       0.00000000
Ni       1.43875687       1.43875687       1.43875687
Ni       0.00000000       0.00000000       2.87751374
Ni       1.43875687       1.43875687       4.31627061
Ni       0.00000000       0.00000000       5.75502748
Ni       1.43875687       1.43875687       7.19378435
Ni       0.00000000       0.00000000       8.63254122
Ni       1.43875687       1.43875687      10.07129810
Ni       0.00000000       2.87751374       0.00000000
Ni       1.43875687       4.31627061       1.43875687
Ni       0.00000000       2.87751374       2.87751374
Ni       1.43875687       4.31627061       4.31627061
Ni       0.00000000       2.87751374       5.75502748
Ni       1.43875687       4.31627061       7.19378435
Ni       0.00000000       2.87751374       8.63254122
Ni       1.43875687       4.31627061      10.07129810
Ni       0.00000000       5.75502748       0.00000000
Ni       1.43875687       7.19378435       1.43875687
Ni       0.00000000       5.75502748       2.87751374
Ni       1.43875687       7.19378435       4.31627061
Ni       0.00000000       5.75502748       5.75502748
Ni       1.43875687       7.19378435       7.19378435
Ni       0.00000000       5.75502748       8.63254122
Ni       1.43875687       7.19378435      10.07129810
Ni       0.00000000       8.63254122       0.00000000
Ni       1.43875687      10.07129810       1.43875687
Ni       0.00000000       8.63254122       2.87751374
Ni       1.43875687      10.07129810       4.31627061
Ni       0.00000000       8.63254122       5.75502748
Ni       1.43875687      10.07129810       7.19378435
Ni       0.00000000       8.63254122       8.63254122
Ni       1.43875687      10.07129810      10.07129810
Ni       2.87751374       0.00000000       0.00000000
Ni       4.31627061       1.43875687       1.43875687
Ni       2.87751374       0.00000000       2.87751374
Ni       4.31627061       1.43875687       4.31627061
Ni       2.87751374       0.00000000       5.75502748
Ni       4.31627061       1.43875687       7.19378435
Ni       2.87751374       0.00000000       8.63254122
Ni       4.31627061       1.43875687      10.07129810
Ni       2.87751374       2.87751374       0.00000000
Ni       4.31627061       4.31627061       1.43875687
Ni       2.87751374       2.87751374       2.87751374
Ni       4.31627061       4.31627061       4.31627061
Ni       2.87751374       2.87751374       5.75502748
Ni       4.31627061       4.31627061       7.19378435
Ni       2.87751374       2.87751374       8.63254122
Ni       4.31627061       4.31627061      10.07129810
Ni       2.87751374       5.75502748       0.00000000
Ni       4.31627061       7.19378435       1.43875687
Ni       2.87751374       5.75502748       2.87751374
Ni       4.31627061       7.19378435       4.31627061
Ni       2.87751374       5.75502748       5.75502748
Ni       4.31627061       7.19378435       7.19378435
Ni       2.87751374       5.75502748       8.63254122
Ni       4.31627061       7.19378435      10.07129810
Ni       2.87751374       8.63254122       0.00000000
Ni       4.31627061      10.07129810       1.43875687
Ni       2.87751374       8.63254122       2.87751374
Ni       4.31627061      10.07129810       4.31627061
Ni       2.87751374       8.63254122       5.75502748
Ni       4.31627061      10.07129810       7.19378435
Ni       2.87751374       8.63254122       8.63254122
Ni       4.31627061      10.07129810      10.07129810
Ni       5.75502748       0.00000000       0.00000000
Ni       7.19378435       1.43875687       1.43875687
Ni       5.75502748       0.00000000       2.87751374
Ni       7.19378435       1.43875687       4.31627061
Ni       5.75502748       0.00000000       5.75502748
Ni       7.19378435       1.43875687       7.19378435
Ni       5.75502748       0.00000000       8.63254122
Ni       7.19378435       1.43875687      10.07129810
Ni       5.75502748       2.87751374       0.00000000
Ni       7.19378435       4.31627061       1.43875687
Ni       5.75502748       2.87751374       2.87751374
Ni       7.19378435       4.31627061       4.31627061
Ni       5.75502748       2.87751374       5.75502748
Ni       7.19378435       4.31627061       7.19378435
Ni       5.75502748       2.87751374       8.63254122
Ni       7.19378435       4.31627061      10.07129810
Ni       5.75502748       5.75502748       0.00000000
Ni       7.19378435       7.19378435       1.43875687
Ni       5.75502748       5.75502748       2.87751374
Ni       7.19378435       7.19378435       4.31627061
Ni       5.75502748       5.75502748       5.75502748
Ni       7.19378435       7.19378435       7.19378435
Ni       5.75502748       5.75502748       8.63254122
Ni       7.19378435       7.19378435      10.07129810
Ni       5.75502748       8.63254122       0.00000000
Ni       7.19378435      10.07129810       1.43875687
Ni       5.75502748       8.63254122       2.87751374
Ni       7.19378435      10.07129810       4.31627061
Ni       5.75502748       8.63254122       5.75502748
Ni       7.19378435      10.07129810       7.19378435
Ni       5.75502748       8.63254122       8.63254122
Ni       7.19378435      10.07129810      10.07129810
Ni       8.63254122       0.00000000       0.00000000
Ni      10.07129810       1.43875687       1.43875687
Ni       8.63254122       0.00000000       2.87751374
Ni      10.07129810       1.43875687       4.31627061
Ni       8.63254122       0.00000000       5.75502748
Ni      10.07129810       1.43875687       7.19378435
Ni       8.63254122       0.00000000       8.63254122
Ni      10.07129810       1.43875687      10.07129810
Ni       8.63254122       2.87751374       0.00000000
Ni      10.07129810       4.31627061       1.43875687
Ni       8.63254122       2.87751374       2.87751374
Ni      10.07129810       4.31627061       4.31627061
Ni       8.63254122       2.87751374       5.75502748
Ni      10.07129810       4.31627061       7.19378435
Ni       8.63254122       2.87751374       8.63254122
Ni      10.07129810       4.31627061      10.07129810
Ni       8.63254122       5.75502748       0.00000000
Ni      10.07129810       7.19378435       1.43875687
Ni       8.63254122       5.75502748       2.87751374
Ni      10.07129810       7.19378435       4.31627061
Ni       8.63254122       5.75502748       5.75502748
Ni      10.07129810       7.19378435       7.19378435
Ni       8.63254122       5.75502748       8.63254122
Ni      10.07129810       7.19378435      10.07129810
Ni       8.63254122       8.63254122       0.00000000
Ni      10.07129810      10.07129810       1.43875687
Ni       8.63254122       8.63254122       2.87751374
Ni      10.07129810      10.07129810       4.31627061
Ni       8.63254122       8.63254122       5.75502748
Ni      10.07129810      10.07129810       7.19378435
Ni       8.63254122       8.63254122       8.63254122
Ni      10.07129810      10.07129810      10.07129810
