Cu30Al2 dilute solid solution
1.0
  7.220000  0.000000  0.000000
  0.000000  7.220000  0.000000
  0.000000  0.000000  7.220000
  Cu  Al
  30  2
Direct
  0.000000  0.250000  0.250000
  0.250000  0.000000  0.250000
  0.250000  0.250000  0.000000
  0.000000  0.000000  0.500000
  0.000000  0.250000  0.750000
  0.250000  0.000000  0.750000
  0.250000  0.250000  0.500000
  0.000000  0.500000  0.000000
  0.000000  0.750000  0.250000
  0.250000  0.500000  0.250000
  0.250000  0.750000  0.000000
  0.000000  0.500000  0.500000
  0.000000  0.750000  0.750000
  0.250000  0.500000  0.750000
  0.250000  0.750000  0.500000
  0.500000  0.000000  0.000000
  0.500000  0.250000  0.250000
  0.750000  0.000000  0.250000
  0.750000  0.250000  0.000000
  0.500000  0.000000  0.500000
  0.500000  0.250000  0.750000
  0.750000  0.000000  0.750000
  0.750000  0.250000  0.500000
  0.500000  0.500000  0.000000
  0.500000  0.750000  0.250000
  0.750000  0.500000  0.250000
  0.750000  0.750000  0.000000
  0.500000  0.750000  0.750000
  0.750000  0.500000  0.750000
  0.750000  0.750000  0.500000
  0.000000  0.000000  0.000000
  0.500000  0.500000  0.500000
