Nb
 1.0000000000000000
    13.2847692512076403   -0.0000000000000000   -0.0000000000000000
     0.0000000000000007   13.2847692512077309    0.0000000000000587
     0.0000000000000022    0.0000000000000714   13.2847692512077575
 Nb 
 128
Direct
  0.0000000000000000 -0.0000000000000000 -0.0000000000000000
  0.6249999998490922  0.8749999996381714  0.6249999998490828
  0.5000000003309186  0.7500000001199996  0.5000000003309111
  0.6249999998490923  0.8749999996381728  0.3750000000599965
  0.5000000003309186  0.7500000001200009  0.2499999997890830
  0.6249999998490923  0.8749999996381741  0.1250000002709102
  0.5000000003309187  0.7500000001200022 -0.0000000000000033
  0.6249999998490922  0.6249999998490834  0.8749999996381702
  0.5000000003309186  0.5000000003309114  0.7500000001199985
  0.6249999998490922  0.6249999998490847  0.6249999998490839
  0.5000000003309187  0.5000000003309127  0.5000000003309122
  0.6249999998490923  0.6249999998490861  0.3750000000599976
  0.5000000003309187  0.5000000003309141  0.2499999997890841
  0.6249999998490923  0.6249999998490874  0.1250000002709113
  0.5000000003309186  0.7500000001199982  0.7500000001199973
  0.5000000003309188  0.5000000003309154 -0.0000000000000022
  0.5000000003309186  0.2499999997890828  0.7500000001199997
  0.6249999998490922  0.3750000000599978  0.6249999998490852
  0.5000000003309187  0.2499999997890842  0.5000000003309133
  0.6249999998490923  0.3750000000599991  0.3750000000599987
  0.5000000003309187  0.2499999997890855  0.2499999997890852
  0.6249999998490923  0.3750000000600004  0.1250000002709124
  0.5000000003309188  0.2499999997890869 -0.0000000000000011
  0.6249999998490922  0.1250000002709096  0.8749999996381725
  0.5000000003309186 -0.0000000000000040  0.7500000001200007
  0.6249999998490922  0.1250000002709109  0.6249999998490863
  0.5000000003309187 -0.0000000000000027  0.5000000003309144
  0.6249999998490923  0.1250000002709123  0.3750000000599998
  0.5000000003309187 -0.0000000000000013  0.2499999997890863
  0.6249999998490922  0.3750000000599965  0.8749999996381714
  0.6249999998490923  0.1250000002709136  0.1250000002709135
  0.6249999998490922  0.8749999996381701  0.8749999996381691
  0.8749999996381808  0.1250000002709136  0.1250000002709135
  0.8749999996381806  0.8749999996381714  0.6249999998490828
  0.7500000001200072  0.7500000001199996  0.5000000003309111
  0.8749999996381808  0.8749999996381728  0.3750000000599965
  0.7500000001200073  0.7500000001200009  0.2499999997890830
  0.8749999996381808  0.8749999996381741  0.1250000002709102
  0.7500000001200073  0.7500000001200022 -0.0000000000000033
  0.8749999996381806  0.6249999998490834  0.8749999996381702
  0.7500000001200072  0.5000000003309114  0.7500000001199985
  0.8749999996381806  0.6249999998490847  0.6249999998490839
  0.7500000001200072  0.5000000003309127  0.5000000003309122
  0.8749999996381808  0.6249999998490861  0.3750000000599976
  0.7500000001200073  0.5000000003309141  0.2499999997890841
  0.8749999996381808  0.6249999998490874  0.1250000002709113
  0.7500000001200073  0.0000000000000000  0.0000000000000000
  0.7500000001200073  0.5000000003309154 -0.0000000000000022
  0.7500000001200072  0.2499999997890828  0.7500000001199997
  0.8749999996381806  0.3750000000599978  0.6249999998490852
  0.7500000001200072  0.2499999997890842  0.5000000003309133
  0.8749999996381808  0.3750000000599991  0.3750000000599987
  0.7500000001200073  0.2499999997890855  0.2499999997890852
  0.8749999996381808  0.3750000000600004  0.1250000002709124
  0.7500000001200073  0.2499999997890869 -0.0000000000000011
  0.8749999996381806  0.1250000002709096  0.8749999996381725
  0.7500000001200072 -0.0000000000000040  0.7500000001200007
  0.8749999996381806  0.1250000002709109  0.6249999998490863
  0.7500000001200072 -0.0000000000000027  0.5000000003309144
  0.8749999996381808  0.1250000002709123  0.3750000000599998
  0.7500000001200073 -0.0000000000000013  0.2499999997890863
  0.8749999996381806  0.3750000000599965  0.8749999996381714
  0.5000000003309188  0.0000000000000000  0.0000000000000000
  0.3750000000600034  0.8749999996381701  0.8749999996381691
  0.2499999997890884  0.7500000001199982  0.7500000001199973
 -0.0000000000000001  0.7500000001199996  0.5000000003309111
  0.1250000002709150  0.8749999996381728  0.3750000000599965
 -0.0000000000000001  0.7500000001200009  0.2499999997890830
  0.1250000002709151  0.8749999996381741  0.1250000002709102
 -0.0000000000000000  0.7500000001200022 -0.0000000000000033
  0.1250000002709150  0.6249999998490834  0.8749999996381702
 -0.0000000000000001  0.5000000003309114  0.7500000001199985
  0.1250000002709150  0.6249999998490847  0.6249999998490839
 -0.0000000000000001  0.5000000003309127  0.5000000003309122
  0.1250000002709150  0.6249999998490861  0.3750000000599976
 -0.0000000000000001  0.5000000003309141  0.2499999997890841
  0.1250000002709151  0.6249999998490874  0.1250000002709113
 -0.0000000000000000  0.5000000003309154 -0.0000000000000022
  0.1250000002709150  0.8749999996381714  0.6249999998490828
  0.1250000002709150  0.3750000000599965  0.8749999996381714
  0.1250000002709150  0.3750000000599978  0.6249999998490852
 -0.0000000000000001  0.2499999997890842  0.5000000003309133
  0.1250000002709151  0.3750000000599991  0.3750000000599987
 -0.0000000000000001  0.2499999997890855  0.2499999997890852
  0.1250000002709151  0.3750000000600004  0.1250000002709124
 -0.0000000000000000  0.2499999997890869 -0.0000000000000011
  0.1250000002709150  0.1250000002709096  0.8749999996381725
 -0.0000000000000001 -0.0000000000000040  0.7500000001200007
  0.1250000002709150  0.1250000002709109  0.6249999998490863
 -0.0000000000000001 -0.0000000000000027  0.5000000003309144
  0.1250000002709151  0.1250000002709123  0.3750000000599998
 -0.0000000000000000 -0.0000000000000013  0.2499999997890863
  0.1250000002709151  0.1250000002709136  0.1250000002709135
 -0.0000000000000001  0.2499999997890828  0.7500000001199997
 -0.0000000000000002  0.7500000001199982  0.7500000001199973
  0.1250000002709150  0.8749999996381701  0.8749999996381691
  0.2499999997890885  0.0000000000000000  0.0000000000000000
  0.3750000000600034  0.8749999996381714  0.6249999998490828
  0.2499999997890884  0.7500000001199996  0.5000000003309111
  0.3750000000600036  0.8749999996381728  0.3750000000599965
  0.2499999997890885  0.7500000001200009  0.2499999997890830
  0.3750000000600036  0.8749999996381741  0.1250000002709102
  0.2499999997890885  0.7500000001200022 -0.0000000000000033
  0.3750000000600034  0.6249999998490834  0.8749999996381702
  0.2499999997890884  0.5000000003309114  0.7500000001199985
  0.3750000000600034  0.6249999998490847  0.6249999998490839
  0.2499999997890884  0.5000000003309127  0.5000000003309122
  0.3750000000600036  0.6249999998490861  0.3750000000599976
  0.2499999997890885  0.5000000003309141  0.2499999997890841
  0.3750000000600036  0.6249999998490874  0.1250000002709113
  0.2499999997890885  0.5000000003309154 -0.0000000000000022
  0.3750000000600036  0.3750000000599965  0.8749999996381714
  0.2499999997890884  0.2499999997890828  0.7500000001199997
  0.3750000000600036  0.3750000000599978  0.6249999998490852
  0.2499999997890885  0.2499999997890842  0.5000000003309133
  0.3750000000600036  0.3750000000599991  0.3750000000599987
  0.2499999997890885  0.2499999997890855  0.2499999997890852
  0.3750000000600037  0.3750000000600004  0.1250000002709124
  0.2499999997890885  0.2499999997890869 -0.0000000000000011
  0.3750000000600036  0.1250000002709096  0.8749999996381725
  0.2499999997890884 -0.0000000000000040  0.7500000001200007
  0.3750000000600036  0.1250000002709109  0.6249999998490863
  0.2499999997890885 -0.0000000000000027  0.5000000003309144
  0.3750000000600036  0.1250000002709123  0.3750000000599998
  0.2499999997890885 -0.0000000000000013  0.2499999997890863
  0.3750000000600037  0.1250000002709136  0.1250000002709135
  0.7500000001200072  0.7500000001199982  0.7500000001199973
  0.8749999996381806  0.8749999996381701  0.8749999996381691
