Ag107Al1 dilute solid solution
1.0
  12.270000  0.000000  0.000000
  0.000000  12.270000  0.000000
  0.000000  0.000000  12.270000
  Ag  Al
  107  1
Direct
  0.000000  0.166667  0.166667
  0.166667  0.000000  0.166667
  0.166667  0.166667  0.000000
  0.000000  0.000000  0.333333
  0.000000  0.166667  0.500000
  0.166667  0.000000  0.500000
  0.166667  0.166667  0.333333
  0.000000  0.000000  0.666667
  0.000000  0.166667  0.833333
  0.166667  0.000000  0.833333
  0.166667  0.166667  0.666667
  0.000000  0.333333  0.000000
  0.000000  0.500000  0.166667
  0.166667  0.333333  0.166667
  0.166667  0.500000  0.000000
  0.000000  0.333333  0.333333
  0.000000  0.500000  0.500000
  0.166667  0.333333  0.500000
  0.166667  0.500000  0.333333
  0.000000  0.333333  0.666667
  0.000000  0.500000  0.833333
  0.166667  0.333333  0.833333
  0.166667  0.500000  0.666667
  0.000000  0.666667  0.000000
  0.000000  0.833333  0.166667
  0.166667  0.666667  0.166667
  0.166667  0.833333  0.000000
  0.000000  0.666667  0.333333
  0.000000  0.833333  0.500000
  0.166667  0.666667  0.500000
  0.166667  0.833333  0.333333
  0.000000  0.666667  0.666667
  0.000000  0.833333  0.833333
  0.166667  0.666667  0.833333
  0.166667  0.833333  0.666667
  0.333333  0.000000  0.000000
  0.333333  0.166667  0.166667
  0.500000  0.000000  0.166667
  0.500000  0.166667  0.000000
  0.333333  0.000000  0.333333
  0.333333  0.166667  0.500000
  0.500000  0.000000  0.500000
  0.500000  0.166667  0.333333
  0.333333  0.000000  0.666667
  0.333333  0.166667  0.833333
  0.500000  0.000000  0.833333
  0.500000  0.166667  0.666667
  0.333333  0.333333  0.000000
  0.333333  0.500000  0.166667
  0.500000  0.333333  0.166667
  0.500000  0.500000  0.000000
  0.333333  0.333333  0.333333
  0.333333  0.500000  0.500000
  0.500000  0.333333  0.500000
  0.500000  0.500000  0.333333
  0.333333  0.333333  0.666667
  0.333333  0.500000  0.833333
  0.500000  0.333333  0.833333
  0.500000  0.500000  0.666667
  0.333333  0.666667  0.000000
  0.333333  0.833333  0.166667
  0.500000  0.666667  0.166667
  0.500000  0.833333  0.000000
  0.333333  0.666667  0.333333
  0.333333  0.833333  0.500000
  0.500000  0.666667  0.500000
  0.500000  0.833333  0.333333
  0.333333  0.666667  0.666667
  0.333333  0.833333  0.833333
  0.500000  0.666667  0.833333
  0.500000  0.833333  0.666667
  0.666667  0.000000  0.000000
  0.666667  0.166667  0.166667
  0.833333  0.000000  0.166667
  0.833333  0.166667  0.000000
  0.666667  0.000000  0.333333
  0.666667  0.166667  0.500000
  0.833333  0.000000  0.500000
  0.833333  0.166667  0.333333
  0.666667  0.000000  0.666667
  0.666667  0.166667  0.833333
  0.833333  0.000000  0.833333
  0.833333  0.166667  0.666667
  0.666667  0.333333  0.000000
  0.666667  0.500000  0.166667
  0.833333  0.333333  0.166667
  0.833333  0.500000  0.000000
  0.666667  0.333333  0.333333
  0.666667  0.500000  0.500000
  0.833333  0.333333  0.500000
  0.833333  0.500000  0.333333
  0.666667  0.333333  0.666667
  0.666667  0.500000  0.833333
  0.833333  0.333333  0.833333
  0.833333  0.500000  0.666667
  0.666667  0.666667  0.000000
  0.666667  0.833333  0.166667
  0.833333  0.666667  0.166667
  0.833333  0.833333  0.000000
  0.666667  0.666667  0.333333
  0.666667  0.833333  0.500000
  0.833333  0.666667  0.500000
  0.833333  0.833333  0.333333
  0.666667  0.666667  0.666667
  0.666667  0.833333  0.833333
  0.833333  0.666667  0.833333
  0.833333  0.833333  0.666667
  0.000000  0.000000  0.000000
