Al V 
 1.0000000000000000
    12.2091132105647944   -0.0286983872737217    0.0440562555543534
    -0.0284881240350873   12.3583647008935760   -0.0418843953783483
     0.0438011477681601   -0.0426131014856827   12.3055350585708574
 Al  V  
  64  64
Direct
  0.8813246690590554  0.1247456072684376  0.8694406532155032
  0.2394210987896203  0.7512129107891057  0.2472936671970158
  0.7655786786857713 -0.0015007690414261 -0.0106470672015024
  0.3622077515954606  0.6331547882633265  0.8647138054194499
  0.3727741071623727  0.6064167670542965  0.6270020573329094
  0.8850432116151284  0.1341710038282918  0.3612221175518174
  0.3726975747369862  0.6312238066939752  0.3773903122286534
  0.2615382179247653  0.4727399409349621  0.2650981340107609
  0.3738108398142065  0.6151272999217552  0.1399764732660184
  0.2551488074729570  0.4872328319664075 -0.0136518483504718
  0.7670973323457420 -0.0183731685816282  0.4819535523327880
  0.8755278967990072  0.1077088006939491  0.6309592797283357
  0.2399010525111687  0.2312193987124043  0.5192016334297972
  0.5110011986917866  0.4730333998931285  0.4985305116234916
  0.7455900099097462  0.7471574015879736  0.2615774622299475
  0.3862571107865730  0.3601112194850510  0.1137177759483065
  0.5138187520297965  0.7617447205307053  0.7434046023405071
  0.3749596795163485  0.1235987080854072  0.8624123028525069
  0.3562997219868532  0.8891633699653719  0.6492814729720248
  0.6397681760305518  0.8749146905135390  0.6117572236176571
  0.6251374020318240  0.6053477537654862  0.1335820777963407
  0.5035955196432562  0.4945578496313037 -0.0136513841615528
  0.6255827022155070  0.3522038887053781  0.8663577572844920
  0.4923196898781650  0.4783795107979872  0.7517523399404148
  0.6247804771667155  0.6202445428436120  0.8587997782295251
  0.4948608866001416  0.7414913140526942  0.0130603551099995
  0.6498037601927140  0.3660400356498882  0.3735674046823703
  0.5143688327068301  0.2595678621920853  0.2504879782596485
  0.5083777224568983  0.2281044416419300 -0.0094259990878352
  0.4818984461484573  0.7577186221590440  0.5147206915517003
  0.4897114316000882  0.0037848002671865  0.5022777727805835
  0.6326952678410885  0.1100358358267020  0.3766319496052679
  0.3826547230199536  0.1258476209588757  0.3673809830884557
  0.6275263269920678  0.1117884925505662  0.1247500548237011
  0.4862566953616907 -0.0046368874406086  0.0024239252820191
  0.2282346177123063  0.7517817479300927  0.7455808152717406
  0.8767887705996547  0.3645396176760258  0.1193879180661740
  0.6191426549421779  0.6284576039186809  0.3908415958215875
  0.2515021092056947 -0.0097651592173196  0.4968062722926241
  0.1271538706794951  0.1249056029138916  0.1104006234405718
  0.8778656936343842  0.8666938713408603  0.6450496549444591
  0.1134146808520361  0.1257871642326813  0.3795645301830104
  0.8939029627942972  0.8616675007489375  0.3641666813825509
  0.6335893829234521  0.8723356623731529  0.1238063772735947
  0.8789337175341031  0.8751868501610601  0.1207899759345924
  0.7499791419505629  0.7339483258979008 -0.0022809606193820
  0.8691121349318131  0.6193932473946321  0.8683042691349289
  0.1235590101330838  0.3574551372769484  0.3768851783281894
  0.1261459016982100  0.3819039789785678  0.6248948814146743
  0.0077929298388182  0.2493282398505665  0.7349186680809552
 -0.0118904705108402  0.4847791723288751 -0.0187607005114911
  0.1255971849201127  0.5924036561161855  0.1163620013648475
  0.1236398132037905  0.6281215301827616  0.3925133974523484
  0.7616942673244879  0.4935775634550739  0.2538259340739999
 -0.0049835416299889  0.4921171287675287  0.2648594465063346
  0.3714561859990486  0.3494690894322330  0.3989455078133613
  0.2450027425322231  0.0035015027006121  0.2559807525551714
  0.8704317020154554  0.3595306398242306  0.8562540801201159
  0.1218133346985973  0.8795893528934183  0.1185415670168492
  0.0147985832937723  0.7331723931459803  0.2418757915085131
  0.2492254847210915 -0.0037884741046292 -0.0142252993274669
 -0.0040789494783908  0.7464159183186102  0.5166623793617104
  0.1074427062333689  0.8529291095982855  0.8875985720852804
  0.7547765343513763  0.2421317973387975  0.5106839715736372
  0.8810693912990606  0.6278271296259655  0.1201350347161587
  0.6230376255309180  0.6170686244538653  0.6259028441048817
  0.7498058629567331  0.2403177747254073  0.0018439194939895
  0.7644725542240923  0.7377762833616969  0.4959767605626346
  0.8741025811849441  0.3749483946837840  0.3928078581796659
  0.7394654233662687 -0.0072176861803609  0.7631232099389496
  0.5007697961250736  0.9714834295194276  0.2543670128161858
  0.7485958358602999  0.4904100393674575  0.7416603150610771
  0.6000502126668151  0.8687730521579481  0.3694877148254613
  0.7570129208420793 -0.0047771278635499  0.2528053882567638
  0.8727121786132898  0.3802330926625571  0.6236290592726069
  0.8697098607321712  0.6106742655407719  0.6210007176551194
  0.7408553857885173  0.2324551131107472  0.7391064845510602
  0.7489987933136731  0.5086536971687043  0.5087334147209196
  0.7549830757475378  0.2355802377105929  0.2361169900102414
  0.6260429625136664  0.8676939651070474  0.8905992487278516
  0.8764094854776063  0.6239413154550156  0.3796409780030732
  0.7343267227778287  0.4845039713358931  0.0024268152499327
  0.8678863541214288  0.1304549285434737  0.1308615208629440
  0.5061899863502359  0.7481669320920186  0.2493044934326764
 -0.0033445153548378  0.0021800300218521 -0.0037007804797347
  0.3753963071553783  0.8492837978362299  0.8805209737863434
  0.5040740245883498  0.2334044448996489  0.7341134584567035
  0.1231710092169228  0.8783695281164591  0.6177393893856261
  0.1182626004911420  0.8732376844462327  0.3773728848832502
 -0.0092359862909288  0.7260769269790261  0.0161267872638171
  0.1248224360137344  0.6113873317412954  0.8658409097108727
  0.0006666172778011  0.5014508989891018  0.7477580215129300
  0.1234000806705732  0.6131369765727793  0.6283024199482752
 -0.0061999870973107  0.4885009898328163  0.4978698567478944
  0.1314846924245687  0.3642379325161622  0.8742090580509650
 -0.0086156464163107  0.2504961887425499  0.5060889977468089
  0.0101112962402805  0.2547644349375781  0.2374220962001330
  0.1170534109097403  0.3728733245636057  0.1301615672251420
  0.0083670671091806  0.2476486401501924 -0.0076476169170958
  0.1187843899902040  0.1263340617281883  0.8701654482623928
  0.0063806956155050 -0.0139585500567883  0.7557617471120313
  0.1206694087139732  0.0949687788962700  0.6299526774479229
 -0.0018351168911035 -0.0083201639465489  0.5004262475408003
  0.0045849581617905  0.0004012036955408  0.2458452991833642
 -0.0010987372907458  0.7306767970986208  0.7529001151121286
  0.3716345749443533  0.1287234963987589  0.1391623915465851
  0.3729261397081356  0.1178376701461588  0.6350601914550619
  0.2267329375303977 -0.0017136535810206  0.7698217985100462
  0.6286192668720972  0.3627613851009784  0.6313461440916933
  0.5157866235010276  0.2366847083369244  0.5108084068420453
  0.6349041498234866  0.3842139733607801  0.1131954875479229
  0.6206258947524850  0.0947332873223094  0.8614322939217194
  0.5109078618146859 -0.0133186528362658  0.7571441204797097
  0.6286585412681871  0.1103268840250879  0.6245312330509402
  0.7431202357022073  0.7382890751513780  0.7377750502764269
  0.2589530384361326  0.7438829615264284  0.5123107208935974
  0.4892896248622191  0.4925860207059956  0.2642503575357515
  0.3827549370060373  0.8704902730017741  0.3594423402473064
  0.2557967361383433  0.7403103943485402  0.0221561301954455
  0.2551086739684242  0.4816340645687903  0.7549240414526509
  0.2501224484449731  0.5012884682606966  0.4929422993004865
  0.3709868637754998  0.3540206386724798  0.8746584587419366
  0.2482252377478199  0.2423252593071100  0.7454809822407772
  0.3789995181475070  0.3523113808822775  0.6253529393820931
  0.2587271408137136  0.2373840873285116  0.2378196694419510
  0.2505676104253245  0.2543837417133455 -0.0090608812158182
  0.3584581734009699  0.8693212285089859  0.1200525773256652
  0.8733188293102441  0.8525564289792232  0.8690502251326888
