Nb127Al1 dilute solid solution
1.0
  13.204000  0.000000  0.000000
  0.000000  13.204000  0.000000
  0.000000  0.000000  13.204000
  Nb  Al
  127  1
Direct
  0.125000  0.125000  0.125000
  0.000000  0.000000  0.250000
  0.125000  0.125000  0.375000
  0.000000  0.000000  0.500000
  0.125000  0.125000  0.625000
  0.000000  0.000000  0.750000
  0.125000  0.125000  0.875000
  0.000000  0.250000  0.000000
  0.125000  0.375000  0.125000
  0.000000  0.250000  0.250000
  0.125000  0.375000  0.375000
  0.000000  0.250000  0.500000
  0.125000  0.375000  0.625000
  0.000000  0.250000  0.750000
  0.125000  0.375000  0.875000
  0.000000  0.500000  0.000000
  0.125000  0.625000  0.125000
  0.000000  0.500000  0.250000
  0.125000  0.625000  0.375000
  0.000000  0.500000  0.500000
  0.125000  0.625000  0.625000
  0.000000  0.500000  0.750000
  0.125000  0.625000  0.875000
  0.000000  0.750000  0.000000
  0.125000  0.875000  0.125000
  0.000000  0.750000  0.250000
  0.125000  0.875000  0.375000
  0.000000  0.750000  0.500000
  0.125000  0.875000  0.625000
  0.000000  0.750000  0.750000
  0.125000  0.875000  0.875000
  0.250000  0.000000  0.000000
  0.375000  0.125000  0.125000
  0.250000  0.000000  0.250000
  0.375000  0.125000  0.375000
  0.250000  0.000000  0.500000
  0.375000  0.125000  0.625000
  0.250000  0.000000  0.750000
  0.375000  0.125000  0.875000
  0.250000  0.250000  0.000000
  0.375000  0.375000  0.125000
  0.250000  0.250000  0.250000
  0.375000  0.375000  0.375000
  0.250000  0.250000  0.500000
  0.375000  0.375000  0.625000
  0.250000  0.250000  0.750000
  0.375000  0.375000  0.875000
  0.250000  0.500000  0.000000
  0.375000  0.625000  0.125000
  0.250000  0.500000  0.250000
  0.375000  0.625000  0.375000
  0.250000  0.500000  0.500000
  0.375000  0.625000  0.625000
  0.250000  0.500000  0.750000
  0.375000  0.625000  0.875000
  0.250000  0.750000  0.000000
  0.375000  0.875000  0.125000
  0.250000  0.750000  0.250000
  0.375000  0.875000  0.375000
  0.250000  0.750000  0.500000
  0.375000  0.875000  0.625000
  0.250000  0.750000  0.750000
  0.375000  0.875000  0.875000
  0.500000  0.000000  0.000000
  0.625000  0.125000  0.125000
  0.500000  0.000000  0.250000
  0.625000  0.125000  0.375000
  0.500000  0.000000  0.500000
  0.625000  0.125000  0.625000
  0.500000  0.000000  0.750000
  0.625000  0.125000  0.875000
  0.500000  0.250000  0.000000
  0.625000  0.375000  0.125000
  0.500000  0.250000  0.250000
  0.625000  0.375000  0.375000
  0.500000  0.250000  0.500000
  0.625000  0.375000  0.625000
  0.500000  0.250000  0.750000
  0.625000  0.375000  0.875000
  0.500000  0.500000  0.000000
  0.625000  0.625000  0.125000
  0.500000  0.500000  0.250000
  0.625000  0.625000  0.375000
  0.500000  0.500000  0.500000
  0.625000  0.625000  0.625000
  0.500000  0.500000  0.750000
  0.625000  0.625000  0.875000
  0.500000  0.750000  0.000000
  0.625000  0.875000  0.125000
  0.500000  0.750000  0.250000
  0.625000  0.875000  0.375000
  0.500000  0.750000  0.500000
  0.625000  0.875000  0.625000
  0.500000  0.750000  0.750000
  0.625000  0.875000  0.875000
  0.750000  0.000000  0.000000
  0.875000  0.125000  0.125000
  0.750000  0.000000  0.250000
  0.875000  0.125000  0.375000
  0.750000  0.000000  0.500000
  0.875000  0.125000  0.625000
  0.750000  0.000000  0.750000
  0.875000  0.125000  0.875000
  0.750000  0.250000  0.000000
  0.875000  0.375000  0.125000
  0.750000  0.250000  0.250000
  0.875000  0.375000  0.375000
  0.750000  0.250000  0.500000
  0.875000  0.375000  0.625000
  0.750000  0.250000  0.750000
  0.875000  0.375000  0.875000
  0.750000  0.500000  0.000000
  0.875000  0.625000  0.125000
  0.750000  0.500000  0.250000
  0.875000  0.625000  0.375000
  0.750000  0.500000  0.500000
  0.875000  0.625000  0.625000
  0.750000  0.500000  0.750000
  0.875000  0.625000  0.875000
  0.750000  0.750000  0.000000
  0.875000  0.875000  0.125000
  0.750000  0.750000  0.250000
  0.875000  0.875000  0.375000
  0.750000  0.750000  0.500000
  0.875000  0.875000  0.625000
  0.750000  0.750000  0.750000
  0.875000  0.875000  0.875000
  0.000000  0.000000  0.000000
