128
Lattice="11.367196329655606 -0.13156113030351288 0.003158789026857253 -0.1308968022573487 11.380260131950752 -0.05282670803287161 0.005400056341377127 -0.053337991593378827 12.400606380805822" Properties=species:S:1:pos:R:3:forces:R:3:energies:R:1 energy=-675.2318808113052 stress="0.000508338151063967 3.638591852495073e-05 -9.71472898067595e-05 3.638591852495073e-05 -0.0006107121740995111 0.00028626779559147106 -9.71472898067595e-05 0.00028626779559147106 3.5797612841918163e-06" free_energy=-675.2318808113052 pbc="T T T"
Ni      -0.03195319       0.29671394       0.37025895       0.00679288      -0.00301202      -0.00732549      -5.77209795
Al       1.24831000       1.62613805       2.05777985       0.00061514      -0.00879521       0.00024758      -4.77999884
Ni      -0.39626807      -0.13702811       3.22890714       0.00044977      -0.00240698       0.00246212      -6.10582690
Ni       1.75688993       1.04622843       4.32875902      -0.00171117       0.00260309       0.00102179      -5.68653286
Al       0.00203754       0.24915533       5.75444799      -0.00296780      -0.00376773       0.00104258      -4.27118854
Al       1.67405181       1.52742556       7.62210269      -0.00081886      -0.00744861       0.00230862      -4.52044687
Al      -0.09908167      -0.07169219       9.27118332       0.00344987      -0.00580322      -0.00217567      -4.28430189
Al       1.37168434       1.34262381      11.17376712      -0.00125849      -0.00058504      -0.00229542      -4.57001979
Ni      -0.07245128       2.88484175       0.23212887       0.00275703      -0.00138287      -0.00108093      -6.22196736
Al       1.22354010       4.43348943       1.63678225      -0.00283970       0.00403895       0.00570356      -4.74757166
Ni      -0.37148183       3.24429244       3.03109000      -0.00043278       0.00213498      -0.00146998      -6.06992975
Ni       0.57804945       4.99446945       4.52251853      -0.00250514      -0.00416193       0.00476779      -5.76753808
Al       0.60454798       2.88349066       5.42835621      -0.00026066       0.00053074      -0.00448817      -4.47759246
Ni       1.29804591       3.93278787       7.49030820       0.00989024      -0.00060850       0.00267298      -5.95234491
Ni       0.07994286       2.57713392       9.30478641       0.00224921       0.00269151      -0.00088792      -6.10779318
Al       1.31637063       4.11456513      11.09861233      -0.00537864       0.00067808       0.00002796      -4.58397841
Ni      -0.03890770       5.76767044      -0.03372709       0.00562615       0.00132008      -0.00024116      -6.26324751
Al       1.41306320       7.18208378       1.69525235       0.00054211      -0.00437896       0.00211217      -4.70294790
Ni      -0.43789695       6.00811126       2.61999306       0.00040251       0.00115910      -0.00142775      -5.91241711
Al       0.90741148       7.30862049       4.40839965       0.00373392      -0.00218430      -0.00161680      -4.65922116
Al      -0.19580953       5.79097774       6.49907026       0.00694474      -0.00477643      -0.01139377      -4.54822642
Al       1.24278788       7.29132422       8.08877852      -0.00022080       0.00144181      -0.00647433      -4.43950798
Ni       0.22527145       5.31736466       9.27298803       0.00088150      -0.00517665       0.00101947      -6.06516147
Al       1.38786300       6.93094256      10.72159555      -0.00403845       0.00200345       0.00389117      -4.54427482
Ni       0.26561347       8.39000877      -0.08880448      -0.00060153       0.00414242       0.00118083      -5.92148269
Al       1.06729677      10.03706458       1.52640349      -0.00519918       0.00423438      -0.00106813      -4.66693552
Ni      -0.40396386       8.63045249       2.92207004       0.00141053      -0.00266264       0.00332746      -5.93014597
Al       1.31799897      10.00130368       4.25431506      -0.00417755      -0.00217218       0.00030476      -4.64314665
Ni      -0.10205007       8.28686430       6.37110751       0.00347582      -0.00509310      -0.00267598      -5.86899871
Al       1.13872641       9.91876611       7.44539273       0.00055923       0.00233236       0.00660796      -4.28772192
Ni       0.25037357       8.91750610       9.65560280      -0.00251096       0.00495169      -0.00014655      -6.02268487
Ni       1.65164124      10.25783475      11.37031180      -0.00150646      -0.00060562      -0.00275716      -6.01732025
Al       3.28093545       0.28943812       0.51856545      -0.00335776       0.00030215       0.00575811      -4.47587233
Ni       3.58725164       1.96854691       2.29531178      -0.00093163      -0.00610408       0.00055931      -5.83716528
Ni       3.19476943      -0.44787513       2.87234023       0.00000433      -0.00346816      -0.00498987      -5.94392546
Ni       4.45032662       1.10725750       4.52395553      -0.00016414       0.00632070       0.00554426      -5.80978067
Ni       2.90005921      -0.25492112       6.16301372      -0.00097882       0.00236333      -0.00005628      -6.04169112
Ni       4.13845265       1.12205026       7.95868740      -0.00255840       0.00097403      -0.00422063      -5.94730905
Al       2.62755537      -0.22985968       9.33672408      -0.00622810       0.00336524      -0.00812663      -4.12632607
Al       4.37891425       1.32017655      10.57093438       0.00116310      -0.00110569       0.00234350      -4.40751947
Ni       2.78644149       2.85875249       0.05915780      -0.00104245      -0.00399516       0.00091181      -6.14114254
Al       3.86463684       4.42350415       1.82239023       0.00154763       0.00078691       0.00049769      -4.77885275
Ni       2.24595697       3.43367043       3.66316818      -0.00470349      -0.00030089      -0.00167211      -5.87450324
Al       4.55487160       3.69983899       4.51863534       0.00482446      -0.00269353      -0.00260147      -4.78707698
Ni       3.00598506       2.50247731       5.96054766      -0.00239685      -0.00248629      -0.00151964      -5.85505247
Al       4.09843424       3.61926400       7.73992619      -0.00499380       0.00600148       0.00555360      -4.61101697
Ni       2.64322894       2.69670838       9.56213590      -0.00028677       0.00111653       0.00098193      -6.07262680
Al       4.19635349       4.09706724      10.87350951      -0.00674643       0.00174356      -0.00446657      -4.48400582
Ni       2.75790415       5.75542147      -0.01675083      -0.00022593      -0.00176647       0.00197333      -6.10509661
Ni       4.18585774       6.97329955       1.74561328      -0.00071202       0.00065365      -0.00186427      -5.89277079
Ni       2.56042277       5.85496710       3.34654656       0.00321056       0.00032053      -0.00325567      -5.87888830
Al       4.40976149       6.79385089       4.47393866       0.00196539       0.00065289       0.00476614      -4.55377549
Al       2.64156974       5.04712291       5.77793395      -0.00150363      -0.00134296      -0.00351964      -4.65013272
Al       4.08607605       7.07724302       7.82979741       0.00200984       0.00160823      -0.00149032      -4.38683846
Al       2.62593434       5.21688021       9.00658524       0.00502944      -0.00519723      -0.00338825      -4.09802610
Al       4.18383679       6.86124521      10.60549514       0.00730981       0.00073894      -0.00382327      -4.55122809
Al       2.88369914       8.38543254      -0.04087687       0.00278454      -0.00040478      -0.00113622      -4.24226766
Al       4.55635085       9.35840923       1.75752164       0.00206808       0.00139239       0.00059822      -4.45835845
Ni       2.90429790       8.41964551       3.39445628       0.00569420      -0.00279387      -0.00014937      -6.10240423
Al       4.70978822       9.96980566       4.51076914       0.00048331       0.00416234      -0.00224660      -4.74795958
Al       2.79105688       8.50846631       5.90531908       0.00100731       0.00482093       0.00111059      -4.00790097
Al       4.26783484       9.93371971       7.66837284      -0.00269983       0.00050582      -0.00252240      -4.63826738
Ni       2.77831458       8.65468522       9.43975699      -0.00590216       0.00351312       0.00235420      -6.14516163
Al       4.28232617       9.97997957      10.82654300      -0.00761526      -0.00438664      -0.00335508      -4.49645615
Ni       5.78584025      -0.04452423       0.03238151      -0.00016566       0.00318789       0.00444973      -6.32411903
Al       7.35957837       1.55856766       1.33448905      -0.01884671      -0.00376700       0.00277211      -4.38088613
Al       5.40844117       0.43050257       2.49345062       0.01038917       0.00308408      -0.00715632      -4.41040016
Al       6.90042387       1.61141222       4.63131992      -0.00102594       0.00209311       0.00156440      -4.77608334
Ni       5.79163331      -0.08099913       6.30894085      -0.00035158      -0.00048851      -0.00334637      -5.79090727
Al       7.12909798       1.26882521       7.77527565      -0.00056475       0.00517639      -0.00381559      -4.73491765
Ni       5.88015694      -0.23147861       9.19530670      -0.00108762       0.00051565       0.00123196      -6.03528825
Al       7.10877049       1.23472869      10.77950794      -0.00196992       0.00239457       0.00336132      -4.62497726
Al       5.17473156       2.55990080       0.46146032       0.00511978      -0.00546729       0.00409593      -4.45903638
Ni       7.06180561       4.12526517       1.02087985      -0.00497289      -0.00106046       0.00078704      -5.73015922
Ni       5.86935735       2.89725408       2.78210814       0.00092557      -0.00041210      -0.00022712      -6.03086966
Ni       6.96212949       4.27801243       4.79099890       0.00307784       0.00079607      -0.00156536      -5.92115154
Ni       5.62578982       2.54004447       6.38365003       0.00646867      -0.00514737      -0.00061019      -5.82676669
Al       6.98818746       4.12160090       7.61887532       0.00537469      -0.00297653       0.00410701      -4.72631841
Ni       5.77550646       2.71448732       9.25080102      -0.00120481      -0.00725071       0.00008642      -6.02583354
Al       6.94597053       4.07962479      10.91361820      -0.00426789       0.00184225      -0.00095347      -4.71656888
Ni       5.38151490       5.65258317      -0.04435921       0.00066243       0.00312953       0.00109443      -5.86135620
Ni       7.12285658       7.17925491       1.15381796      -0.00167578       0.00264715       0.00019766      -5.78326888
Al       6.06985393       5.54213625       2.66615019       0.00089560       0.00408969      -0.00023201      -4.67721363
Al       7.21300143       6.75946530       5.06510665       0.00140723       0.00350522      -0.00027233      -4.90834594
Ni       5.23732899       5.47744916       6.38499268       0.00599263      -0.00249631       0.00321337      -6.05043847
Al       6.96505457       6.91725528       7.88328683      -0.00085302       0.00283313       0.00315987      -4.69938180
Ni       5.40644592       5.36271571       9.09701627       0.00225084       0.00226352      -0.00088998      -6.28202888
Al       6.87540001       6.86471950      10.72572621      -0.00021022       0.00100470       0.00041889      -4.68151748
Ni       5.47199939       8.41071399      -0.30575735      -0.00186620       0.00227633      -0.00628752      -5.99755028
Al       7.12328487       9.64581284       1.10092079       0.00250384       0.00103079      -0.00095871      -4.66206270
Ni       5.96216355       8.09107142       3.27433218      -0.00057611      -0.00455940       0.00654931      -5.88840844
Ni       7.25230442       9.44726221       4.92992951      -0.00047435       0.00170082      -0.00005387      -5.77613298
Ni       5.44297024       8.24791553       6.22937089       0.00181981       0.00421252       0.00468881      -6.11183173
Al       7.20898933       9.86732232       7.43428483      -0.00014862      -0.00040557       0.00282500      -4.78340573
Ni       5.48456732       8.48667913       9.25316899      -0.00019314       0.00299810      -0.00088666      -6.12681509
Al       7.03419375       9.85048832      10.69563387      -0.00208883      -0.00332921       0.00179462      -4.60134379
Ni       8.51458800      -0.00734513      -0.10027809       0.00271622       0.00206938      -0.00419476      -6.06634955
Al       9.86118354       1.37923796       1.67040364       0.00401332      -0.00389469      -0.00503188      -4.59843994
Al       8.40306022      -0.45740652       3.31574295      -0.00333689       0.00129103       0.00265487      -4.32973594
Al       9.68412639       1.66131385       4.40685403      -0.00191022      -0.00047054       0.00007586      -4.47409230
Ni       8.53732231       0.13690452       5.84614459      -0.00159731       0.00188292      -0.00023255      -6.07046589
Al       9.83760092       1.31798030       7.65476541       0.00092113      -0.00177088      -0.00307820      -4.58794730
Ni       8.64958623      -0.13953791       9.32070572       0.00253429       0.00278787       0.00448675      -6.17303812
Al      10.00822146       1.28906985      10.93887705      -0.01464361       0.00909343       0.00708470      -4.52242166
Ni       8.62874293       2.72727075      -0.28319853       0.00803018      -0.00965058      -0.01119557      -5.98195626
Al       9.61158711       4.29284996       1.30733121       0.00042612       0.00093674       0.00311154      -4.80458852
Ni       8.34333599       3.04002310       2.99595790      -0.00199811      -0.00000698       0.00062399      -6.01638721
Al       9.50238262       4.45570543       4.58714698       0.00092571       0.00098071      -0.00120563      -4.83184802
Ni       8.44757246       2.76680010       6.26592261      -0.00214915       0.00276475      -0.00078093      -6.03431216
Al       9.92950879       3.96234467       7.96810356      -0.00654401      -0.00300072       0.00388863      -4.70031746
Ni       8.48843529       2.64033270       9.38525437       0.00057050       0.00035886       0.00022346      -6.21577629
Al       9.99609617       4.09564664      10.79092662       0.00158331       0.00075721       0.00365442      -4.68972591
Ni       8.49508213       5.67551010      -0.40479557      -0.00126587      -0.00246196      -0.00163765      -5.95393535
Al       9.72614875       7.21533853       1.07369292      -0.00258603      -0.00009921      -0.00131073      -4.82431535
Ni       8.36826428       5.74952197       2.86726269       0.00117832      -0.00115396       0.00150783      -5.78947301
Ni       9.80980065       6.89092511       4.70191267      -0.00311646      -0.00202481       0.00462676      -6.04179270
Ni       8.64090848       5.51755823       6.62271924      -0.00249915       0.00192396       0.00436587      -5.88850456
Ni      10.09163309       6.85519684       8.22117247      -0.00120157       0.00210970       0.00054120      -5.71976661
Ni       8.32389142       5.37619955       9.33161696       0.00324444       0.00047280      -0.00060856      -6.03584020
Al      10.07370690       6.87548283      10.63626616       0.00126203      -0.00095408       0.00300872      -4.74674895
Ni       8.44157918       8.39106522      -0.60816225       0.00450722       0.00216549       0.00518922      -5.94258752
Ni       9.55581493       9.80067779       1.39375975      -0.00127431       0.00353512      -0.00028822      -5.95411226
Al       8.39841481       8.18569102       3.06921161       0.00097101      -0.00365821       0.00176252      -4.75243372
Al       9.77719403       9.42889092       4.96286509       0.00187633       0.00037479      -0.00051181      -4.69479559
Ni       8.65005259       8.08584014       6.67842330       0.00138335       0.00184648      -0.00095197      -5.78246540
Ni       9.99644256      10.20786684       7.32000876       0.00254468       0.00149963       0.00048372      -5.97034909
Al       9.09193069       8.80450187       9.08722252      -0.00299346      -0.00097913      -0.00020226      -4.49125418
Al      10.18075314       9.87488805      11.36146910       0.00467690       0.00531620      -0.00492368      -4.57874834
