128
Lattice="11.357448492512443 -0.03799390594069015 -0.0560324818409016 -0.04570228166764509 11.436711588922513 0.19577921890971792 -0.06697039249849526 0.1909666886985746 12.570573598075676" Properties=species:S:1:pos:R:3:forces:R:3:energies:R:1 energy=-672.6699819633529 stress="0.0015913533995672766 -0.0007139080946732647 0.0011468819268641301 -0.0007139080946732647 -0.0020663528607251 -0.001223007295718491 0.0011468819268641301 -0.001223007295718491 0.0006165414583512501" free_energy=-672.6699819633529 pbc="T T T"
Ni       0.36620557      -0.73299669      -0.69583375       0.00895578       0.00629795       0.00041867      -6.03224046
Al       1.88631224       1.92926585       1.93609810      -0.00487900       0.03287738      -0.01105246      -4.59274966
Ni      -0.21816969       0.62205449       3.16494957       0.01394708       0.03263771       0.00149956      -6.04642792
Ni       1.06103006       2.10566898       5.09648985       0.01206032      -0.00345047      -0.03513803      -5.62039395
Ni       0.59992743      -0.15994152       6.40436949      -0.03123325       0.00877712      -0.01012882      -6.04478374
Al       0.64377000       2.33107951       7.48134408      -0.01660405      -0.00628184      -0.00471558      -4.89442965
Ni       0.05538671       0.21839249       8.87683924      -0.00617956       0.02660565       0.02590113      -5.89290823
Al       1.39448400       1.41350554      10.59735711       0.00826879       0.02868740      -0.00743299      -4.72200786
Al       0.02995085       3.36925687      -0.36837010       0.02886728      -0.00208573      -0.03638193      -4.42836569
Ni       0.92824279       4.20721041       1.80337489       0.02514525      -0.01882177      -0.01795643      -5.83383116
Al      -0.39995823       3.02629413       3.48078892      -0.02074280      -0.02436431       0.02555430      -4.53393794
Al       1.89477410       4.31088462       4.12773407       0.06964887      -0.04529019      -0.04191331      -4.79636707
Ni       0.55735349       4.50691259       5.97956949      -0.02337980      -0.02488628       0.02563721      -5.79628007
Ni       1.24163403       4.64115982       8.32135596       0.03628091       0.03409994      -0.00355096      -5.89703021
Ni      -0.23038860       2.96970030       9.69308464       0.02262782      -0.02408116       0.01510460      -5.81268949
Ni       1.82712217       3.92303078      10.77009163      -0.04739307       0.00451116      -0.00476207      -5.87226950
Ni       0.09546838       5.86464327       0.09649261       0.00492479       0.04134907      -0.06999531      -6.07176567
Al       1.23848263       6.55859980       2.14123274       0.03648660      -0.02154182      -0.01424796      -4.55005299
Ni      -0.40874932       5.52374240       3.59013273      -0.02671017       0.04732321      -0.01852938      -6.09152403
Al       0.96975050       6.97412805       4.99820236      -0.04348790       0.03130053      -0.00219312      -4.72105810
Ni      -0.62074749       6.48578963       6.84501124       0.02013906      -0.00324740       0.02755334      -5.91452847
Al       1.27651873       7.15000504       8.30783437       0.01719353      -0.10663617      -0.01462185      -4.39058556
Al      -0.24799271       5.29693453      10.13714834       0.01639322       0.01308894      -0.01738919      -4.69959183
Al       1.03409403       7.53653948      11.02509131      -0.04539422       0.04286110      -0.03684794      -4.10603502
Al       0.09384784       8.49914792       0.61190264       0.03597366      -0.03759102       0.00279915      -4.14014446
Al       1.14202579      10.52901257       1.97176045      -0.02080170       0.02179619      -0.01566407      -4.39191524
Ni      -0.13757362       8.48479822       3.13691284      -0.03939909       0.03537506      -0.02385543      -6.09101009
Ni       1.28780116       9.38964603       4.97195540       0.00938089       0.05934448      -0.01795838      -5.70569843
Al      -0.09166015       8.91540983       6.96111351      -0.05906759      -0.01428762      -0.01847108      -4.54225515
Ni       1.55257685       9.55803340       8.51935471       0.03073141      -0.03742919       0.05846473      -5.78544285
Al      -0.45950404       9.57928390       9.91421713      -0.06907507       0.05397136       0.00782635      -4.47218605
Al       2.19014407      10.40475982      10.59911895       0.01882811       0.00542137      -0.01560018      -4.69687644
Ni       2.74673010       0.02152521      -0.02366102      -0.01887586      -0.00038830      -0.00637190      -5.86031737
Ni       4.26375832       1.56798604       1.54672558      -0.01965768      -0.03070549      -0.03246610      -5.97529720
Al       1.98784681       0.17586052       4.18643816       0.01486949      -0.01214535       0.01100518      -4.72008889
Ni       3.22324833       2.35144063       3.87284404      -0.02254304       0.03281250       0.04253396      -5.71861039
Ni       3.51609298       0.93884873       5.87061308      -0.01099707      -0.00322492      -0.00529215      -5.75400453
Ni       4.67818390       1.58472430       7.94617911      -0.03723731       0.01484363      -0.01099670      -5.77141558
Ni       2.37031824       0.64358710       8.22723449       0.06231299      -0.00220836      -0.00765170      -5.74897905
Ni       3.84922832       0.90565542      10.28630806       0.01027269       0.01000704      -0.03648029      -6.01010018
Al       3.43251192       2.29521477      -0.53573694      -0.01206386       0.00050353      -0.00395155      -4.51398675
Al       5.22983091       4.09222506       0.78282997       0.01944246      -0.03422834       0.01023457      -4.74165501
Ni       3.46446021       4.35689468       2.36513518      -0.05253238       0.04176104       0.06756484      -5.88252462
Ni       4.30925067       4.50645894       4.87996018      -0.00895146      -0.01669864       0.02178269      -5.99453456
Ni       2.80294361       3.18232836       6.55218222       0.02274534      -0.00018946       0.01362508      -5.86037041
Al       5.09572917       3.86939716       7.10015103       0.00079720      -0.00455605       0.07086499      -4.60933734
Al       3.06086606       2.96800681       8.97324284      -0.00617054      -0.01284693      -0.00634681      -4.87693923
Al       5.81009637       2.76221226       9.72823080       0.00593914       0.00446972       0.05795961      -4.83067095
Al       2.58080680       5.05492681       0.15987168      -0.01910327      -0.00925901      -0.02649912      -4.61254023
Ni       4.59129349       6.40935922       1.31346978      -0.04034713       0.04712102      -0.00579108      -6.02599718
Al       3.60456169       6.55858912       3.54407245       0.01103502      -0.03283132       0.03125864      -4.62077519
Ni       3.18831557       7.78250044       5.53128804       0.02609490       0.03778268       0.08877610      -5.84399947
Al       2.75795885       5.54650417       6.57298936      -0.01597411       0.00883017      -0.00143022      -4.64961696
Al       3.92275764       7.81904445       7.88537040      -0.05098211       0.06212825       0.01878571      -4.68601160
Al       2.91695748       5.72173064       9.66441223       0.00934533       0.03533256       0.00110265      -4.43675209
Al       4.59786709       6.72859299      11.55276109       0.03534143       0.01135050       0.02414239      -4.30529043
Al       3.11285568       8.40579133       0.47129524       0.00272701      -0.01058817      -0.00625394      -4.48104831
Al       4.02384553      10.62007611       2.05088009       0.03698370      -0.04113252      -0.03398790      -4.68813682
Ni       2.31753390       8.58690688       2.82636814      -0.00547984      -0.00459948       0.00542664      -5.84287977
Ni       3.76537934       9.98599754       4.39754637       0.00374433      -0.01549769       0.02337135      -5.92087756
Al       2.91305306      10.13451641       6.63597525      -0.04022631       0.00853660       0.00021164      -4.79767736
Ni       4.06815812      10.19675082       8.72368176      -0.00497312      -0.02799016      -0.00878201      -5.86873899
Ni       3.08892047       8.15321734      10.08127630      -0.00138800      -0.03027275       0.01294165      -5.97127794
Ni       4.34144324       9.93195881      11.40371783       0.03998529       0.01227995      -0.00755739      -5.79530857
Al       5.63299135       0.00461323      -0.28444615       0.00590870       0.00212619      -0.02251433      -4.84951973
Al       6.67400306       1.37348907       1.74790777      -0.00534261      -0.02061224      -0.00205428      -4.68074342
Al       4.92449361       0.71140039       3.88779414       0.06485911       0.02131234       0.02468051      -4.66245258
Al       7.73751768       2.86185412       4.01910560      -0.02520271      -0.02517575       0.08358635      -4.74595147
Al       5.73814497      -0.04161055       6.46208778      -0.05179166      -0.01342078       0.00920938      -4.89568550
Ni       7.94489503       0.90785781       5.78770309       0.01143049       0.00101775       0.04429456      -5.73276121
Al       5.96793946      -0.08606602       9.46785899      -0.04601441      -0.00731114       0.05391170      -4.75504352
Ni       7.54692356       1.20069803      10.74725455       0.04680611      -0.02259941       0.03003645      -5.88416316
Ni       5.91321892       2.30336439      -0.46311183      -0.04263770       0.02566563       0.04147959      -5.79982433
Ni       7.44454528       3.74502208       1.74137078      -0.04022001       0.03698204      -0.03591794      -5.92921184
Ni       5.47297671       2.94547437       3.14623537       0.02448372      -0.02249748       0.03211419      -5.78290687
Ni       6.87323900       4.73778131       5.44179435       0.01373500      -0.06738549      -0.00989230      -5.99432655
Ni       5.80982377       2.26169639       5.55514987       0.01789201       0.00202722      -0.03939339      -5.81775111
Ni       7.12257614       4.42532967       8.28721091       0.00793466      -0.00625901       0.02539392      -5.90080072
Ni       7.21143893       1.41514626       8.17726303       0.03246789       0.02401555      -0.04276449      -5.93612992
Ni       6.85339839       4.61960902      11.14673522       0.01119737       0.01798515      -0.05608459      -6.03417752
Ni       4.39191703       4.18477285      -1.60011912       0.03033567      -0.02776286       0.01600754      -6.04780248
Al       6.92087416       7.53797562       2.66851897       0.00470896      -0.05982081      -0.02573242      -4.57228022
Al       5.91649826       5.20837069       3.17641171       0.03468633      -0.00406409      -0.00421053      -4.67732629
Ni       7.28431261       7.52760744       5.20970691       0.00879616      -0.04780825      -0.02209154      -5.79311343
Al       5.27880803       6.52252109       5.91382595      -0.01147679      -0.00124197       0.03180116      -4.62667189
Ni       6.53822009       7.47653917       7.86880260       0.08311810      -0.02508822      -0.00678303      -5.93767218
Al       5.62768521       5.82322060       9.34537800      -0.04156446       0.00379516      -0.03717560      -4.40616898
Ni       7.06046990       7.28544778      11.20965833       0.00528708      -0.02080607      -0.01166010      -6.09278357
Al       5.85218898       8.50243502       0.37787604      -0.02838891      -0.03066040       0.01996413      -4.69350568
Ni       6.80074004      10.16132651       1.93898587      -0.02515985      -0.01236288      -0.02988341      -6.02916890
Ni       4.73752856       8.49044319       2.54583263      -0.01851069       0.02550429      -0.04011654      -5.65458235
Al       6.10119675       9.56272367       4.20296737       0.00553729      -0.01650132       0.03544595      -4.66089011
Ni       5.30458749       9.02492606       6.37172251       0.00388082      -0.02860368       0.01186703      -5.83224216
Ni       7.00812184       9.93693591       7.98496495      -0.00904371      -0.02063058      -0.01079515      -5.81958425
Al       5.61062916       8.65463007       9.79359262      -0.07754170       0.01337973      -0.00766486      -4.78808374
Ni       7.02167552       9.95109597      11.34339123       0.00337734       0.04867973       0.01368480      -5.86731350
Ni       8.33182032       0.20031240       0.38022049       0.02151461       0.02032308       0.01997294      -5.93791393
Al      10.77391967       0.96659214       0.71074281       0.06561653       0.06573424      -0.00577533      -4.27610101
Al       8.23724757       0.02340473       3.54222775       0.00680316      -0.01377980      -0.04756079      -4.64665057
Al      10.21022442       1.40069609       5.47246911      -0.00095156      -0.01348752      -0.00464852      -4.61766875
Ni       7.97242147      -1.51514836       5.44057645      -0.00611235       0.00353969       0.00249822      -5.80234971
Ni       9.66569958       1.68539923       7.96196601      -0.03775871      -0.01971661      -0.01040619      -5.80677737
Ni       8.75633575      -0.47472542       9.41245846       0.01902202       0.02905879       0.05552717      -5.86322020
Al      10.03870370       1.08021733      10.64113884      -0.02689112       0.01267514       0.01040395      -4.70590681
Al       8.37119088       2.60469229      -0.14791018       0.01020375      -0.01691659      -0.02670045      -4.72884392
Al       9.76975776       4.39605092       1.60648849      -0.01598124      -0.01083156      -0.02818919      -4.63229405
Ni       9.10217841       1.88503090       2.19124819      -0.00686571       0.02367197       0.04946693      -5.91684594
Al       9.63477890       4.63378570       5.32230453      -0.02666613      -0.01251271      -0.04210348      -4.47287916
Al       8.08086065       3.04303534       6.69775418      -0.02879893      -0.01276370      -0.01549380      -4.55056049
Ni       9.85297856       4.40120943       7.92822283       0.05140080      -0.03828919      -0.02183921      -6.03243155
Al       8.61111236       3.16115740       9.70414881      -0.00029306       0.07745364       0.00865841      -4.78800504
Ni       9.27179807       4.88782880      11.76128047      -0.02172835      -0.00661713      -0.03239483      -5.97717818
Al       7.49061559       5.85615562       0.62639801      -0.00223340       0.02617285       0.01545437      -4.64578145
Al       9.66407059       7.06847939       2.05514391       0.00978637      -0.02689924       0.00989659      -4.53239838
Ni       8.32432978       5.56681736       3.40862049       0.01209251       0.01146186      -0.02618012      -5.98100376
Al       9.64420115       7.39207349       4.83196041      -0.00272895      -0.03614234       0.00096667      -4.80135053
Al       8.25288468       6.07597872       6.96059317      -0.06252375       0.00073181       0.03003908      -4.60914933
Ni      10.35277939       7.34593583       9.10455242       0.08195009       0.00517657      -0.00571310      -6.07009049
Al       8.42179920       5.88275574       9.64074368      -0.03811444       0.01311693      -0.03405858      -4.57470702
Al       9.57848714       7.31289223      11.60237696      -0.01244137       0.03592611      -0.00234697      -4.50867791
Ni       8.25114165       8.37534269       0.67641012      -0.01972361       0.00344856       0.00521840      -5.96981090
Al       9.73953845      10.16551269       1.90173061      -0.04011058      -0.03646236       0.03822496      -4.50772762
Ni       8.57838084       8.98272782       3.45233196       0.04304638       0.01158307      -0.02253552      -5.86475795
Al      10.36709049      10.15982726       4.73315464       0.04442537      -0.01609476      -0.00590643      -4.62773198
Ni       8.93797382       8.33219451       7.15535978       0.01218792      -0.02681274      -0.00109683      -5.79934475
Al       9.35087842      10.84843596       7.38473569       0.03840029      -0.02505761      -0.05322756      -4.81938464
Al       8.27388851       8.59913266       9.49457665       0.05521390       0.03883157       0.00393516      -4.68217038
Al       9.28981518      10.15111159      11.83410564      -0.01092738      -0.00312724       0.01308987      -4.41648549
