128
Lattice="11.656687423470117 -0.4454656241856237 0.3043291437080609 -0.43302678869772276 11.23592034572222 0.05641230958394006 0.277820458603113 0.029588822249182262 12.34420675723221" Properties=species:S:1:pos:R:3:forces:R:3:energies:R:1 energy=-673.0704806641359 stress="-0.000295890319914891 0.0003046083408262052 -7.836795046678341e-05 0.0003046083408262052 0.0004036466911691851 0.0002646643363137685 -7.836795046678341e-05 0.0002646643363137685 0.0006203534299367631" free_energy=-673.0704806641359 pbc="T T T"
Al      -1.95769786       0.51726606      -0.19189343      -0.00160798      -0.00366463       0.00285994      -4.68284081
Al       1.61704987       1.14594458       1.78521729       0.01224115      -0.00516229      -0.00267533      -4.47000917
Ni       0.56833303      -0.26505859       3.48680805       0.00067557      -0.00178930      -0.00125955      -6.14981705
Al       2.27232192       0.64321657       5.19337623      -0.00479608      -0.00188492       0.00237944      -4.75381432
Al      -0.51966405       0.55611663       5.53221786      -0.00128407       0.00646020       0.00112211      -4.35835061
Al       1.00839687       1.70695783       7.55465693      -0.00220669      -0.00134595       0.00308527      -4.51393246
Al      -0.20798202       0.17585469       9.82589313       0.00165297       0.00127996      -0.00681608      -4.37797580
Al       2.12529994       0.92454106      11.32626214      -0.00021425       0.00801707       0.00289478      -4.12400099
Al       0.06378055       2.72176598       0.06151486      -0.00133332      -0.00064231      -0.00012956      -4.50341878
Al       1.87556973       4.14935336       1.88469184      -0.00014301      -0.00122493      -0.00109395      -4.76215317
Al       0.26394343       2.35518466       3.71231732      -0.00135582       0.00602344       0.00240323      -4.55797012
Al       2.10312643       3.51853328       5.59452392      -0.00288288       0.00303930       0.00905757      -4.73084045
Ni      -0.40782830       2.97254814       6.03911637      -0.00479081      -0.00559244       0.00272163      -6.10970466
Ni       1.46343719       4.05295930       7.94539556       0.00104605       0.00174803      -0.00524831      -6.01490834
Ni       0.64048868       2.50862193       9.91736382       0.00216142      -0.00239464      -0.00495629      -6.04542271
Al       1.67221575       4.65094196      10.55166129       0.00054588      -0.00291484      -0.00125496      -4.48162367
Ni       0.18339919       5.27843173       0.29687401       0.00535627       0.00187692      -0.00050133      -6.05146005
Ni       1.69922446       6.54554597       2.32733820      -0.00105591      -0.00284357      -0.00168796      -5.95038646
Ni       0.79509287       4.68761744       3.98678442      -0.00552508      -0.00100861       0.00520234      -5.86313291
Al       0.91231412       7.01594914       4.65313408      -0.00709282       0.00149988       0.00861447      -4.85199063
Ni      -0.20884191       5.49851827       6.39248065       0.00132014       0.00244893       0.00442512      -6.00532052
Ni       0.94167486       7.94894410       6.99577495       0.00259633      -0.00175886      -0.00326080      -5.87134015
Al       0.44225635       6.26883972       8.68616057      -0.01550086       0.00546862      -0.00801936      -4.55626356
Ni       1.53559239       7.05553629      10.85406318       0.00070133      -0.00010274       0.00574221      -6.04702796
Al       0.39258110       7.64958976       0.70450482       0.00014075       0.00633963      -0.00670697      -4.41577619
Al      -0.45174768      10.23147751       1.15083499      -0.00261822       0.00396072      -0.00977388      -4.57914639
Ni      -0.58561986       8.53919531       2.91893468      -0.00423068       0.00037476      -0.00521874      -6.03329937
Ni       1.81753573       9.45210804       5.04662782       0.00000564       0.00517115       0.00530002      -5.90485988
Al      -0.50732894       9.09116157       5.32323918       0.00249972      -0.00215139       0.00544968      -4.63746877
Ni       0.51439968      10.50924585       7.03831992       0.00252230       0.00123438       0.00134852      -5.92736893
Ni      -0.07661565       8.96998905       9.11782742      -0.00154665      -0.00234994      -0.00279930      -6.04126471
Al       1.05732770       9.50706772      11.17974133      -0.00270929       0.00064945       0.00131615      -4.25823542
Al       3.44524407      -0.49059606       0.61091644       0.00038836       0.00078380      -0.00138107      -4.57299622
Ni       3.88661674       1.67623621       1.46175854       0.00026329      -0.00548993       0.00857057      -5.81583292
Ni       3.19729914      -0.11961290       3.10633688      -0.00183278       0.00234837       0.00174481      -5.92569295
Ni       4.66959191       0.93619511       4.99633040       0.00345660       0.00423033      -0.00276443      -5.72021919
Ni       3.58909455      -0.65922272       6.84496339       0.00486143       0.00420861      -0.00024720      -5.79264463
Al       4.84919950       0.44583895       8.72751508      -0.00769090       0.00181757       0.00014901      -4.76306555
Al       2.28176340      -0.27940292       8.84947609       0.00367846       0.00291684      -0.00277469      -4.29183409
Ni       4.59788525       1.26600175      11.12856450      -0.00345376       0.00528527      -0.00019941      -6.02668402
Al       3.22146965       3.16139630      -0.25593565       0.00514047      -0.00437057       0.00204659      -4.46891118
Ni       4.42939519       4.19452859       1.48985091      -0.00215224      -0.01099303       0.00160554      -5.91314405
Ni       2.84208916       2.48347106       3.53634914       0.00329036      -0.00196365      -0.00784941      -5.92616300
Ni       4.62559685       3.51988725       5.24457059       0.00116127      -0.00297915      -0.00082701      -5.86358907
Ni       3.45608556       1.89784079       7.11641840       0.00184479       0.00483401      -0.00140559      -6.09131397
Al       3.88605100       4.31757633       7.42062249      -0.00033272       0.00217707      -0.00499620      -4.69091102
Al       3.00245994       2.50889347       9.40095677      -0.00014996      -0.00233964       0.00033760      -4.49415697
Al       4.25370731       5.02147447      10.19980478      -0.00392580       0.00711152      -0.00146178      -4.46340800
Ni       2.82173780       5.62813791       0.01815759       0.00228591       0.00112069       0.00252290      -6.04392621
Al       4.17858835       6.71936801       2.01767911      -0.00095337      -0.00524981       0.00455756      -4.75820947
Ni       3.33858105       5.01818948       3.71451031      -0.00848264       0.00221183      -0.00374594      -5.87629370
Ni       3.25480208       7.50089261       4.13666725       0.00097336      -0.00028020      -0.00193149      -5.88813952
Ni       2.38245134       5.85253166       6.21500495       0.00127330      -0.00029021      -0.00477941      -5.93773004
Al       4.95696396       6.77158338       8.14581968      -0.00352814       0.00198603       0.00321894      -4.56869199
Ni       2.75613497       6.09833599       8.71790582       0.01009290      -0.00025637       0.00048903      -5.86965970
Ni       4.21358172       7.39375961      10.41368120      -0.00503280       0.00216968       0.00234523      -5.81292268
Al       2.96908108       8.15430573       0.06398753      -0.00589895      -0.00402987      -0.00064370      -4.59171648
Ni       4.09765034       9.13945513       2.10024819       0.00269056      -0.00578844      -0.00238825      -6.02620409
Al       1.76233386       9.01279901       2.71523593      -0.00033054      -0.00084020       0.00147602      -4.75481454
Al       4.29356403       9.61071970       4.49601858       0.00306169       0.00352230       0.00627841      -4.77471024
Al       3.30229791       8.14259960       6.51772847       0.00005488       0.01102073       0.00378936      -4.74732237
Ni       4.72706360       9.19781800       8.48499907      -0.01042850       0.00436127       0.00260653      -5.87635206
Al       2.42977352       8.41633182       9.03514983       0.00171088      -0.00116532      -0.00213780      -4.65150911
Ni       3.38810127      10.11731738      10.62180893      -0.00252001      -0.00128376      -0.00171882      -6.05160373
Ni       5.74907796      -0.42592235       0.44551507       0.00528120       0.00576484      -0.00436211      -5.75079149
Al       6.06906218       2.01233520       0.74326584      -0.00194620      -0.01367893       0.00344438      -4.84992243
Al       5.61729488       0.26627767       2.83566454       0.00523909       0.00204722       0.00219770      -4.83430585
Ni       7.15880815       1.25892684       4.69617546       0.00493463      -0.00267976      -0.00212352      -6.09471029
Al       6.00051679      -0.63557157       6.46820096      -0.00007470       0.00035338      -0.01118989      -4.78153098
Ni       7.49266495       0.66389352       7.93225972       0.00172105      -0.00142042       0.00098215      -6.04807366
Ni       6.33326249      -0.58846238      10.30827650       0.00242533      -0.00114523       0.00121543      -5.68826786
Al       6.82498360       1.72293844       9.96264093      -0.01395922       0.00359107      -0.00886049      -4.49030048
Ni       5.55654167       3.58132875      -1.00589935       0.00126446       0.00456621      -0.00838255      -6.03044369
Ni       6.98654791       4.16660421       1.14438984       0.00152123       0.00574134      -0.00224961      -5.87830678
Ni       5.66956903       2.69896004       3.12360539       0.00386955      -0.00340354      -0.00155893      -5.89017157
Al       7.06457177       3.74918943       4.97266895      -0.00351170      -0.00494188       0.00865675      -4.50191196
Al       5.95069540       2.21039248       6.83308560       0.00123557      -0.00101256      -0.00798424      -4.73208047
Ni       6.29547815       4.73285652       7.17554210      -0.00106288       0.00565165      -0.00436342      -6.13005265
Ni       5.23989973       3.07776299       8.95120687       0.00413483      -0.00275453       0.00557497      -5.97032624
Al       8.21579763       3.50069886      11.29349752      -0.00681577      -0.00404099      -0.00682258      -4.50963482
Al       5.52992621       5.78296112      -0.13604425      -0.00860523      -0.00221331       0.00486265      -4.72806658
Ni       7.06815692       6.64900463       1.60789311      -0.00431765      -0.00022252      -0.00036562      -5.94177160
Al       5.93434820       5.15334115       3.16664119      -0.00300913       0.00338134      -0.00452154      -4.66368189
Ni       7.30071841       6.14557218       5.33222751       0.00436682      -0.00002183       0.00336555      -5.88853865
Al       4.80012629       6.02036543       5.43648107      -0.00000568       0.00150487       0.00359665      -4.81876456
Al       7.51946961       6.93411674       7.95287679       0.00137189      -0.00462378       0.00113545      -4.30488847
Al       6.89937326       4.87034180       9.51082622       0.00026327       0.00256364       0.00467860      -4.35895986
Al       8.20292891       7.43334652      11.89985624      -0.00306603      -0.01380007       0.00061209      -4.48429579
Ni       5.41634169       8.11646235       0.08910921       0.00090629       0.00154191       0.00222572      -5.88310140
Al       6.54315144       9.14809050       1.94997531      -0.00229274      -0.00016373       0.00593325      -4.81422882
Ni       5.82333034       7.60520914       3.75516496       0.00057887      -0.00578004      -0.00350129      -5.94315957
Ni       6.87115916       9.93084417       4.27064814       0.00378669       0.00662488       0.00464294      -6.07295356
Ni       5.77376477       8.15980798       6.26488417       0.00445525      -0.00466457       0.00088548      -5.99158617
Ni       7.34194254       9.37598626       7.99989046      -0.00233076      -0.00263830       0.00660018      -5.99308004
Al       6.42523922       8.34573080      10.12597498       0.00033400      -0.00488341       0.00063333      -4.63805524
Ni       7.67737202       9.71175760      12.08423109       0.00653898       0.00211592       0.00298045      -5.77924169
Ni       7.62957710       0.89406904      -0.60746117      -0.00228629      -0.01131347       0.01526078      -5.68701886
Ni      10.86285794       0.81021377       2.07054719      -0.00012753       0.00011837      -0.00924170      -5.86066294
Ni       7.80726891       0.42668399       1.80535484      -0.00380289       0.00534453      -0.00765105      -5.90712303
Al       9.21578513       0.45460417       3.67347425      -0.00168084      -0.00215011       0.00854160      -4.47376765
Al       8.56423327      -0.41980778       6.09320234       0.00197343      -0.00213776      -0.00894694      -4.33252557
Al       9.91342505       1.04672648       8.19825816       0.00843944      -0.00159722       0.00168001      -4.19457193
Al       8.69179009      -0.64646956       9.93807228       0.00117101      -0.00500311      -0.00162780      -4.79883353
Ni       9.84633030       1.73071481      10.44974850       0.00236572      -0.00114417      -0.00573505      -6.04015951
Ni       9.28789382       2.46213534       0.59768797       0.00431060      -0.00354108       0.01135221      -5.91862201
Ni      10.69177020       3.39665568       2.44510131       0.00307453      -0.00463770      -0.00660120      -5.99780967
Al       8.18086629       2.71264593       2.73898899       0.00095292      -0.00211649      -0.00743852      -4.77475833
Al      10.10415440       4.02570508       4.74563627      -0.00442130       0.00085369       0.00221020      -4.50827470
Al       8.79195212       2.18691748       6.20796219      -0.00026651       0.01087547      -0.00140130      -4.12161833
Al      10.72022472       3.48836296       8.53595565       0.00200674      -0.00630205      -0.00254982      -4.56911530
Ni       8.26067338       3.06085126       8.48980532       0.00768657      -0.00191091       0.00212367      -6.05536748
Al      10.72670972       3.98642723      11.10363478       0.00432015       0.00654006       0.00709656      -4.26357714
Al       9.21830831       4.98035618       0.98599178       0.00199914      -0.00306003       0.00083938      -4.64706765
Al      10.89901003       5.75080542       2.91959575      -0.00145138       0.00640898      -0.00443487      -4.63485053
Ni       8.45382827       5.09446848       3.28412977       0.00322946       0.00103153       0.00429457      -6.05227430
Ni       9.87146799       6.52707189       5.17794580       0.00563615       0.00216365       0.00014917      -6.09042565
Al       8.82885148       4.89013003       6.92020443       0.00306881       0.00155745       0.00250143      -4.49951651
Al      10.24350856       7.00703753       7.69057810       0.00573365      -0.00716434       0.00901884      -4.51848831
Ni       9.37304250       5.36410992       9.41906345      -0.00559671      -0.00103829       0.00259377      -6.05163471
Al      10.69748166       6.79738807      11.10896843       0.00066625       0.00176906      -0.00452935      -4.66823021
Ni       9.67217498       7.33254170       1.20220285      -0.00415990      -0.00062060       0.00146922      -5.92754009
Ni       8.92480259       9.67091487       1.98713315      -0.00144140       0.00246935      -0.00418483      -5.82230786
Al       8.45763674       7.58999268       3.34247072      -0.00025711      -0.00081160       0.00329297      -4.88288386
Ni       9.46183573       9.62187687       4.42450257      -0.00333107       0.01478714      -0.00310276      -5.80393473
Al       8.16733056       8.27572529       5.83695020      -0.00016803       0.00629864       0.00251785      -4.58147414
Al       9.85085165       9.61823261       8.02342541       0.00156452      -0.00752292      -0.00146450      -4.38661025
Ni       8.94892273       8.01497674       9.63298065       0.00190745      -0.00524863      -0.00116094      -5.86671840
Ni      10.21796208       9.15661166      11.65939115       0.00356657       0.00219689      -0.00581554      -5.96601457
