108
Lattice="11.316871301936231 0.09019417886225534 -0.03982541467158289 0.0903857374427747 11.368477625641512 0.2716779928191568 -0.04327731221947683 0.27241855651588487 11.776581696232844" Properties=species:S:1:pos:R:3:initial_magmoms:R:1:forces:R:3:energies:R:1 energy=-531.5824457390303 stress="0.00032365457973829967 -0.00022378891594768843 -0.00038993269248082215 -0.00022378891594768843 -0.0003922100288980149 -1.5737730661631044e-05 -0.00038993269248082215 -1.5737730661631044e-05 0.0003729050774737617" free_energy=-531.5824457390303 pbc="T T T"
Ni       0.10061838       0.44689558      -0.77174410       0.60000000      -0.00766305      -0.00241400      -0.00504874      -5.90593013
Al       0.16216319       1.06225309       1.68585568       0.60000000      -0.00725373       0.01408243       0.00622506      -4.40401326
Ni       1.37772893      -1.15798963       2.27779209       0.60000000       0.00296213       0.00133153      -0.00278425      -5.90141817
Al       2.06842705       1.76032060      -0.31634989       0.60000000      -0.00063633      -0.00627555      -0.00405984      -4.06538272
Al      -0.10842209      -0.30005852       4.11031761       0.60000000      -0.00198107      -0.00307092       0.00249364      -4.30092715
Al      -0.44423303       2.41745774       5.66837367       0.60000000      -0.00734670      -0.00172800      -0.00084259      -4.36338439
Al       1.50884540       0.16434802       6.20505713       0.60000000      -0.00077701       0.01160012       0.00205197      -4.08336233
Al       2.09267109       1.60706562       3.73115845       0.60000000      -0.00524718      -0.00221854      -0.00103776      -4.40753016
Al      -0.34600610      -1.15339116       7.70925947       0.60000000      -0.00128536      -0.00257900       0.00230197      -4.11943118
Al       0.05241776       2.80992502       9.70544525       0.60000000       0.00248297      -0.00606184       0.00304832      -4.13547164
Al       1.44109381       0.54080862       9.06834778       0.60000000      -0.00038415       0.00047897       0.00093762      -4.24962641
Al       1.58127253       3.48604568       7.56733310       0.60000000       0.00433864      -0.00758223      -0.00252153      -4.37482162
Al      -0.28906157       3.76453767       0.71625784       0.60000000       0.00122588      -0.00803992      -0.00709915      -4.15098444
Ni      -0.15451654       6.73251909       1.76927451       0.60000000      -0.00239819      -0.00278978       0.00433123      -5.91160004
Ni       1.91595812       3.05516142       1.63224765       0.60000000      -0.00468173      -0.00162517      -0.00127447      -5.88867862
Al       1.79813226       5.44511043       1.18926988       0.60000000      -0.00762916      -0.00204417       0.01123406      -4.13931690
Ni       0.11968654       2.86762455       3.28143150       0.60000000       0.00262999       0.00176961      -0.00722037      -5.73500840
Al       0.63503160       5.73915770       6.52539440       0.60000000      -0.00294534      -0.00685708       0.00253832      -4.70102179
Ni       1.51034818       3.80842225       5.12796862       0.60000000       0.00184929      -0.00236896       0.00591566      -5.77876965
Al       0.29947987       5.33723899       3.75918771       0.60000000       0.00409366      -0.00025464      -0.00260039      -4.47754889
Ni      -0.87018169       3.86619078       7.66614651       0.60000000      -0.00529163      -0.00851692      -0.00021301      -5.92633131
Al       0.06634899       5.63754456       9.25354506       0.60000000       0.00323503       0.00213151       0.00149052      -4.46108926
Al       2.45057637       4.33302142       9.96330035       0.60000000      -0.00169982      -0.00363914       0.00744632      -4.02020424
Ni       2.46193740       5.89971601       8.15593478       0.60000000       0.00614058       0.00097442      -0.00024868      -5.96940280
Al       0.51122969       7.37501582      -0.39994513       0.60000000      -0.01045440       0.00573633       0.00667323      -4.17411924
Al      -0.34364865       9.93259783       0.96074441       0.60000000      -0.00380349      -0.00787073      -0.01010001      -4.37452221
Al       2.02789794       7.94209618       2.00195897       0.60000000       0.01133780       0.00287403       0.00269375      -4.00883190
Al       2.11208698      10.36286280       0.08665122       0.60000000       0.00064489      -0.00218322       0.00020045      -4.30204389
Al       0.10090774       8.35605343       3.67124705       0.60000000      -0.00491114       0.00719978       0.00553033      -4.53942723
Ni       0.51930332       9.26882261       5.92829033       0.60000000       0.00123357      -0.00474070       0.00077487      -5.93304108
Al       2.52362016       7.93866257       6.73907908       0.60000000       0.00082959      -0.00016124      -0.00110332      -4.55353428
Al       2.61515183       9.73386177       4.63588203       0.60000000       0.00469668       0.00093757       0.00122211      -4.40045340
Ni       0.29388284       7.77218097       7.99376271       0.60000000      -0.00241303       0.00415359      -0.00222505      -5.95822094
Ni       0.49228495       9.76519088      10.23655792       0.60000000       0.00477771       0.00349898      -0.00004620      -5.96488738
Al       2.20598930       7.84863421       9.54781979       0.60000000       0.00669964      -0.00194474      -0.01102525      -4.43100403
Ni       2.24728934       9.90986784       8.23822480       0.60000000      -0.00144910       0.00331537      -0.00052491      -6.00498662
Ni       4.18503928       0.18327325      -0.16821769       0.60000000       0.00189091       0.00689879      -0.00977854      -5.91460588
Al       3.92169928       1.70069110       1.70204466       0.60000000       0.00363953      -0.00062807      -0.00356099      -4.14474659
Al       6.03465184      -0.03761486       1.57889534       0.60000000       0.00323842       0.01455575      -0.00455831      -4.35915469
Ni       5.85528196       2.23979459       0.24000477       0.60000000       0.00426723       0.00091241       0.00057966      -6.10245114
Ni       3.69167878       0.48673394       5.11305489       0.60000000      -0.00172707      -0.00326671       0.00788871      -5.87293113
Al       3.45869017       2.64622833       5.94707160       0.60000000       0.00118833      -0.00243715       0.00077348      -4.35600265
Al       6.07208882       0.35936412       6.15631146       0.60000000       0.00273646       0.00594048      -0.00259695      -4.36198600
Al       5.31073342       1.85837447       3.99365556       0.60000000      -0.00136981      -0.01085810      -0.00487204      -3.99577434
Al       3.76612525       0.48789273       7.58646528       0.60000000      -0.00288035      -0.00463705      -0.00092590      -4.15344505
Al       4.06520989       1.97718364       9.80049432       0.60000000       0.00089937      -0.01310688       0.00942157      -4.16545733
Al       6.40230892       0.49619205      10.43372723       0.60000000      -0.00131779      -0.00259439       0.00510209      -4.56157258
Al       6.12841883       2.25719363       8.00953620       0.60000000       0.00201066       0.00810211      -0.00012697      -4.17956641
Al       3.87149839       4.03697436       0.41229084       0.60000000      -0.00407802      -0.00392007       0.00471139      -4.17399447
Ni       4.00963325       6.13741553       2.12910627       0.60000000       0.00184717       0.00602639      -0.00423145      -6.16917572
Al       5.73267632       3.94828857       2.32079098       0.60000000       0.00099027      -0.00437046       0.00540026      -4.10497510
Al       5.74289671       5.81565897       0.26136751       0.60000000      -0.00449943       0.00033278      -0.00062960      -4.29948179
Al       3.19193486       4.17868014       3.43146758       0.60000000       0.00098909       0.00031979       0.00024102      -4.39893666
Ni       3.52234842       5.10835980       5.95116517       0.60000000      -0.00530965       0.00001733       0.00206850      -5.96707729
Al       5.73418125       3.94870795       6.00991613       0.60000000       0.01444771       0.00979813      -0.00287546      -4.25781299
Al       5.31171275       5.98259036       4.23474728       0.60000000      -0.00409038      -0.00435085       0.00589288      -4.28561292
Ni       4.07442829       3.70226599       8.09510135       0.60000000      -0.00511076      -0.00009239      -0.00687655      -6.03689436
Ni       4.07382805       6.14570641      10.18130362       0.60000000      -0.00433394      -0.00278173      -0.00107735      -6.03351795
Al       5.65269506       4.18469542      10.01876466       0.60000000      -0.00054224      -0.00582770       0.00167754      -4.46008677
Al       5.03704004       5.92353705       7.91959058       0.60000000      -0.00156958       0.00500463       0.00799324      -4.66950747
Al       3.78756705       7.65400702       0.08321286       0.60000000      -0.00086825       0.00077152       0.00783509      -4.11606671
Al       3.84161795      10.00840046       1.99629430       0.60000000       0.00488392       0.00108324       0.00753236      -4.04413664
Al       5.73499656       7.98249438       2.09181931       0.60000000       0.00364353       0.00552317       0.00129674      -4.26907966
Ni       5.60070380       9.44432318       0.10842648       0.60000000      -0.00333325      -0.00082155      -0.00252450      -6.11041955
Al       2.73660973       6.71709993       4.30258852       0.60000000       0.00194056       0.00059892      -0.00418807      -3.94660114
Ni       4.30861870       9.82636166       6.57598845       0.60000000      -0.00248463       0.00821394      -0.00796349      -6.01208426
Al       5.53418354       7.89385180       6.19718759       0.60000000       0.00068152      -0.00490232      -0.00290705      -4.41337475
Al       5.30317880      10.14664127       4.32623149       0.60000000       0.00055811      -0.00126911       0.00795828      -4.49444512
Ni       4.30250333       8.17074587       8.41662838       0.60000000      -0.00484728      -0.00420736      -0.00003934      -6.00882383
Al       4.05292784      10.13744175       9.98357044       0.60000000       0.00078240       0.00121311      -0.00445268      -4.49789831
Al       5.96368797       7.86532970      10.11108865       0.60000000      -0.00278784      -0.00380665      -0.00674639      -4.57181548
Al       6.37974923       9.68616798       8.09359372       0.60000000      -0.00263960       0.00764936       0.00191236      -4.48918062
Al       7.85121960      -1.49435356       0.39315278       0.60000000       0.00058303      -0.00273300      -0.00615134      -4.38602468
Al       7.59114434       1.97993423       2.16322442       0.60000000      -0.00083925      -0.01326012      -0.00703483      -4.09821978
Al       9.01495546      -0.36241127       2.44932575       0.60000000       0.00050861       0.00631092       0.00921439      -4.27865008
Al       9.37408382       1.64944328      -0.34467979       0.60000000       0.00121810       0.00061816       0.00311917      -4.08280953
Ni       7.22074156       0.35877987       3.97874202       0.60000000       0.00215995      -0.00143795      -0.00708957      -6.12606605
Al       7.79888422       2.47105153       5.13513764       0.60000000      -0.00050614       0.00478538       0.00491949      -4.24788151
Al       8.87368983       0.03422449       5.92460398       0.60000000       0.00468856       0.00156736      -0.00337913      -4.43700456
Ni       9.52651067       1.50020099       3.83689530       0.60000000       0.00137980      -0.00758179      -0.00702859      -5.95215376
Ni       7.60002138       0.33776099       8.27250428       0.60000000       0.00668985       0.00281778       0.00058581      -5.77667697
Ni       7.56102909       2.63621468       9.87603173       0.60000000      -0.00129349       0.00588610      -0.00399414      -5.85025315
Al       9.49528300      -0.41712287       9.83530853       0.60000000      -0.00419589      -0.00057462       0.00659554      -4.43524408
Al       9.11674043       2.07943813       7.97491907       0.60000000       0.00258713       0.00994435      -0.00061976      -4.24291569
Al       7.78206001       3.77412609       0.15317390       0.60000000      -0.00566383       0.00519257      -0.00384738      -4.36651261
Al       7.57311581       5.85098181       2.10722251       0.60000000       0.00662394      -0.00476558       0.01484917      -4.20259229
Al       9.28764813       3.80152573       2.94301358       0.60000000       0.00583699       0.00535809      -0.00001974      -4.31066943
Al       9.48207768       6.02101270       0.04559170       0.60000000      -0.00000785      -0.00053397       0.00357143      -4.50942693
Ni       7.33183644       4.64253176       4.16170061       0.60000000      -0.00202118       0.00130356      -0.00126522      -6.01706387
Ni       6.91672786       5.93005521       6.22490962       0.60000000       0.00070519      -0.00387075      -0.01029312      -5.81268777
Al       9.19163982       5.07946180       5.69416798       0.60000000       0.00397186       0.00238096      -0.00732866      -4.61926203
Ni       9.42489024       6.12010004       3.47151395       0.60000000      -0.01102433      -0.00178406      -0.00371118      -5.69613328
Al       7.96279019       4.69336887       8.26223244       0.60000000      -0.00673489      -0.00077303      -0.00022385      -4.63374190
Ni       7.48554314       5.87944279      10.32163597       0.60000000      -0.00489553       0.00551878      -0.00652403      -5.90375599
Ni       9.56723455       4.29986415      10.30022218       0.60000000      -0.00658796       0.00477487       0.00128109      -5.90410838
Ni       9.57862598       6.34353289       7.67909770       0.60000000       0.00336009       0.00031798      -0.00050844      -5.67747238
Ni       7.44700998       7.52073525       0.31341040       0.60000000       0.00130528      -0.00051620       0.00164221      -6.08787049
Ni       7.30507137       9.47551619       3.15909391       0.60000000      -0.00004180       0.00034709       0.00551138      -5.92499982
Al       9.11990827       8.12019007       2.17493610       0.60000000      -0.00300734      -0.00492630       0.00108905      -4.63393631
Ni       9.70155660       8.48549863      -0.22705069       0.60000000       0.01188285       0.00729218       0.00556611      -5.87383765
Al       7.87608106       7.52110615       4.63356369       0.60000000       0.00218789      -0.00064989       0.00190882      -4.70410038
Ni       7.21374884       9.64207528       5.75440485       0.60000000      -0.00135195       0.00075981      -0.00071484      -5.99980913
Ni      10.44732240       7.23240209       5.41422429       0.60000000       0.00265998       0.00077091       0.00618581      -5.70812822
Ni       9.44485814       9.48897959       4.62266304       0.60000000       0.00087988      -0.00437880      -0.00140878      -5.95728434
Ni       7.21690474       7.40861710       8.11639981       0.60000000      -0.00217364       0.00703150       0.00138554      -5.98859053
Ni       7.57247717       9.69470629      10.17597715       0.60000000      -0.00025848      -0.00252366      -0.00290247      -5.78788717
Al       9.12186226       7.81493196       9.50645936       0.60000000       0.00778210      -0.00299286      -0.00578254      -4.61780740
Al       9.17433747       8.60831839       6.90944861       0.60000000       0.00782068      -0.00387682      -0.00208489      -4.61584653
