32
Lattice="7.375307725088952 0.0015109134529533196 0.008360009176641035 0.0015175066684521908 7.355301798798882 -0.008617951795048472 0.008360134860609205 -0.0086143411038757 7.35744661345088" Properties=species:S:1:pos:R:3:initial_magmoms:R:1:forces:R:3:energies:R:1 energy=-167.9902012128989 stress="-0.0010978334040616094 -0.00040954791472569906 -0.0006709856528910363 -0.00040954791472569906 -0.00032887280026684137 0.0005294459641663919 -0.0006709856528910363 0.0005294459641663919 0.0012529294300619275" free_energy=-167.9902012128989 pbc="T T T"
Al      -0.05260622      -0.13002934      -0.17395999       0.60000000       0.00125440       0.00347406       0.00103773      -4.54819628
Ni      -0.04600609       1.61248518       1.90676034       0.60000000       0.00338785       0.00379286      -0.00040965      -6.23709738
Al       1.93321911      -0.17080626       1.85435156       0.60000000      -0.00499290       0.01057240      -0.00060175      -4.58902258
Al       1.65737218       1.89533327       0.06647224       0.60000000       0.00964693      -0.00249396       0.01389517      -4.47474388
Al      -0.04869897      -0.16841427       3.81774870       0.60000000       0.00556806      -0.01300001       0.00129770      -4.56616801
Ni       0.14452992       1.83043843       5.42946503       0.60000000      -0.00891194       0.00266973      -0.00220635      -6.21646036
Al       2.01411879      -0.31323644       5.50579306       0.60000000       0.00098176       0.00812782       0.00482385      -4.67553681
Al       1.79164703       1.85515843       3.63701217       0.60000000       0.01782806      -0.00013898      -0.00448017      -4.37805580
Ni       0.02774692       3.66588431      -0.10097751       0.60000000      -0.00655322      -0.01100618       0.00373780      -5.60297942
Al      -0.01894877       5.21705153       1.67282370       0.60000000      -0.00134404      -0.00920695       0.01449272      -4.59969213
Ni       1.88183360       3.57081409       1.86303697       0.60000000      -0.00107078      -0.00460160       0.00401544      -6.01541513
Ni       1.82838773       5.57281613       0.07286338       0.60000000       0.00038408      -0.00868814      -0.00084138      -5.95435668
Al      -0.11450123       3.77465685       3.77303693       0.60000000       0.00251315       0.01583775      -0.00951721      -4.69023197
Ni      -0.05746322       5.50287101       5.51730514       0.60000000       0.00711410      -0.00260343      -0.00935303      -5.89334977
Al       1.80460708       3.97695289       5.59603934       0.60000000       0.00745192       0.00941003      -0.00545998      -4.56845846
Ni       1.75306694       5.47638784       3.59486000       0.60000000      -0.00833773      -0.00093206       0.00818738      -6.06079368
Ni       3.62970145       0.14626405       0.03581889       0.60000000       0.00779901      -0.00031907      -0.00636741      -6.12455921
Al       3.71509697       1.91393351       1.79264047       0.60000000       0.00166668       0.00213719       0.00909454      -4.31803162
Al       5.39185787      -0.18094176       1.80728868       0.60000000       0.00350064      -0.00735321       0.00232236      -4.60394797
Al       5.74173519       1.94393903      -0.05210011       0.60000000       0.00003668       0.00757962       0.00512506      -4.63574177
Ni       3.65562596       0.15109776       3.66309455       0.60000000      -0.00022510       0.00216880      -0.00292894      -6.15577012
Al       3.71257971       1.79825454       5.59146872       0.60000000      -0.00624700      -0.01210838      -0.00271063      -4.33182153
Ni       5.50473997       0.07166762       5.54815512       0.60000000      -0.00179818       0.00612132      -0.01236853      -5.83509159
Al       5.58211738       1.79560408       3.74614608       0.60000000      -0.01005707      -0.00783602      -0.00978532      -4.59833686
Al       3.79158474       4.03478840       0.07578318       0.60000000      -0.00629386      -0.00035686      -0.01007301      -4.65170256
Ni       3.67890514       5.53458067       1.86695172       0.60000000       0.00387055       0.00065599      -0.00398575      -5.56017593
Ni       5.52983218       3.55470295       1.88726979       0.60000000      -0.00168412       0.00871843       0.00414349      -6.04453582
Ni       5.58380811       5.58320063       0.00121303       0.60000000      -0.01059147      -0.00230125       0.00403355      -5.78143927
Al       3.76069809       3.99170392       3.63888541       0.60000000      -0.00412552      -0.00801342       0.00831947      -4.67535125
Ni       3.80543759       5.50967898       5.50902056       0.60000000      -0.00057566      -0.00183646       0.00036194      -5.72220372
Ni       5.45369807       3.58550665       5.50710132       0.60000000       0.00254302       0.00654341      -0.00266964      -6.01598044
Ni       5.58650117       5.57603577       3.63489557       0.60000000      -0.00273829       0.00498658      -0.00112943      -5.86495320
