32
Lattice="7.407060748601519 -2.5473212288848658e-15 -0.06961632543372723 -7.380532698916679e-15 6.877592613397724 2.9657038272029323e-13 -0.06814396572411797 3.686969135638579e-13 7.247552281235155" Properties=species:S:1:pos:R:3:initial_magmoms:R:1:forces:R:3:energies:R:1 energy=-178.21440370544138 stress="0.0008122789733056581 -1.2041148460436991e-15 0.00019796625368379345 -1.2041148460436991e-15 0.00026835621644360515 5.574481491618819e-14 0.00019796625368379345 5.574481491618819e-14 -0.001233086482898511" free_energy=-178.21440370544138 pbc="T T T"
Ni       0.01356979      -0.01001679      -0.04490804       0.60000000      -0.00238076       0.00500288       0.00704079      -5.80977907
Ni      -0.00133239       1.74173269       1.76646651       0.60000000       0.00469513      -0.00632639      -0.00471555      -5.77806866
Ni       1.80416519       0.03473786       1.78448621       0.60000000       0.00086800       0.00447527       0.00200297      -5.80074867
Ni       1.82047733       1.76841348      -0.02745728       0.60000000      -0.00021591       0.00146033      -0.00085285      -5.81137183
Ni      -0.00350798       0.03473786       3.63377392       0.60000000      -0.00086800       0.00447527      -0.00200297      -5.80074867
Ni      -0.01982011       1.76841348       5.44571741       0.60000000       0.00021591       0.00146033       0.00085285      -5.81137183
Ni       1.78708742      -0.01001679       5.46316817       0.60000000       0.00238076       0.00500288      -0.00704079      -5.80977907
Ni       1.80198960       1.74173269       3.65179362       0.60000000      -0.00469513      -0.00632639       0.00471555      -5.77806866
Ni       0.00898887       3.49029078      -0.02998656       0.60000000      -0.00305109       0.00593608      -0.00359685      -5.87781167
Ni       0.02427850       5.09896128       1.83653037       0.60000000       0.00212659      -0.00031290       0.00692103      -5.82408802
Al       1.88488178       3.31437991       1.86830094       0.60000000       0.00096565       0.00156564      -0.00189661      -4.85924558
Al       1.78880557       5.20180427       0.05250603       0.60000000      -0.00807105      -0.01237111      -0.00315840      -4.95480340
Al      -0.08422456       3.31437991       3.54995919       0.60000000      -0.00096565       0.00156564       0.00189661      -4.85924558
Al       0.01185165       5.20180427       5.36575410       0.60000000       0.00807105      -0.01237111       0.00315840      -4.95480340
Ni       1.79166834       3.49029078       5.44824669       0.60000000       0.00305109       0.00593608       0.00359685      -5.87781167
Ni       1.77637871       5.09896128       3.58172976       0.60000000      -0.00212659      -0.00031290      -0.00692103      -5.82408802
Al       3.65719549       0.13351972      -0.01682717       0.60000000       0.00336391       0.00091915       0.00027110      -4.99085132
Ni       3.73046714       1.68600668       1.82917820       0.60000000       0.00285062       0.00028341      -0.00748748      -5.94225269
Al       5.69496378      -0.05612627       1.76630459       0.60000000      -0.00142424       0.00060790       0.00337747      -4.96144919
Ni       5.59233189       1.71849833      -0.00704785       0.60000000      -0.00190606      -0.00261588      -0.00599736      -5.95789019
Al       3.51275418      -0.05612627       3.58233921       0.60000000       0.00142424       0.00060790      -0.00337747      -4.96144919
Ni       3.61538607       1.71849833       5.35569165       0.60000000       0.00190606      -0.00261588       0.00599736      -5.95789019
Al       5.55052248       0.13351972       5.36547097       0.60000000      -0.00336391       0.00091915      -0.00027110      -4.99085132
Ni       5.47725082       1.68600668       3.51946561       0.60000000      -0.00285062       0.00028341       0.00748748      -5.94225269
Al       3.75077585       3.34105074      -0.01260498       0.60000000      -0.00381277      -0.00066958      -0.00191707      -4.84050633
Ni       3.68160250       5.16040425       1.71107616       0.60000000      -0.00546758      -0.00254578       0.00539689      -6.02019955
Ni       5.53354247       3.47116976       1.75270477       0.60000000      -0.00834386       0.00281177      -0.00357434      -5.71827222
Ni       5.56108745       5.17072900      -0.11123325       0.60000000       0.00298592       0.00177922       0.00155593      -5.95986346
Ni       3.67417549       3.47116976       3.59593904       0.60000000       0.00834386       0.00281177       0.00357434      -5.71827222
Ni       3.64663051       5.17072900       5.45987705       0.60000000      -0.00298592       0.00177922      -0.00155593      -5.95986346
Al       5.45694211       3.34105074       5.36124878       0.60000000       0.00381277      -0.00066958       0.00191707      -4.84050633
Ni       5.52611547       5.16040425       3.63756764       0.60000000       0.00546758      -0.00254578      -0.00539689      -6.02019955
