32
Lattice="-0.024333845488573307 3.568647365926846 3.606446523224706 7.114319405261514 0.021482755256364564 7.142805879402569 7.121448659436389 7.074230318378495 0.01431307254207498" Properties=species:S:1:pos:R:3:initial_magmoms:R:1:forces:R:3:energies:R:1 energy=-179.3670451723475 stress="-5.2208704424693515e-05 -0.0003730832272338633 -0.0004262055815593707 -0.0003730832272338633 0.0015218855709568325 0.0006671233688850099 -0.0004262055815593707 0.0006671233688850099 -0.0010230911713205002" free_energy=-179.3670451723475 pbc="T T T"
Ni       0.00331256      -0.05679929      -0.01489108       0.60000000      -0.01071838      -0.00097409      -0.01063425      -5.81768549
Ni       1.76221509       1.76611097      -0.00505223       0.60000000       0.00684153       0.00298213       0.00037594      -5.84439719
Ni       3.61185582       3.53903312       0.10178417       0.60000000      -0.01203479       0.00261333       0.00368444      -6.13115527
Al       5.32183259       5.38749555      -0.05643647       0.60000000      -0.00000112      -0.00918009       0.00520901      -4.93959640
Ni       1.75090863      -0.05295307       1.78757919       0.60000000      -0.00411019      -0.00963382      -0.00992196      -5.75688751
Al       3.39345166       1.68335079       1.86972461       0.60000000       0.00889347       0.00241469      -0.00313488      -4.98355719
Al       5.38697115       3.49781962       1.85109659       0.60000000      -0.00430169       0.00732173       0.01375411      -4.69567109
Ni       7.08824088       5.24052165       1.85081972       0.60000000       0.00156982      -0.00291451      -0.00377977      -5.99113664
Ni       3.59925006      -0.03523261       3.56296133       0.60000000      -0.00769615      -0.00320430      -0.00794617      -5.70271614
Ni       5.33651707       1.79861811       3.56574112       0.60000000       0.00237196      -0.00418200       0.00512757      -5.85929571
Al       7.24066863       3.45086070       3.77202266       0.60000000      -0.00843619       0.01491089      -0.00930166      -4.94834015
Ni       8.89982770       5.29161502       3.55706511       0.60000000       0.00395635      -0.00382064       0.00154288      -5.83331618
Ni       5.34288844       0.01772123       5.32188386       0.60000000      -0.00151659       0.00259138      -0.00663521      -5.78303821
Ni       7.10643391       1.74268703       5.40336802       0.60000000       0.00158078      -0.00065222       0.00495231      -5.71248135
Ni       8.90543967       3.60664480       5.43203901       0.60000000       0.01083909       0.00228406       0.00870920      -5.70947907
Ni      10.69041064       5.29400310       5.35201485       0.60000000       0.00506296       0.00336755      -0.00600799      -5.75055883
Al       0.05900114       1.78790858       1.68376167       0.60000000      -0.00835791      -0.00486049       0.00194982      -5.08075293
Ni       1.74865116       3.56435767       1.79808706       0.60000000       0.00053383       0.00293469      -0.00009689      -5.85723163
Al       3.35590961       5.41647812       1.81396724       0.60000000       0.00666007       0.00208553       0.00163334      -4.86186416
Ni       5.30656893       7.07637095       1.79675442       0.60000000       0.00259805      -0.00176437      -0.00206916      -5.97236093
Ni       1.74378563       1.80846222       3.61170561       0.60000000      -0.00084445       0.00215745       0.00266834      -5.75518788
Ni       3.56095734       3.59689009       3.55251958       0.60000000      -0.00653277      -0.00016034      -0.00271960      -6.05406922
Al       5.37476598       5.37295783       3.59332623       0.60000000      -0.00233710      -0.01083122       0.00376342      -4.75529750
Ni       7.08059017       7.13441017       3.57052085       0.60000000       0.00240079       0.00299224      -0.00288931      -5.89611601
Ni       3.57486179       1.81545364       5.34198926       0.60000000       0.00368147       0.00081546       0.00233423      -5.70284605
Ni       5.32288288       3.60086396       5.35358131       0.60000000       0.00363618      -0.00418846       0.00334145      -5.86957630
Ni       7.11754011       5.38536484       5.39481435       0.60000000       0.00523170       0.00769064       0.00468106      -5.95879271
Al       8.97322855       7.09522689       5.30492897       0.60000000       0.00137292       0.00029775       0.00578317      -5.09841563
Ni       5.32834789       1.79050286       7.13259202       0.60000000       0.00820542       0.00614163      -0.00494789      -5.71445526
Ni       7.08418921       3.60516075       7.13455222       0.60000000      -0.00573398      -0.00399529       0.00222939      -5.72778088
Ni       8.89245720       5.33136674       7.15008651       0.60000000       0.00857072       0.00106322       0.00198001      -5.79057480
Ni      10.67058391       7.14446380       7.15209181       0.60000000      -0.01138578      -0.00430252      -0.00363495      -5.81241089
