32
Lattice="7.3671057571675505 0.048967252979452515 -0.0810899499403181 0.04802536497681814 7.127181502156728 0.060528755502025855 -0.08027987618865678 0.06112926101446526 7.235709926111292" Properties=species:S:1:pos:R:3:initial_magmoms:R:1:forces:R:3:energies:R:1 energy=-174.43003484486016 stress="-4.3749189746414345e-05 0.00011070202160227261 -4.769258937597433e-05 0.00011070202160227261 0.00018904558424186275 1.6535287330826104e-05 -4.769258937597433e-05 1.6535287330826104e-05 -0.000539942676947927" free_energy=-174.43003484486016 pbc="T T T"
Al      -0.00250548      -0.14722423      -0.16384767       0.60000000      -0.00017975       0.00221343       0.00245259      -4.85328044
Al       0.05338961       1.76400463       1.84347490       0.60000000       0.00050349      -0.00805196       0.00801961      -4.57814996
Ni       1.82669138       0.10632419       1.66993185       0.60000000       0.01027586      -0.00323904      -0.00238906      -6.08252127
Al       1.76877289       1.89167184      -0.14744580       0.60000000       0.00899064      -0.00270159      -0.01123568      -4.63316862
Ni      -0.06660959       0.07044479       3.58342139       0.60000000      -0.00894989       0.01458291      -0.00054520      -5.84753811
Ni      -0.04990060       1.81933704       5.45325155       0.60000000      -0.01014826      -0.00000484      -0.00451900      -5.84542815
Ni       1.79567581       0.12346669       5.41589215       0.60000000       0.00312653       0.00210300      -0.00342631      -5.99388064
Ni       1.81673531       1.87639215       3.56734979       0.60000000      -0.00011996      -0.00981751      -0.00462796      -6.04717002
Ni       0.02312610       3.52017315       0.10618862       0.60000000      -0.00466505       0.00401976       0.00477689      -5.91749338
Ni       0.06098518       5.36414435       1.86881504       0.60000000       0.00223931       0.00313619      -0.00322683      -5.96087875
Al       1.90589711       3.83356941       1.84841022       0.60000000      -0.00176603       0.01381081      -0.00167170      -4.83708691
Ni       1.85796867       5.31878535      -0.03805053       0.60000000       0.00296021       0.00232967      -0.00899876      -5.70270099
Al       0.04303542       3.75709225       3.85812599       0.60000000      -0.00987876      -0.00947562       0.00243054      -4.80496311
Ni      -0.03400582       5.42376225       5.47103320       0.60000000      -0.00083614      -0.00580810       0.00494344      -5.65249063
Ni       1.82438709       3.64625693       5.43455252       0.60000000       0.01055688      -0.00440748       0.01471983      -5.68860083
Ni       1.79777222       5.40690770       3.67373801       0.60000000      -0.00044539       0.00532762       0.00233386      -5.73810913
Al       3.64786278      -0.20335122      -0.18083979       0.60000000       0.00102398       0.00539726       0.00447039      -4.88784627
Al       3.63746546       1.79391857       1.78625352       0.60000000      -0.00365808      -0.00715890       0.00497305      -4.63510411
Al       5.56061718      -0.19567696       1.77993238       0.60000000       0.00486199       0.00220462       0.00177614      -4.72276911
Ni       5.53402557       1.71440895       0.09539826       0.60000000      -0.00265261      -0.00048481       0.00421969      -6.12800639
Al       3.48902917      -0.13058137       3.68474849       0.60000000      -0.00565905      -0.01199102       0.00454257      -4.78355347
Al       3.64798041       2.03286276       5.40889171       0.60000000      -0.00924268       0.00677979       0.00031399      -4.76206897
Ni       5.36752964       0.11334522       5.31693780       0.60000000      -0.00088096       0.00701455      -0.00457625      -5.93821183
Al       5.59158673       1.85438189       3.72418257       0.60000000       0.01188934       0.00279891      -0.00325429      -4.52980087
Ni       3.66410561       3.53700462       0.07865227       0.60000000      -0.00672060       0.00217284      -0.00797321      -5.95664996
Ni       3.69058582       5.47742634       1.82242928       0.60000000      -0.00657815      -0.00284710      -0.00338579      -5.86335500
Al       5.51891564       3.83523256       1.68807634       0.60000000       0.00278830      -0.00642883      -0.00552391      -4.88331816
Ni       5.57799060       5.39374907      -0.09242094       0.60000000       0.00739575       0.00276839       0.01013717      -5.81614824
Ni       3.77596649       3.56000188       3.50532349       0.60000000      -0.00082628       0.00063244       0.00774801      -5.97893803
Ni       3.65637443       5.29252103       5.41124251       0.60000000       0.00456974       0.00161273      -0.00709980      -5.70749739
Ni       5.52738264       3.60212535       5.43772754       0.60000000       0.00166779      -0.00380300      -0.00684175      -5.76270214
Ni       5.50938150       5.39485900       3.67040810       0.60000000       0.00035783      -0.00268511       0.00143771      -5.89060398
