108
Lattice="11.905016732616277 -0.2197036347229065 -0.006487873274377469 -0.22313928492766005 11.90809413564098 0.14386462056649585 -0.004035661485402667 0.1458520945874925 12.260203752374311" Properties=species:S:1:pos:R:3:initial_magmoms:R:1:forces:R:3:energies:R:1 energy=-448.80392575405 stress="0.0007527584220647755 0.00010485085188291938 9.028451531179969e-05 0.00010485085188291938 -0.00027844008799233675 0.0004053067142862385 9.028451531179969e-05 0.0004053067142862385 -0.0007460809053101423" free_energy=-448.80392575405 pbc="T T T"
Al       0.18440193       0.26116662      -0.49818369       0.60000000       0.00219231       0.00026291       0.00396302      -3.84124487
Al       0.36457249       1.75779395       1.93623353       0.60000000       0.00428673      -0.00747120       0.00132841      -4.06472801
Al       2.63357882      -0.42464152       2.31691966       0.60000000       0.00239351      -0.00516242      -0.00892833      -4.26902663
Al       2.05851372       2.36731515      -0.17643031       0.60000000       0.00514673       0.00064416       0.00050393      -4.00730423
Al       0.28002686      -0.11779941       4.09990262       0.60000000      -0.00120174      -0.00188140      -0.00239952      -3.85215194
Al      -0.25208551       1.58256700       6.15973365       0.60000000      -0.00223216      -0.00128334       0.00274096      -4.05926089
Al       2.77413268      -0.48528387       5.76653616       0.60000000      -0.00702983      -0.00290484      -0.00374341      -4.22014138
Al       2.32958712       1.78491615       4.64126305       0.60000000      -0.00144895      -0.00251285       0.00262148      -3.72964510
Al      -0.73927525       0.30496532       8.72974905       0.60000000       0.00408024       0.01083235       0.00285367      -4.04077144
Al      -0.76907402       2.59521308      10.30207178       0.60000000       0.01002427      -0.00038025      -0.00625844      -3.97150057
Al       2.02493412       0.73679691       9.56553350       0.60000000      -0.00053043       0.00191438      -0.00029522      -4.06177064
Ni       0.60825265       2.30607128       8.28063711       0.60000000      -0.00167078       0.00212539       0.01127260      -5.81126062
Al      -0.01410171       4.15488030       0.13172464       0.60000000       0.00415950       0.00382657       0.00449702      -3.83477159
Al       0.58546884       5.95131510       2.44214901       0.60000000      -0.00133226      -0.00400684       0.00633809      -3.96463470
Ni       1.90515059       3.85520491       1.82367230       0.60000000      -0.00526437       0.00565258      -0.00485565      -6.08301080
Al       2.57379890       5.20319767      -0.44442517       0.60000000      -0.00297727       0.01571833       0.00585971      -4.16196862
Al       0.30859581       3.58487721       3.89317413       0.60000000      -0.00044919       0.00252310      -0.00761603      -3.87515414
Al      -0.93695970       6.35237388       6.36763128       0.60000000       0.00103972       0.00663832      -0.00035143      -3.86663907
Al       1.37867362       3.73749556       6.41879437       0.60000000      -0.00075644      -0.00275095       0.00132965      -3.86221583
Al       1.51178005       6.07370949       5.17593717       0.60000000      -0.00070151      -0.00319488       0.00079936      -3.79942198
Al      -0.76692909       4.40191197       8.25681774       0.60000000       0.00760031      -0.00539785      -0.00501828      -4.03370879
Al       0.26119678       6.27418080      10.43996664       0.60000000       0.00029059       0.00409992      -0.00373572      -3.69202966
Al       1.59402918       3.92838145       9.68510401       0.60000000      -0.00627814      -0.00633908      -0.00319730      -3.89388772
Al       1.37780254       6.05797857       7.93967070       0.60000000      -0.00051322      -0.00320874       0.00506602      -3.69855704
Al       1.33203405       7.54788053       0.40226075       0.60000000      -0.00641001      -0.00516766      -0.00521245      -3.75223362
Ni       0.10335347      11.23464946       1.85973045       0.60000000      -0.00644565      -0.00318714      -0.00378128      -5.78728110
Al       0.80119573       9.11226327       2.90576325       0.60000000       0.00787664       0.00833125      -0.00680773      -4.22019977
Al       1.81455333      10.20210187       0.16071627       0.60000000       0.00523388      -0.00344678       0.00160649      -3.82682589
Ni      -0.24776693       7.42993395       4.27495682       0.60000000      -0.01107076      -0.00219508       0.00145553      -5.75509834
Al      -0.08335204      10.65241430       6.93497178       0.60000000       0.00455733      -0.00076066       0.00091467      -3.61778872
Al       1.35808214       8.75714234       5.65550025       0.60000000       0.00098984       0.00319516       0.00536287      -4.20808824
Ni       2.88857375       9.74738661       4.05562124       0.60000000      -0.00191008      -0.00043888      -0.00819356      -5.73855414
Al      -0.15300337       8.22140252       8.28063522       0.60000000      -0.00202391      -0.00400763      -0.00187499      -3.73386406
Al       0.31625530      10.09755519      10.15177549       0.60000000       0.00266056       0.00490856       0.00219867      -3.72452644
Al       2.38618850       8.00639662      10.19977761       0.60000000       0.00439005       0.00221867      -0.00280501      -3.88110043
Al       2.20007608       9.92794048       8.10060059       0.60000000      -0.00168971       0.00150313      -0.00001331      -3.97447378
Al       3.90241297       0.31944158      -0.20282706       0.60000000      -0.00810208      -0.00603302      -0.00229280      -3.67062646
Al       3.65586026       2.13396112       2.26664307       0.60000000      -0.00592665      -0.00793371       0.00626463      -4.29396294
Al       5.60243765      -0.04739963       1.90974508       0.60000000       0.00343451      -0.00013729      -0.00477162      -3.90689835
Al       6.09383125       2.01100358      -0.07185482       0.60000000      -0.00853854       0.00193298       0.00021132      -3.87666017
Ni       4.20967264       0.30563426       3.89720670       0.60000000       0.00657027      -0.00070353      -0.00154415      -5.90505789
Al       3.18139249       2.19516487       7.62760477       0.60000000      -0.00330957       0.00232011      -0.00338462      -4.10460780
Al       5.53225548      -0.05811449       6.02913007       0.60000000       0.00133137       0.00502424       0.00351794      -4.07599356
Al       5.77123928       2.08549036       4.12354492       0.60000000      -0.00379486      -0.00353606       0.00041645      -3.90621730
Ni       4.03569805      -0.13058421       7.99912304       0.60000000       0.00325820      -0.00160951      -0.00455982      -5.92522178
Al       4.13968234       2.89079348      10.34509776       0.60000000      -0.00776343       0.00232626       0.00417373      -4.07135247
Al       6.05249760       0.09122636      10.24060787       0.60000000       0.00219432       0.00014026       0.00904659      -3.72216072
Al       5.88345053       1.63084968       8.10118629       0.60000000      -0.00534977      -0.00712856      -0.00195655      -3.91871381
Ni       4.16230379       3.54014747       0.43793954       0.60000000       0.00262932      -0.00252412      -0.00478647      -5.93723867
Al       3.63021273       5.73802252       1.91384031       0.60000000      -0.00081349      -0.00626417      -0.00582733      -4.13359651
Al       5.99466323       3.90148836       2.00518046       0.60000000       0.00106293       0.01235118      -0.00367232      -3.88903803
Al       5.48213147       5.50900961      -0.26937540       0.60000000       0.00263522       0.00216981       0.00048637      -3.99572002
Al       3.12364526       4.28601405       4.05578162       0.60000000       0.00346704       0.00270353       0.00114616      -3.71581117
Al       3.83076657       5.11789005       6.54479102       0.60000000      -0.00051208      -0.00514828       0.00129464      -3.93565162
Al       6.20640716       3.74438275       6.18029333       0.60000000      -0.00485856       0.00058334       0.00149477      -3.84822917
Al       5.67181139       5.60739239       4.15019345       0.60000000      -0.00162068      -0.00535360       0.00305990      -3.69827014
Ni       5.01104591       3.84633268       8.26344707       0.60000000      -0.00464630      -0.00002621      -0.00131337      -5.83003438
Al       3.73390605       5.56661663       9.33365693       0.60000000       0.00008315       0.00379568      -0.00357942      -3.87406289
Al       6.63973138       4.02004499      10.07400608       0.60000000      -0.00283236       0.00116012       0.00217283      -3.84454291
Al       6.34828159       5.90153172       8.13146809       0.60000000      -0.00949376      -0.00720627      -0.00210131      -4.11706965
Ni       3.91561522       7.38459309       0.06939568       0.60000000      -0.00242072      -0.00918660      -0.00678538      -6.02755067
Al       3.42650796       8.70495669       2.00513234       0.60000000      -0.00258295       0.00539867       0.01234472      -4.11313002
Al       5.86255909       7.45731987       1.67001036       0.60000000       0.01020786       0.00487957       0.00048443      -3.74164045
Al       5.22324958       9.68275131       0.06274245       0.60000000      -0.00178346      -0.00516201      -0.00089950      -3.83355367
Al       3.75384868       7.51765433       4.60918684       0.60000000       0.00050498       0.00371252       0.00114310      -4.01880833
Ni       3.98399695       9.48980361       6.28999535       0.60000000      -0.00486588      -0.00609880      -0.00140630      -6.13070019
Al       5.83490269       7.76154823       6.32851280       0.60000000      -0.00288884      -0.00224667      -0.00214929      -3.97926744
Al       5.23805652       9.95024145       4.16488527       0.60000000      -0.00110269       0.00543936      -0.00013687      -4.25335389
Al       3.43874642       7.60978191       7.61619366       0.60000000       0.00741331      -0.00029955       0.00437983      -3.87772323
Al       3.53345811      10.54029399      10.29152495       0.60000000       0.00064567       0.00705283       0.00639750      -3.71672337
Al       5.13162063       7.86963152      10.14943892       0.60000000       0.00145752       0.00058248      -0.00361311      -4.02323109
Al       5.40160426       9.93264447       8.22263145       0.60000000       0.00030350       0.00049261      -0.00152178      -4.29301892
Al       7.80276185      -0.33308347       0.07005415       0.60000000       0.00440938       0.00383186      -0.00022218      -3.73423074
Al       7.82492058       1.75918066       2.04317239       0.60000000       0.00679534      -0.00433335       0.00323389      -3.74706434
Al       9.89857805      -0.74851083       2.28164706       0.60000000      -0.00185624      -0.00142724       0.00103107      -4.12140560
Al       9.85737272       1.51828154       0.28382139       0.60000000       0.00434487       0.00040438       0.01064375      -3.63300264
Al       7.59511064      -0.04399401       4.05986487       0.60000000       0.00512946      -0.00046106       0.00317553      -3.96260327
Al       8.07666966       1.68162682       6.14717562       0.60000000      -0.00347196      -0.00337277      -0.00001762      -3.87957131
Al       9.81984211      -0.52624344       5.61679552       0.60000000      -0.00206150       0.00041984      -0.00139035      -3.81552525
Al       9.95709381       1.65134579       3.85807509       0.60000000       0.00217553       0.00128473       0.00038011      -3.71429580
Al       8.36301059       0.00161206       8.28317236       0.60000000      -0.00596917      -0.00278153       0.00141371      -3.79061280
Al       8.40385334       1.96429187      10.18817978       0.60000000       0.00849780       0.00033947       0.00017158      -3.82713541
Al       9.84922891      -1.11839811      10.77051825       0.60000000      -0.00659343       0.00452297       0.00017875      -3.63347849
Ni       9.89620066       2.04382186       7.98005069       0.60000000      -0.00423218      -0.00110346      -0.00476835      -6.09455682
Al       8.12453615       3.90931133       0.10594934       0.60000000      -0.00012045      -0.00088555       0.00522995      -3.65510700
Al       7.99112937       5.87084462       2.00251789       0.60000000      -0.00375387       0.00141769      -0.00073202      -3.69745739
Al       9.98010703       3.64070914       2.02535416       0.60000000       0.00201023       0.00337981      -0.00189907      -3.64232341
Al      10.36650538       6.23670464       0.56138943       0.60000000      -0.00239009       0.00086343      -0.00448987      -3.70971902
Al       7.95263065       3.71238064       3.98201159       0.60000000      -0.00190475      -0.00062442       0.00523175      -3.81637836
Al       8.06416174       5.72562497       5.84414803       0.60000000      -0.00456679      -0.00086634      -0.00051594      -3.68376734
Al      10.02832601       3.56947718       5.79176396       0.60000000       0.00394241      -0.00476104      -0.00011000      -3.86599803
Al       9.98963795       5.59186341       3.83271525       0.60000000       0.00448270       0.00094002       0.00318521      -3.92108128
Al       8.35484111       3.90142194       8.01070097       0.60000000       0.00279364       0.00320413      -0.00065201      -3.91271181
Al       7.62428358       6.74100820      10.61593101       0.60000000      -0.00131261      -0.00603323      -0.00080955      -3.77526322
Al       9.68703482       4.99622424      10.41878026       0.60000000       0.00790003      -0.00498128      -0.00329405      -3.63612243
Al       9.11547166       6.71894283       8.24389507       0.60000000       0.00755804       0.00348657      -0.00309979      -3.87809104
Al       8.39860743       8.29951787       0.35633859       0.60000000      -0.00079606       0.00048462      -0.00180330      -3.62302620
Al       7.16584423       9.80419356       2.22506608       0.60000000       0.00233966       0.00425347      -0.00353397      -3.83988756
Al       9.89482341       8.19751677       2.84146415       0.60000000       0.00094459      -0.00205170       0.00043130      -4.01988158
Al      11.04910458       9.20309376       0.53555613       0.60000000       0.00342210       0.00311814       0.00801839      -3.93075432
Al       7.36673417       7.74208844       4.09357181       0.60000000       0.00318472      -0.00368968       0.00090244      -3.84938843
Al       7.53570362       9.77777568       6.41278433       0.60000000      -0.00098689      -0.00640056      -0.00238361      -3.97596193
Al      10.24249125       8.66716264       5.59267465       0.60000000       0.00018020      -0.00055143       0.00171789      -4.03112223
Ni       8.58805359       9.78267779       4.18820843       0.60000000       0.00130708       0.01067645       0.00032477      -5.84160650
Ni       7.11662292       8.19390016       8.48625263       0.60000000      -0.00498862       0.00319232      -0.00630838      -5.98984509
Al       7.28208301       9.67502424      10.36840011       0.60000000       0.00087188       0.00252535       0.00201164      -3.86061295
Al      10.21424259       7.96264831      10.57671182       0.60000000       0.00059763       0.00012360      -0.00328939      -3.69654657
Al       9.39349659       9.48165833       8.39383671       0.60000000       0.00313901       0.00169185       0.00468036      -3.87750913
