32
Lattice="0.0023117579082626025 3.5197393477788452 3.5223817122335532 7.047490563137401 0.0008871786648034219 7.048499761685724 7.04233091367811 7.038055340460846 0.006046845680541915" Properties=species:S:1:pos:R:3:initial_magmoms:R:1:forces:R:3:energies:R:1 energy=-182.97778868223355 stress="-0.0006219838513958972 4.626986403852502e-05 -0.0014978751792786948 4.626986403852502e-05 0.001053087039536768 -0.00035830061724974414 -0.0014978751792786948 -0.00035830061724974414 -0.0009470900353910982" free_energy=-182.97778868223355 pbc="T T T"
Ni      -0.01676532       0.00877680      -0.00626427       0.60000000      -0.00084365      -0.00681482      -0.00320995      -5.77644425
Ni       1.76026223       1.75534211       0.00049973       0.60000000      -0.00082845       0.00153450      -0.00142893      -5.73781177
Ni       3.51919416       3.52181739       0.00003683       0.60000000       0.00777800      -0.01123994      -0.00481074      -5.70483437
Ni       5.28112750       5.27061592       0.00517723       0.60000000       0.00241471      -0.00237674       0.00292204      -5.72885828
Ni       1.75216196      -0.03267509       1.74030318       0.60000000       0.00420389      -0.00387356      -0.00598128      -5.90334014
Ni       3.52416525       1.75573043       1.74910062       0.60000000       0.00442980      -0.00007241       0.00720676      -5.78381834
Ni       5.27898344       3.51201829       1.76426895       0.60000000      -0.00280839       0.01051052       0.00062090      -5.70971820
Ni       7.02557724       5.27098633       1.76977411       0.60000000       0.00429635      -0.00346951      -0.00132971      -5.77880282
Ni       3.53345596       0.03334048       3.54607164       0.60000000      -0.00420389       0.00387356       0.00598128      -5.90334014
Ni       5.30237160       1.76773439       3.52264756       0.60000000      -0.00429635       0.00346951       0.00132971      -5.77880282
Ni       7.04896539       3.52670243       3.52815272       0.60000000       0.00280839      -0.01051052      -0.00062090      -5.70971820
Ni       8.80378359       5.28299029       3.54332104       0.60000000      -0.00442980       0.00007241      -0.00720676      -5.78381834
Ni       5.30238324      -0.00811142       5.29263909       0.60000000       0.00084365       0.00681482       0.00320995      -5.77644425
Ni       7.04682133       1.76810480       5.28724444       0.60000000      -0.00241471       0.00237674      -0.00292204      -5.72885828
Ni       8.80875468       3.51690334       5.29238483       0.60000000      -0.00777800       0.01123994       0.00481074      -5.70483437
Ni      10.56768660       5.28337862       5.29192194       0.60000000       0.00082845      -0.00153450       0.00142893      -5.73781177
Ni      -0.01381794       1.75328378       1.74153203       0.60000000       0.00102385       0.00315628       0.01350305      -5.76361992
Ni       1.75815823       3.53823261       1.74325976       0.60000000       0.00006007      -0.00732197       0.00025170      -5.76172077
Ni       3.52166129       5.27166468       1.76938481       0.60000000       0.01051176       0.00222728      -0.00083880      -5.70402298
Ni       5.27634311       7.03294693       1.76758211       0.60000000      -0.00646425      -0.01058711       0.00728333      -5.71620512
Al       1.69875202       1.75497415       3.45592669       0.60000000       0.00122913       0.00326879       0.01450457      -5.09486954
Ni       3.52243014       3.50203089       3.52186044       0.60000000       0.00104061      -0.00036991      -0.00150087      -5.85453490
Ni       5.27773480       5.27197465       3.52647816       0.60000000      -0.00616082       0.00248902      -0.01677580      -5.70431256
Ni       7.02535501       7.01789470       3.52478791       0.60000000      -0.00390069       0.00527316       0.00234423      -5.76598038
Al       3.58917766       1.76543059       5.35282984       0.60000000      -0.00122913      -0.00326879      -0.01450457      -5.09486954
Ni       5.30490558       3.54056538       5.29001547       0.60000000       0.00390069      -0.00527316      -0.00234423      -5.76598038
Ni       7.05252580       5.28648543       5.28832521       0.60000000       0.00616082      -0.00248902       0.01677580      -5.70431256
Ni       8.80783045       7.05642919       5.29294294       0.60000000      -0.00104061       0.00036991       0.00150087      -5.85453490
Ni       5.30174762       1.76712095       7.06722450       0.60000000      -0.00102385      -0.00315628      -0.01350305      -5.76361992
Ni       7.05391748       3.52551314       7.04722127       0.60000000       0.00646425       0.01058711      -0.00728333      -5.71620512
Ni       8.80859931       5.28679540       7.04541857       0.60000000      -0.01051176      -0.00222728       0.00083880      -5.70402298
Ni      10.57210237       7.02022746       7.07154362       0.60000000      -0.00006007       0.00732197      -0.00025170      -5.76172077
