32
Lattice="7.402835245925738 -0.02209869402548901 0.005342892337203996 -0.022140470038288673 7.4687639734188 -0.0883419772536324 0.005356129718751386 -0.08846085440490706 7.489740923032812" Properties=species:S:1:pos:R:3:initial_magmoms:R:1:forces:R:3:energies:R:1 energy=-162.62148428138357 stress="0.0008944966465328575 -3.6333971118091404e-05 0.0001261018826431893 -3.6333971118091404e-05 -0.0004022955140197532 -0.0002204158597810232 0.0001261018826431893 -0.0002204158597810232 -0.0006153888069681073" free_energy=-162.62148428138357 pbc="T T T"
Al       0.01456811      -0.04572379      -0.05197385       0.60000000      -0.00631904       0.00092687       0.00160281      -4.23751152
Al      -0.09705438       1.93186992       1.95748469       0.60000000      -0.00015182       0.00280328       0.00610569      -4.14079467
Al       1.99176953       0.04428907       1.81804674       0.60000000       0.00126957       0.00341229      -0.00062133      -4.33136913
Al       2.05255938       1.74038339      -0.20056825       0.60000000      -0.00580757      -0.00013122      -0.00716419      -4.29840676
Al      -0.00074218       0.00821580       3.80435371       0.60000000       0.00841019      -0.00386396      -0.00010347      -4.35904027
Ni      -0.05154053       1.73685027       5.73893147       0.60000000       0.00488524      -0.00613517      -0.00749069      -6.10887165
Ni       1.80114394      -0.26425783       5.59017362       0.60000000      -0.00251968      -0.00795681      -0.00236833      -6.11599400
Ni       1.76728314       1.68802591       3.62659431       0.60000000      -0.00830739       0.00313717      -0.00408151      -5.87906633
Al      -0.13238055       3.80691880       0.01755068       0.60000000       0.00045991       0.00204524       0.00706833      -4.38925217
Ni       0.13154040       5.67830990       1.76901074       0.60000000      -0.00381408       0.00644122      -0.00000195      -6.12629657
Al       1.96977065       3.55751807       1.96964564       0.60000000       0.00778021      -0.00789188       0.00242050      -4.52902899
Al       1.91203601       5.60157349      -0.08639764       0.60000000       0.00785292       0.00577369      -0.00220043      -4.30653476
Ni       0.06242648       3.74157953       3.65100717       0.60000000      -0.00707974       0.00724918       0.00882534      -5.93658547
Al      -0.20588660       5.37420575       5.40253276       0.60000000      -0.00895086      -0.00635172      -0.00372654      -4.38401024
Al       1.81362430       3.37885831       5.35581544       0.60000000      -0.00676968      -0.00275637      -0.01220645      -4.34888728
Al       1.82751470       5.52181119       3.66114738       0.60000000      -0.00110854       0.00869088       0.00794849      -4.48179195
Ni       3.71572988      -0.07547491      -0.05098000       0.60000000       0.00194851      -0.00170885      -0.00754981      -5.98609098
Ni       3.76045221       1.82361332       1.87994788       0.60000000      -0.00398475       0.00554057      -0.00054160      -6.07167342
Al       5.40282951      -0.33291441       1.80577167       0.60000000      -0.00182973      -0.00867776       0.00815745      -4.51512735
Al       5.39071640       1.83039682       0.03721273       0.60000000       0.00919390       0.00350501      -0.00048895      -4.48666871
Al       3.64922993       0.11345691       3.80906564       0.60000000       0.00382568       0.00313239       0.01163405      -4.39130719
Ni       3.73908126       1.80618756       5.57715052       0.60000000       0.00089282      -0.00319300       0.00207692      -5.98326612
Al       5.48031900       0.00734375       5.63160393       0.60000000      -0.00880760      -0.00987235      -0.00210121      -4.34496951
Al       5.45163351       2.26185435       3.81458742       0.60000000       0.00701433       0.01155693       0.00818688      -4.55221307
Al       3.90244382       3.86949974       0.12899988       0.60000000      -0.00430071       0.00920468       0.00490247      -4.38710207
Ni       3.51989063       5.57237996       1.87807335       0.60000000      -0.00341793      -0.00297347      -0.00341551      -6.02476970
Ni       5.61988151       3.74803954       1.83164280       0.60000000       0.00040346      -0.00825550      -0.00543162      -5.83520678
Ni       5.63435084       5.67814535      -0.16793106       0.60000000       0.00568879       0.00555579       0.00562919      -5.98266303
Ni       3.60700885       3.77383083       3.73814938       0.60000000       0.00430369      -0.00772879      -0.00403769      -5.80183542
Al       3.86576979       5.41792476       5.50413505       0.60000000       0.00674943      -0.00504106      -0.00469912      -4.55691944
Ni       5.53846131       3.58344070       5.76750636       0.60000000      -0.00188570       0.00577024       0.00026278      -5.75397463
Ni       5.49818004       5.72030105       3.67261187       0.60000000       0.00437617      -0.00220749      -0.00659052      -5.97425511
