108
Lattice="11.818291746656906 -0.10863949670779273 0.04007419941297799 -0.10782258718097161 11.833932486405004 0.08129808760897222 0.039308318312099945 0.0816253009419767 11.707601992687767" Properties=species:S:1:pos:R:3:initial_magmoms:R:1:forces:R:3:energies:R:1 energy=-494.0716595456197 stress="-0.0004226200193295817 0.0002505382364912563 -0.0004261521304823918 0.0002505382364912563 -7.677624583981228e-05 -0.00041491329626473046 -0.0004261521304823918 -0.00041491329626473046 0.00098867396055993" free_energy=-494.0716595456197 pbc="T T T"
Al       0.24282010      -0.31334488       0.37464455       0.60000000       0.01131741       0.00280988       0.00221553      -4.24051202
Al       0.04830056       2.27500857       1.91709067       0.60000000      -0.00531586       0.00094770      -0.00172087      -4.01215190
Ni       2.02337332       1.10252781       1.56947140       0.60000000       0.00170384      -0.00273113       0.00540079      -5.89462364
Al       2.01464891       1.57660097      -0.77250665       0.60000000       0.00578518      -0.00190457      -0.01083932      -4.18570343
Ni       0.16801649      -0.11737925       2.80317931       0.60000000       0.00223043      -0.00075450       0.00101462      -5.92707448
Ni      -0.25112225       1.88248674       5.86838546       0.60000000       0.00507778       0.00232851      -0.00306530      -5.73268796
Al       2.78710125       0.06499735       7.00871531       0.60000000      -0.00374875       0.00006655      -0.00404886      -3.99787967
Al       1.56628295       1.56805031       4.20735253       0.60000000      -0.00722884       0.00217170      -0.00514953      -4.27953580
Al      -0.02900255       0.35077213       7.68922803       0.60000000      -0.00073075       0.00732550      -0.00199921      -4.17109960
Al      -0.53675139       2.14780410      10.06388360       0.60000000      -0.00698938      -0.00842016       0.00002027      -4.26788373
Al       1.55960267      -0.85460004       9.70666080       0.60000000       0.00087775       0.00323723       0.00477246      -3.84427487
Al       2.53853744       2.38012846       8.43331666       0.60000000      -0.00205938      -0.00576839       0.00593576      -4.20247463
Al      -0.41724773       4.20595841       0.19811600       0.60000000       0.00125856      -0.00006348       0.00044047      -4.00763582
Al       0.39008820       5.98523148       2.13323909       0.60000000      -0.00210003       0.00099200      -0.00160609      -4.09877705
Al       2.32056385       3.57211822       0.94285537       0.60000000      -0.00640216      -0.00055346       0.00291505      -4.23343604
Al       1.69867581       6.00280677      -0.30334921       0.60000000      -0.00058599       0.00151586      -0.00259044      -3.96978236
Al       0.20443139       3.86689155       4.35379278       0.60000000      -0.00093523       0.00188473       0.00177279      -3.98961892
Al       0.53564520       6.33423879       6.17760074       0.60000000       0.00459751       0.00680068      -0.01249331      -4.23637893
Ni       2.11784301       4.33392881       5.80017803       0.60000000      -0.00195760      -0.00307351      -0.00557835      -6.01195057
Al       2.14455456       6.35603276       4.11309210       0.60000000      -0.01079844       0.00315823       0.00530293      -4.26153263
Al       0.17779575       3.68744988       7.29450566       0.60000000      -0.01149865      -0.01068790      -0.00434750      -4.24986786
Al      -0.54373464       5.19010764       9.37131041       0.60000000      -0.00431246      -0.00364793       0.00155928      -4.19205071
Ni       1.45642179       3.91655978      10.22650999       0.60000000       0.00597991       0.00400966      -0.00224721      -6.08019813
Al       2.15031688       5.23566899       8.20002868       0.60000000       0.00343264       0.00820276      -0.00075238      -4.17957682
Al      -0.43931447       7.80030095      -0.04173495       0.60000000       0.00448731       0.00033215       0.00004214      -3.85788835
Al       0.14757757       9.27703085       2.29488929       0.60000000       0.00886037      -0.00310804      -0.00345062      -4.04591894
Al       3.36036717       8.65730505       2.61648342       0.60000000      -0.00120726       0.00032341       0.00351176      -4.04716042
Al       1.95069928       8.98290819       0.17233085       0.60000000      -0.00287001      -0.00266090      -0.00676667      -3.61733815
Ni      -0.15161617       7.49208220       3.98406326       0.60000000      -0.00452019       0.00344149       0.00837555      -5.86637452
Ni       0.90493160      11.34781756       5.47385080       0.60000000      -0.00396456       0.00880907      -0.00615744      -5.78293055
Al       1.58290563       8.99823138       4.86691076       0.60000000      -0.00081452      -0.00145173      -0.00424887      -4.16293901
Al       2.29852436      11.07940085       3.24418318       0.60000000       0.00941053       0.00133619       0.00112288      -4.29324734
Al      -1.13499870       7.63529245       8.42722569       0.60000000      -0.00098973      -0.00020952      -0.00396912      -4.17154264
Al      -1.20788165      10.19637799       9.70123102       0.60000000      -0.00697092      -0.00277856      -0.00103942      -4.23868926
Al       1.24125914       8.26372100       9.46801853       0.60000000       0.00144911      -0.00214384      -0.00144345      -3.64102590
Al       0.57448327       9.66210943       7.28274213       0.60000000       0.00541946      -0.00137348       0.00614623      -4.05433132
Al       3.50568339      -0.49171107       0.17142557       0.60000000      -0.00286540       0.00059539      -0.00169072      -4.20322968
Al       4.26538345       1.54679480       2.06008059       0.60000000       0.00091245       0.00325867       0.00376755      -4.21939354
Al       6.75947873       0.12958532       2.56313308       0.60000000       0.01111552       0.00215721       0.00915942      -4.34362646
Al       5.31499362       1.74953692      -0.50810861       0.60000000       0.00022412      -0.00278054       0.00077984      -3.74273098
Al       4.72254678       0.25627023       4.49780354       0.60000000       0.00339015       0.00833171      -0.00556753      -3.98460452
Al       3.74653244       2.45619539       5.77156332       0.60000000       0.01041310       0.00225252      -0.00125423      -4.14424509
Al       7.33410161       1.44340814       5.00809834       0.60000000       0.00738205      -0.01111594       0.00082701      -4.46906665
Ni       5.46791503       2.53212209       3.93222517       0.60000000       0.00120829      -0.00027176      -0.00416156      -5.93380443
Al       5.97284807       0.18870987       6.99345714       0.60000000      -0.00061614       0.00521445       0.00391581      -4.04657273
Ni       3.61306920       0.39484573       9.50671595       0.60000000       0.00258471       0.00189126      -0.00421633      -5.94534803
Al       5.74356713      -0.56097333       9.80083388       0.60000000       0.00873333       0.00286913       0.00888603      -4.22008896
Ni       7.70697662       1.85719586       7.41442596       0.60000000      -0.00951816      -0.00241280       0.00262177      -6.05496707
Al       3.94209744       4.14214896      -1.63507265       0.60000000      -0.00293616      -0.00897672      -0.00637986      -4.25126117
Ni       2.95142418       5.70606021       1.93365095       0.60000000       0.00264145       0.00501317      -0.00660405      -5.87511055
Al       4.93422618       4.77079145       0.96340411       0.60000000      -0.00078846       0.00573212       0.00034015      -4.00295233
Ni       5.47863434       6.00208640      -1.11291087       0.60000000      -0.00038486       0.00263778       0.00881375      -5.90975700
Al       3.32273288       3.88781519       3.52051984       0.60000000       0.00424487       0.00210389       0.00191361      -4.11718377
Al       4.00467785       5.75083177       6.04497202       0.60000000      -0.00529288       0.00786967      -0.00939769      -4.42753158
Al       6.19908081       3.50044756       6.32302777       0.60000000       0.00084758      -0.00027569      -0.00508084      -4.24971260
Ni       6.28556623       5.79004215       5.46102208       0.60000000       0.00432996      -0.00164808       0.00613391      -5.74732538
Ni       4.14265371       3.94539484       7.59538179       0.60000000       0.00257625      -0.00653709       0.00231114      -5.87813831
Al       3.51961775       7.04177979       9.57220819       0.60000000      -0.00002952      -0.00166473      -0.00595453      -3.76646852
Al       5.46429475       2.21205598       8.62108878       0.60000000       0.00203506      -0.00164652       0.00300373      -4.10733181
Al       5.84303987       5.52288120       8.25715476       0.60000000      -0.00521975       0.00564004      -0.00408666      -4.41773064
Al       4.20558649       7.31654676       0.48708596       0.60000000      -0.00108431      -0.00675823      -0.01168619      -3.99536850
Ni       4.50796781      10.90906497       2.38093451       0.60000000      -0.00134536       0.00166085      -0.00195421      -5.81822157
Al       4.97564403       6.40893535       3.37667949       0.60000000       0.00225733       0.00055307      -0.00628812      -4.21988789
Al       5.86577504       9.66762828       0.83161248       0.60000000      -0.00611772      -0.00085336      -0.00138280      -4.10098208
Ni       3.89196347       7.96291706       4.96668494       0.60000000      -0.00320659      -0.00514640       0.00229761      -6.07137754
Al       4.33240535       9.98674682       6.20255027       0.60000000      -0.00017683      -0.00576150       0.00820252      -3.85595391
Al       5.88508608       7.90708200       6.50071548       0.60000000      -0.00641292       0.00403180       0.00487371      -4.29078649
Al       5.65068113       9.33635281       3.83841667       0.60000000      -0.00254986      -0.00006673       0.00715729      -4.03543235
Al       2.66231039       7.90119705       7.13311306       0.60000000       0.00001103       0.00405684      -0.00173825      -3.88391981
Al       3.66093608       9.83046088       8.80927853       0.60000000       0.00346882      -0.00457970      -0.00672562      -3.99320426
Al       5.79318897       8.20320099       9.52222650       0.60000000      -0.00141941      -0.00557542       0.00934455      -4.32964109
Ni       6.24306684       9.84359952       7.94190153       0.60000000      -0.00649522       0.00893560      -0.01197276      -6.02896879
Al       7.49074510       0.01389875      -0.04930879       0.60000000       0.00053804      -0.00824765      -0.00562804      -3.91053427
Al       6.61119586       2.88481103       1.65365774       0.60000000      -0.01117184       0.00274714      -0.00406771      -4.00247938
Al       9.73177568      -0.13136396       1.88892467       0.60000000       0.00146768      -0.00358635      -0.00405600      -4.38438879
Al       9.22262536       2.19006660       0.57117340       0.60000000       0.00048171       0.00261066      -0.00099809      -4.30560691
Ni       8.64746416      -0.31380157       4.06713507       0.60000000      -0.00242423       0.00932462       0.00801100      -5.87334230
Ni       8.38108233       1.96687939       2.84806996       0.60000000       0.00734524      -0.00810125       0.00936257      -6.01013482
Al       9.47626240       0.39245808       6.33834596       0.60000000      -0.00331008       0.00378926      -0.00903579      -4.36427206
Al      10.40784274       1.34905023       3.96954780       0.60000000       0.00110423       0.00082926       0.01149304      -4.37050416
Al       8.34308265      -0.53048576       8.56702375       0.60000000      -0.00045378       0.00310681      -0.00175015      -4.29482184
Al       8.34800377       1.83988648       9.76860128       0.60000000       0.00310395      -0.00421733       0.00013944      -4.27973977
Ni       9.84533647       0.09962564      11.11566707       0.60000000       0.00636882      -0.00526144       0.00082792      -5.91610928
Ni      10.14775242       2.08874333       7.99581068       0.60000000       0.00528566       0.00591543       0.00232328      -5.83090865
Al       7.03282658       4.15514808      -0.80895686       0.60000000      -0.00199795      -0.00458662       0.00443491      -4.27089188
Al       7.49881484       5.80067338       1.99302740       0.60000000      -0.00382440      -0.00352986      -0.00449487      -3.48912580
Al       9.82636760       3.99119954       2.58216367       0.60000000       0.00753796       0.00299658      -0.00018390      -3.89698343
Al       9.35313782       5.84417490       0.00549606       0.60000000       0.00081489      -0.00198683      -0.00584847      -4.12319419
Al       7.45871948       4.12859538       4.04971350       0.60000000      -0.00406289      -0.00440131       0.00407988      -4.11992008
Al       8.10199112       6.25878515       6.91532478       0.60000000      -0.00459317      -0.00026142       0.00724845      -4.19613416
Al       9.54293090       3.28227021       5.95397094       0.60000000       0.00008289      -0.00170655       0.00246130      -4.35117201
Al      10.00166856       5.64356351       4.63845182       0.60000000       0.00092419       0.00625367      -0.00026916      -3.95554884
Al       8.60827951       4.07738852       8.32911566       0.60000000      -0.00157992       0.00053545       0.00400761      -4.34746838
Ni       7.85773852       6.12471807       9.50028822       0.60000000       0.00531096      -0.00142393       0.00018665      -6.06165959
Ni       9.43756893       3.88280908      10.54597747       0.60000000       0.00236595       0.00296511      -0.00443528      -5.86891740
Ni      10.31279841       5.48907463       7.11781719       0.60000000       0.00337999      -0.00010034      -0.00326016      -6.00623674
Al       7.20285765       7.44930428      -0.09900050       0.60000000       0.00622106      -0.00413551      -0.00171948      -4.22218511
Al       8.17671044       9.47529307       2.93722507       0.60000000      -0.00283641       0.00004981       0.00544302      -3.75207929
Al       9.78040399       7.36253831       2.41475513       0.60000000      -0.00072400       0.00064012       0.00723292      -3.87759146
Al       9.17588429       9.58124013       0.42128032       0.60000000       0.00510490       0.00188776       0.00290628      -4.20207868
Al       7.70037948       7.27390347       4.28652059       0.60000000       0.00109384      -0.00702136      -0.00191184      -3.87674705
Al       7.88193563       9.88967234       5.90690461       0.60000000       0.00044405      -0.00710248       0.00517398      -4.23035397
Al      10.10811299       7.96521728       5.89848474       0.60000000      -0.00453576       0.00055494       0.00115096      -4.20297636
Al      10.63226513      10.28552250       4.63036514       0.60000000      -0.00566115      -0.00009788       0.00349379      -4.37761146
Al       8.24212297       8.57389442       8.42234484       0.60000000      -0.00618932       0.00481052       0.00323947      -4.47083247
Ni       7.36163234       9.76588342      10.51195738       0.60000000      -0.00104151       0.00216624       0.00259063      -6.03796654
Ni       9.38418981       8.01625022      10.48780899       0.60000000      -0.00229705      -0.00141959       0.00359887      -5.72318019
Ni       9.99762820       9.95376371       7.31336245       0.60000000      -0.00007615      -0.00109180       0.00301101      -6.13994223
