32
Lattice="0.04977827306144769 4.1594731880534965 4.259352125223749 7.91019309598166 0.4001526786975268 8.218414022658838 7.835451164336693 7.9447475796175695 0.47959266022852653" Properties=species:S:1:pos:R:3:initial_magmoms:R:1:forces:R:3:energies:R:1 energy=-139.20727360947922 stress="0.00012404754793378609 0.00017191697913342932 0.0006229983712254968 0.00017191697913342932 -0.00021942027735297575 -0.0003032595018694202 0.0006229983712254968 -0.0003032595018694202 -0.00012349673923331322" free_energy=-139.20727360947922 pbc="T T T"
Al       0.36805879       0.03435907      -0.00290490       0.60000000      -0.00468168       0.00550661      -0.00622313      -4.05010945
Ni       1.93357119       2.00917963       0.06814251       0.60000000      -0.01115152       0.01230370      -0.00409254      -5.90786161
Al       3.99269532       3.47039393       0.04914453       0.60000000       0.00103011       0.00589043       0.00186711      -3.67978293
Al       6.05611466       5.85622057       0.53223734       0.60000000      -0.00505129      -0.00401366       0.00376989      -3.89235203
Al       2.24424998       0.27298387       1.98597090       0.60000000       0.00533996      -0.00671783       0.00781233      -4.04974136
Al       4.19333707       2.40399693       2.53013144       0.60000000      -0.01225427       0.00049367      -0.00132863      -3.84499751
Al       6.53608711       3.85448455       2.50015037       0.60000000       0.00218416       0.00312114       0.00018918      -3.96365199
Al       7.99545293       6.22109937       2.45790920       0.60000000      -0.00867480       0.00079029      -0.00572375      -3.88659941
Al       3.93376665       0.02126309       4.32930280       0.60000000       0.00192182      -0.00110801      -0.00296596      -3.94570807
Al       6.41343533       3.06055253       5.17483280       0.60000000       0.01011204      -0.00725501      -0.00637200      -4.22607038
Ni       8.16761968       4.57249367       4.23177619       0.60000000      -0.00619483       0.00623713      -0.00017904      -5.96216405
Al      10.36408306       5.41864861       4.90322300       0.60000000       0.00347637       0.00017133       0.01084692      -4.18440718
Al       6.17439170       0.22645745       6.07468325       0.60000000       0.00675367       0.01037668      -0.00584312      -4.04418663
Ni       8.09730696       1.74241318       6.32982716       0.60000000       0.00274279       0.00343872       0.00987213      -5.72988185
Al       8.86711533       3.96175610       6.71789115       0.60000000       0.00696439      -0.00017037      -0.00019465      -4.35967676
Al      11.73826581       6.42700090       7.21112350       0.60000000      -0.01173142       0.00865543      -0.00929523      -3.76176549
Al       0.11326169       1.98278556       1.96525833       0.60000000       0.00197508       0.00402760      -0.00367381      -3.77618470
Al       1.97196451       3.87952323       1.78128324       0.60000000       0.00238785      -0.00356401      -0.00215984      -4.01224723
Al       3.39148833       6.40236085       1.92819082       0.60000000      -0.00509751      -0.00333500       0.00299826      -3.96941328
Al       5.84742181       8.15805527       2.40519575       0.60000000       0.00266855      -0.00447325      -0.00613437      -3.83319283
Al       2.05541222       2.09797961       4.19032992       0.60000000      -0.00014789      -0.00627774       0.00365003      -3.69015381
Al       3.87251485       4.58038735       4.04026310       0.60000000       0.00248319      -0.00728558       0.00876657      -4.07489331
Al       6.19349273       5.84401528       4.85881957       0.60000000      -0.00587250      -0.00483162      -0.01015742      -4.24977983
Al       8.04542187       8.03765809       4.39068286       0.60000000      -0.00908703      -0.00038988       0.00500395      -3.89442267
Al       3.91741380       1.97832702       6.30522029       0.60000000       0.00156572       0.00058206       0.00237967      -4.10287787
Ni       4.71278518       4.22899462       6.33405822       0.60000000       0.01062921       0.00276549       0.00026953      -5.93949501
Ni       8.27544397       6.21403137       6.10217442       0.60000000      -0.00238509       0.00004327      -0.00452141      -5.94565520
Al       9.65534661       8.17222653       6.57776954       0.60000000       0.00249815      -0.00271564      -0.00674254      -4.00151093
Al       6.15871545       2.40749579       7.90398560       0.60000000       0.00873504      -0.00387065       0.00318311      -4.08409708
Al       6.52327742       5.21395952       7.60693667       0.60000000       0.00065540      -0.00113804       0.01237482      -4.07174379
Al       9.00988650       6.36536826       8.41171504       0.60000000       0.00370833       0.00340132      -0.00339118      -4.22616472
Ni      12.52655881       8.29811679       8.55557259       0.60000000       0.00449801      -0.01065853       0.00601510      -5.84648465
