32
Lattice="0.005864929272757163 3.5886344264878574 3.587637776930058 7.201602402557276 0.011387320433869311 7.17562888929987 7.206803828524177 7.182829373923787 0.006178091791847091" Properties=species:S:1:pos:R:3:initial_magmoms:R:1:forces:R:3:energies:R:1 energy=-177.48431467389287 stress="-0.0015784222519295505 -0.0005266802977049668 -0.0002996448504797579 -0.0005266802977049668 0.0012572110191806933 -0.00015900331521320545 -0.0002996448504797579 -0.00015900331521320545 0.0012172132160341487" free_energy=-177.48431467389287 pbc="T T T"
Al       0.09688842       0.01137060       0.18232382       0.60000000       0.01248922      -0.00556087       0.00516590      -4.87810208
Ni       1.77935427       1.83990957       0.06416850       0.60000000      -0.00588412       0.00831521       0.00019653      -5.74122192
Ni       3.58331271       3.58574262       0.01385580       0.60000000       0.00478438       0.00246525       0.00832521      -5.83494672
Al       5.33522153       5.25830712       0.19462197       0.60000000      -0.01562467      -0.00474150       0.00207675      -4.94195565
Ni       1.81048483       0.04520562       1.79297898       0.60000000      -0.00571898      -0.00188371      -0.00504839      -5.84355537
Ni       3.58256157       1.84526446       1.80504403       0.60000000      -0.00036506       0.00791638       0.00730453      -5.76031464
Ni       5.40655998       3.52614921       1.83128062       0.60000000      -0.00591759      -0.00114950      -0.00133978      -5.74555387
Ni       7.22965206       5.29271099       1.76728718       0.60000000      -0.00253557       0.00565655      -0.00952806      -5.92064309
Al       3.43594965       0.10368597       3.49824138       0.60000000       0.00122004      -0.00843540      -0.00797356      -4.64297050
Ni       5.36003503       1.82090538       3.69886468       0.60000000      -0.00110474      -0.00274253       0.00783315      -6.06429244
Ni       7.21745494       3.56061757       3.60134100       0.60000000       0.00448781      -0.00777718      -0.00061170      -5.80307906
Ni       9.03191640       5.31771041       3.55827703       0.60000000       0.00892861      -0.00224106       0.00875659      -5.86255029
Al       5.45829439      -0.03085974       5.31140469       0.60000000       0.00451371      -0.00517538       0.00135340      -4.69577853
Al       7.27540360       1.92611477       5.44832995       0.60000000      -0.00614687      -0.00135799      -0.01291555      -4.92080144
Ni       9.02420586       3.57882674       5.36698214       0.60000000      -0.00507023       0.00298404       0.00160507      -5.88239129
Al      10.79340694       5.19218028       5.22428163       0.60000000       0.00255337       0.01159880      -0.00119692      -4.87911770
Ni      -0.05231733       1.85826832       1.89830656       0.60000000       0.00103457       0.00089851       0.00195529      -5.94828516
Ni       1.75808258       3.64138820       1.84199057       0.60000000       0.00077062       0.00735179      -0.00045565      -5.82529159
Ni       3.56724682       5.37736318       1.84645047       0.60000000       0.00767824       0.00662511      -0.00188322      -5.74633524
Ni       5.42019834       7.18821636       1.79820730       0.60000000      -0.00336927      -0.00117342      -0.00080880      -5.86525008
Ni       1.79112344       1.83267190       3.56549332       0.60000000      -0.00493130       0.01206369       0.00651624      -5.87120596
Ni       3.59258971       3.62513950       3.61021908       0.60000000       0.00044480      -0.00488495       0.00218591      -5.78501517
Ni       5.40208658       5.41941846       3.51608856       0.60000000      -0.00761729      -0.00148749      -0.00859538      -5.68929789
Al       7.29608608       7.07170374       3.57019844       0.60000000       0.00346977      -0.00025819      -0.00006791      -5.08715891
Al       3.46936801       1.83019231       5.35751149       0.60000000       0.00218025       0.00470092       0.01405881      -4.73953505
Al       5.43724613       3.83515412       5.29751217       0.60000000       0.00566723      -0.00362486       0.00392309      -4.94281690
Ni       7.24440346       5.39618309       5.39013286       0.60000000       0.00557238      -0.00197503       0.00457651      -5.68924411
Ni       9.06528362       7.12982368       5.36284344       0.60000000       0.00349978      -0.01220282      -0.00762330      -5.88462103
Ni       5.37172578       1.85615425       7.05420520       0.60000000      -0.00860832      -0.00045084      -0.00791105      -6.22103304
Ni       7.20544324       3.66534345       7.20984193       0.60000000       0.00254319      -0.00035271      -0.00110535      -5.85159486
Al       9.05750437       5.37099920       7.16392534       0.60000000      -0.00244630       0.00046488      -0.00740640      -4.93542205
Ni      10.90102122       7.06781441       7.04057588       0.60000000       0.00350232      -0.00356569      -0.00136194      -5.98493303
