32
Lattice="0.005199717577899595 3.527233661092095 3.535552247542664 7.082888337140829 0.01598689815688412 7.065523936430168 7.096112376333909 7.062117057024525 0.0027542945066913855" Properties=species:S:1:pos:R:3:initial_magmoms:R:1:forces:R:3:energies:R:1 energy=-182.2811989666698 stress="-0.00010212365335180581 -4.990445768444084e-05 1.6249242967171173e-05 -4.990445768444084e-05 0.0017747485061060987 -1.365342118390746e-05 1.6249242967171173e-05 -1.365342118390746e-05 0.0008469519771526716" free_energy=-182.2811989666698 pbc="T T T"
Ni       0.02714904       0.00701846       0.01878447       0.60000000       0.00668395       0.00902338       0.01259962      -5.74735184
Ni       1.78358134       1.77622646      -0.00390210       0.60000000      -0.00277533       0.00385191       0.01922058      -5.68770428
Ni       3.53933653       3.50845170       0.02809453       0.60000000       0.00254717       0.00250068       0.01147400      -5.73186962
Ni       5.33124752       5.29449308      -0.00442199       0.60000000      -0.00245472      -0.00141883      -0.01060236      -5.82886746
Ni       1.78136264       0.03014009       1.75023908       0.60000000      -0.00645650       0.01009246      -0.00876136      -5.72759423
Ni       3.54340972       1.76358320       1.78038835       0.60000000      -0.00376735       0.01380223      -0.00666537      -5.70155136
Ni       5.29339464       3.55475381       1.76483907       0.60000000      -0.00319161      -0.00271340      -0.00918871      -5.74458976
Ni       7.07408082       5.28893412       1.73636110       0.60000000       0.00064607      -0.00931420       0.00443790      -5.75150912
Ni       3.55040555      -0.01007859       3.54887543       0.60000000       0.00032999      -0.01276290       0.01226779      -5.89867864
Ni       5.29030677       1.79619238       3.53754511       0.60000000      -0.00503889       0.00072124      -0.00699295      -5.76973711
Ni       7.06748298       3.55973377       3.54623448       0.60000000       0.00383311      -0.00407349      -0.00187508      -5.88365042
Al       8.84628588       5.29187320       3.38553612       0.60000000       0.00550951       0.00272827      -0.00110612      -5.03536099
Al       5.40088959       0.08261544       5.31441804       0.60000000      -0.00378229       0.00571425      -0.00795229      -5.08728783
Ni       7.10959254       1.80587871       5.30792108       0.60000000      -0.00172383      -0.00314269       0.00087200      -5.76563692
Ni       8.85296297       3.56793791       5.28312810       0.60000000      -0.00265200       0.01015215      -0.00121181      -5.90921647
Al      10.64035821       5.23561966       5.36294944       0.60000000      -0.00783107      -0.00299715      -0.00380113      -5.06810832
Ni       0.02178551       1.75884519       1.78029513       0.60000000       0.00861231      -0.00151016      -0.00025683      -5.76120688
Ni       1.77794527       3.52822812       1.78206142       0.60000000       0.00353314      -0.01548946      -0.00855766      -5.70077131
Ni       3.54265918       5.30602882       1.76502403       0.60000000       0.00167401      -0.00067092      -0.00041058      -5.71113453
Ni       5.33763376       7.03987202       1.76882014       0.60000000       0.00170404       0.00319003      -0.00572955      -5.76146428
Ni       1.78004305       1.75997005       3.54108966       0.60000000      -0.00370314      -0.00606848      -0.00022667      -5.71879636
Ni       3.53944226       3.54366223       3.53063894       0.60000000       0.00176109       0.00536831      -0.00299131      -5.69165985
Ni       5.30227031       5.29692158       3.52999922       0.60000000      -0.01001707       0.00527383       0.00776739      -5.76097816
Ni       7.08225712       7.05221291       3.52202499       0.60000000       0.00290745      -0.01654840      -0.00522559      -5.83787435
Ni       3.55288630       1.77882865       5.27794451       0.60000000       0.00102278      -0.00601200       0.00726589      -5.77221762
Ni       5.29783383       3.52624165       5.31289024       0.60000000       0.00361427       0.00350817       0.00329574      -5.78075871
Al       7.01905527       5.30517238       5.35422020       0.60000000      -0.00003265      -0.00405005      -0.00461316      -5.09668856
Ni       8.85716256       7.00353033       5.24921942       0.60000000       0.00162349      -0.00257069       0.00275510      -5.94495159
Ni       5.33183299       1.79741396       7.10554608       0.60000000       0.00416932      -0.00324484      -0.00168330      -5.89201143
Ni       7.11804192       3.53058809       7.07114598       0.60000000       0.00535744       0.00479718       0.01601354      -5.78150140
Ni       8.85381019       5.30735090       7.09748532       0.60000000       0.00151659       0.01085363      -0.00875078      -5.81934676
Ni      10.64310004       7.06687646       7.05836118       0.60000000      -0.00361926       0.00100995      -0.00136695      -5.91112280
