32
Lattice="-0.011633039824077793 3.5723378618704826 3.6039556819962875 7.16825766639885 -0.03251638730816203 7.2171513872545265 7.1533685941242275 7.139030346451945 -0.01763156272821757" Properties=species:S:1:pos:R:3:initial_magmoms:R:1:forces:R:3:energies:R:1 energy=-177.36220784239381 stress="0.0009907423437046728 -0.0001379763522634307 -0.0001794785997981219 -0.0001379763522634307 0.0014678795816614584 -0.00026439025198864656 -0.0001794785997981219 -0.00026439025198864656 -0.0007392763511211426" free_energy=-177.36220784239381 pbc="T T T"
Al       0.01852583       0.02910501       0.02330044       0.60000000      -0.00353512       0.00996655      -0.01443622      -5.00140369
Ni       1.86165496       1.78241687      -0.02786961       0.60000000       0.00133237       0.00664756      -0.01208188      -6.06222147
Al       3.59685635       3.60483169      -0.30298522       0.60000000       0.00061895      -0.00537390      -0.00130986      -4.91830389
Ni       5.42943010       5.33648837      -0.00163752       0.60000000      -0.00326481       0.00552887      -0.00930003      -5.86344581
Ni       1.79703439       0.02704468       1.82259667       0.60000000       0.00731616       0.00198707       0.01239691      -5.94635269
Al       3.55117907       1.66085060       1.84283773       0.60000000       0.00054328       0.01915351      -0.00013076      -4.58744000
Al       5.49697200       3.56558144       1.68524494       0.60000000       0.01249596      -0.00424167      -0.00506159      -4.81883278
Al       7.30767837       5.37575440       1.94085367       0.60000000      -0.00909097      -0.01670919      -0.00503445      -4.99706975
Ni       3.53983871       0.02581016       3.65904457       0.60000000       0.00254148      -0.00206571       0.00807385      -5.95083405
Al       5.55879863       1.58560717       3.69255726       0.60000000      -0.00877870      -0.01417209       0.00417843      -4.84647456
Ni       7.10672685       3.52448797       3.59275895       0.60000000      -0.00023793       0.00427278      -0.00448067      -5.81872178
Ni       8.95138421       5.33074154       3.70168314       0.60000000      -0.00247497       0.00074811       0.00938749      -5.72106216
Ni       5.34045326       0.05548462       5.55327394       0.60000000       0.00264932       0.01645134       0.00209477      -5.92498689
Ni       7.17777494       1.76562152       5.45940257       0.60000000      -0.00823713      -0.00554776       0.00031543      -5.80624826
Ni       8.92767315       3.52481938       5.37145185       0.60000000       0.00088190      -0.00692066      -0.00725416      -5.67076217
Ni      10.73068187       5.41623696       5.44302986       0.60000000       0.00550284      -0.01117277      -0.01063875      -5.66801518
Ni       0.01471116       1.82790001       1.79400942       0.60000000      -0.00453448       0.00770205      -0.00518945      -5.81723357
Al       1.67459505       3.66457992       1.61183764       0.60000000       0.00918002      -0.00147661       0.00191956      -4.80118446
Ni       3.59256170       5.22644160       1.68558993       0.60000000       0.00301400      -0.00295481      -0.00237731      -5.97724555
Ni       5.44780445       7.11515703       1.75573220       0.60000000       0.01118800       0.00399703       0.01058701      -5.83040705
Ni       1.79100973       1.84740095       3.55253799       0.60000000       0.00155195      -0.00305272       0.00519890      -6.04328665
Al       3.52303855       3.59752243       3.56272238       0.60000000      -0.00063636       0.00239336      -0.01036392      -4.63035238
Ni       5.29769403       5.32178872       3.59012651       0.60000000       0.00297544       0.00702618      -0.00709439      -6.01370885
Ni       7.20376859       7.18139356       3.62678836       0.60000000       0.00702865       0.00355061       0.01301617      -5.77256061
Al       3.39024874       1.69319474       5.51042988       0.60000000       0.00205033       0.00616380       0.00594172      -4.99029887
Ni       5.28884003       3.47898318       5.33818706       0.60000000      -0.00812119      -0.00757869       0.00735591      -6.06823230
Ni       7.09642629       5.29730641       5.37867806       0.60000000       0.00137451      -0.00791917       0.00360184      -5.77087457
Ni       8.89539704       7.09631902       5.43413503       0.60000000      -0.01110675      -0.00429868       0.00876420      -5.73649329
Al       5.32266687       1.90355768       7.34864274       0.60000000       0.00618150      -0.00088409      -0.00009595      -5.05745367
Ni       7.18329162       3.50845853       7.14523295       0.60000000      -0.01637609      -0.00654691      -0.00193856      -5.70708704
Ni       8.91656012       5.35271260       7.15644944       0.60000000      -0.00031373      -0.00611664      -0.00783067      -5.76698560
Ni      10.73517414       7.13327164       7.27924052       0.60000000      -0.00171842       0.01144326       0.01178645      -5.77662824
