32
Lattice="0.07735254546234442 3.579673079280215 3.616681365466843 7.5942272629935195 0.12533539665195287 7.267373004180254 7.6709384235667155 7.272415689248391 0.04609735587154912" Properties=species:S:1:pos:R:3:initial_magmoms:R:1:forces:R:3:energies:R:1 energy=-170.954283796063 stress="-0.00035129944898512513 7.300690004959337e-05 -3.3070458259963343e-06 7.300690004959337e-05 -0.0002988540309960293 -0.0001141384946216815 -3.3070458259963343e-06 -0.0001141384946216815 0.00048726858737123093" free_energy=-170.954283796063 pbc="T T T"
Ni       0.05816635       0.11863504      -0.00022954       0.60000000       0.00156257      -0.00749122      -0.00272378      -5.71525922
Ni       1.93681393       1.86338547       0.03044072       0.60000000       0.00009520      -0.00585340       0.00168812      -5.67063176
Ni       3.76880472       3.59286640      -0.10873992       0.60000000       0.00373526       0.00556657       0.00622205      -5.88152713
Ni       5.64885571       5.14268640      -0.04137659       0.60000000       0.00134512       0.00391160      -0.00274544      -5.65723084
Al       1.84232276       0.06828799       1.63899453       0.60000000       0.00415825      -0.00543953       0.00868564      -4.80643915
Al       3.74641969       2.17705829       1.83036597       0.60000000       0.00330266      -0.00082778      -0.00506287      -4.83934067
Ni       5.83990769       3.66992185       1.99163635       0.60000000      -0.00439908      -0.00611345       0.00024048      -6.21482828
Al       7.49948575       5.47950005       1.42617340       0.60000000       0.00401660      -0.00256169       0.00293205      -4.79443321
Al       3.97187345       0.02883712       3.51689247       0.60000000      -0.00854154      -0.00050505       0.00344754      -4.57129694
Al       5.62510416       2.02512226       3.89654687       0.60000000       0.00536943       0.01117305      -0.00941492      -4.54903938
Al       7.60119398       3.74055214       3.77441943       0.60000000      -0.00684103      -0.00106311      -0.00768362      -4.18738613
Al       9.68929586       5.42692746       3.71481438       0.60000000       0.00243507       0.00323036      -0.00539686      -4.37366561
Al       5.66726929      -0.05701998       5.82997366       0.60000000      -0.00271217       0.00461496      -0.00791481      -4.94119505
Ni       7.55275267       1.88713819       5.34091434       0.60000000       0.00424590       0.00565363      -0.00884802      -5.94495633
Ni       9.41093158       3.72218295       5.45047827       0.60000000       0.00353249       0.00019364       0.00706939      -6.10749307
Ni      11.39776173       5.55809332       5.38697438       0.60000000       0.00310246      -0.00099380       0.00644771      -5.93951819
Ni       0.02094240       1.76902166       1.94286687       0.60000000      -0.00109582       0.00230371      -0.00109366      -5.76569282
Ni       1.91028651       3.69034224       1.83941969       0.60000000      -0.00310385       0.00066154      -0.00011895      -5.75306540
Al       3.89245653       5.31856625       1.83061615       0.60000000       0.00163953       0.00385104      -0.00132179      -4.88953328
Ni       5.74121175       7.13380764       1.66132596       0.60000000       0.00021097       0.00442789      -0.00019626      -5.78586752
Ni       2.01964432       1.77436727       3.57347225       0.60000000      -0.00893164      -0.00357384       0.00038577      -5.98297114
Ni       3.94325200       3.79248155       3.80168891       0.60000000       0.00448746      -0.00558344       0.00098712      -5.88326965
Al       5.76651365       5.72673590       3.62542540       0.60000000       0.00144593      -0.00396548       0.00286395      -4.65417108
Ni       7.83969276       7.06504502       3.60308612       0.60000000       0.00064264      -0.00259545       0.00319599      -6.07075176
Ni       3.81223271       1.81737383       5.45567071       0.60000000      -0.00326515      -0.00330603       0.00539282      -6.04512256
Ni       5.81719310       3.93059422       5.53858765       0.60000000       0.00007157      -0.00288373      -0.00306983      -6.15861192
Al       7.64835946       5.55339791       5.53876998       0.60000000       0.00142968       0.00420398       0.00120119      -4.22402953
Al       9.74891299       7.39481032       5.36209295       0.60000000      -0.00313617       0.00543011       0.00314638      -4.41124861
Ni       5.73511014       1.94793137       7.29842839       0.60000000      -0.00447638      -0.00214057      -0.00200570      -5.73371519
Al       7.63931540       3.43791683       7.34628320       0.60000000      -0.00020718      -0.00533986      -0.00251650      -4.89582946
Al       9.64211877       5.40235230       7.28661937       0.60000000      -0.00129334       0.00139237       0.00192543      -4.71326542
Ni      11.36660680       7.21147840       7.31246292       0.60000000       0.00117455       0.00362298       0.00428138      -5.79289752
