32
Lattice="7.848536933979373 -7.714013906965162e-18 1.3284215202354784e-17 -4.3739214049731907e-16 7.0416643100075005 1.0347288040133485e-12 -6.244901713818779e-16 1.2639619291643686e-12 7.041664310010426" Properties=species:S:1:pos:R:3:initial_magmoms:R:1:forces:R:3:energies:R:1 energy=-170.8220470897583 stress="0.0002672259517929306 2.369488855517747e-16 -3.433192397355126e-16 2.369488855517747e-16 -0.00028621278109764597 2.0229125799134828e-13 -3.433192397355126e-16 2.0229125799134828e-13 -0.0002862127810360955" free_energy=-170.8220470897583 pbc="T T T"
Al      -0.00000000      -0.00000000      -0.00000000       0.60000000       0.00000000       0.00000000       0.00000000      -4.47467728
Ni      -0.00000000       1.76041608       1.76041608       0.60000000       0.00000000       0.00000000      -0.00000000      -6.14062988
Al       1.96213423       0.00000000       1.76041608       0.60000000       0.00000000       0.00000000      -0.00000000      -4.69445716
Ni       1.96213423       1.76041608       0.00000000       0.60000000       0.00000000       0.00000000       0.00000000      -6.04299156
Al      -0.00000000       0.00000000       3.52083216       0.60000000       0.00000000       0.00000000      -0.00000000      -4.47467728
Ni      -0.00000000       1.76041608       5.28124823       0.60000000       0.00000000       0.00000000      -0.00000000      -6.14062988
Al       1.96213423       0.00000000       5.28124823       0.60000000       0.00000000       0.00000000       0.00000000      -4.69445716
Ni       1.96213423       1.76041608       3.52083216       0.60000000       0.00000000       0.00000000      -0.00000000      -6.04299156
Al      -0.00000000       3.52083216       0.00000000       0.60000000       0.00000000      -0.00000000       0.00000000      -4.47467728
Ni      -0.00000000       5.28124823       1.76041608       0.60000000       0.00000000       0.00000000      -0.00000000      -6.14062988
Al       1.96213423       3.52083216       1.76041608       0.60000000       0.00000000      -0.00000000      -0.00000000      -4.69445716
Ni       1.96213423       5.28124823       0.00000000       0.60000000       0.00000000       0.00000000       0.00000000      -6.04299156
Al      -0.00000000       3.52083216       3.52083216       0.60000000       0.00000000      -0.00000000      -0.00000000      -4.47467728
Ni      -0.00000000       5.28124823       5.28124823       0.60000000       0.00000000       0.00000000       0.00000000      -6.14062988
Al       1.96213423       3.52083216       5.28124823       0.60000000       0.00000000      -0.00000000       0.00000000      -4.69445716
Ni       1.96213423       5.28124823       3.52083216       0.60000000       0.00000000       0.00000000      -0.00000000      -6.04299156
Ni       3.92426847      -0.00000000      -0.00000000       0.60000000      -0.00000000       0.00000000       0.00000000      -6.14062988
Al       3.92426847       1.76041608       1.76041608       0.60000000      -0.00000000       0.00000000      -0.00000000      -4.47467728
Al       5.88640270       0.00000000       1.76041608       0.60000000      -0.00000000       0.00000000      -0.00000000      -4.69445716
Ni       5.88640270       1.76041608       0.00000000       0.60000000      -0.00000000       0.00000000       0.00000000      -6.04299156
Ni       3.92426847       0.00000000       3.52083216       0.60000000      -0.00000000       0.00000000      -0.00000000      -6.14062988
Al       3.92426847       1.76041608       5.28124823       0.60000000      -0.00000000      -0.00000000       0.00000000      -4.47467728
Al       5.88640270       0.00000000       5.28124823       0.60000000      -0.00000000       0.00000000       0.00000000      -4.69445716
Ni       5.88640270       1.76041608       3.52083216       0.60000000      -0.00000000      -0.00000000      -0.00000000      -6.04299156
Ni       3.92426847       3.52083216       0.00000000       0.60000000      -0.00000000      -0.00000000       0.00000000      -6.14062988
Al       3.92426847       5.28124823       1.76041608       0.60000000      -0.00000000       0.00000000      -0.00000000      -4.47467728
Al       5.88640270       3.52083216       1.76041608       0.60000000      -0.00000000      -0.00000000      -0.00000000      -4.69445716
Ni       5.88640270       5.28124823       0.00000000       0.60000000      -0.00000000       0.00000000       0.00000000      -6.04299156
Ni       3.92426847       3.52083216       3.52083216       0.60000000      -0.00000000      -0.00000000      -0.00000000      -6.14062988
Al       3.92426847       5.28124823       5.28124823       0.60000000      -0.00000000       0.00000000      -0.00000000      -4.47467728
Al       5.88640270       3.52083216       5.28124823       0.60000000      -0.00000000      -0.00000000       0.00000000      -4.69445716
Ni       5.88640270       5.28124823       3.52083216       0.60000000      -0.00000000       0.00000000      -0.00000000      -6.04299156
