108
Lattice="11.427654221385952 -0.06365936635313524 -0.02178133543055022 -0.0637583581013704 11.254762137121222 0.04109009258981235 -0.021669154716189402 0.04103578892449625 11.238003965749915" Properties=species:S:1:pos:R:3:initial_magmoms:R:1:forces:R:3:energies:R:1 energy=-528.1034842106893 stress="-0.0004196789228489897 -0.00025315048753779133 0.00010585061036858654 -0.00025315048753779133 0.0006386858394884127 0.00028086927034676244 0.00010585061036858654 0.00028086927034676244 0.0006220576954776968" free_energy=-528.1034842106893 pbc="T T T"
Ni       0.12037179      -0.19038009       0.02053302       0.60000000       0.00364931       0.00030068      -0.00532898      -5.84046217
Al      -0.19675172       1.75312199       1.50984860       0.60000000       0.00532603       0.00075147      -0.00410626      -4.26495430
Al       1.81386348      -0.07341791       1.70119779       0.60000000      -0.00540719       0.00600722      -0.00920030      -4.22742098
Ni       1.91678458       1.91737861       0.14229353       0.60000000       0.00463183      -0.00039869       0.00226894      -6.13535436
Al       0.06652618      -0.21028017       3.82863015       0.60000000      -0.00232292       0.00560150       0.00277447      -4.11070234
Al       0.00720169       1.63074956       5.67300912       0.60000000       0.00676785      -0.00285037       0.00649335      -4.01799281
Ni       1.99504998       0.12289900       5.62352313       0.60000000      -0.00049648      -0.00320879       0.00162752      -6.10691000
Al       1.84869431       1.85112383       3.70211505       0.60000000      -0.00292334      -0.00069739       0.00076293      -3.80234941
Ni       0.18127096       0.11173824       7.69452224       0.60000000       0.00204501       0.00486134       0.00442113      -6.07974775
Al      -0.17020891       1.72368368       9.75392329       0.60000000       0.00218395      -0.00524417      -0.00119312      -4.38658869
Al       2.04103908       0.17218093       9.64059712       0.60000000      -0.00861560       0.00756112       0.00315514      -4.38816232
Al       1.91322262       1.86616215       7.53330322       0.60000000      -0.01255837      -0.00098155       0.00365362      -4.07820288
Al      -0.07655643       4.12287231       0.00813954       0.60000000       0.00686354       0.00954833       0.00024656      -4.21499375
Ni       0.01056649       5.52915053       1.98643578       0.60000000      -0.00578682      -0.00117383      -0.00019048      -6.01307868
Al       1.87832513       3.89200669       1.75921289       0.60000000      -0.00358647       0.00279898      -0.00328984      -4.28349571
Ni       1.94804764       5.55161873      -0.07796414       0.60000000       0.00629968      -0.00277170      -0.00019310      -5.95794266
Al      -0.00828526       3.77088916       3.69517029       0.60000000      -0.00474255       0.00062568      -0.00030008      -3.95969424
Al      -0.00733913       5.71361117       5.55824366       0.60000000      -0.00297466       0.00154606      -0.00095655      -3.97874682
Al       1.86360915       3.86561633       5.59874235       0.60000000       0.00135292      -0.00031662       0.00497097      -3.81913197
Al       1.93052126       5.88641480       3.56720901       0.60000000       0.01137952       0.00070295      -0.00268084      -4.50586855
Al      -0.02500328       3.80540894       7.55466463       0.60000000       0.00304725      -0.00593629      -0.00365204      -3.88739324
Ni      -0.02301719       5.57597010       9.22027741       0.60000000      -0.00148355       0.00349821      -0.00419903      -6.07090259
Al       1.98679150       3.73786667       9.55276150       0.60000000       0.00295211       0.00169922       0.00161436      -4.37548478
Al       1.97432114       5.79236696       7.73195264       0.60000000       0.00426116      -0.00999701       0.00860535      -4.38045531
Al       0.01949644       7.09059767      -0.04563652       0.60000000      -0.00244887      -0.00119360      -0.00716204      -4.69386403
Ni      -0.11451299       9.33595877       1.92449178       0.60000000      -0.00417297       0.00197265       0.00115207      -6.01697879
Ni       1.84631385       7.41139507       1.71053823       0.60000000      -0.00329169       0.00624392      -0.00410723      -5.73491893
Al       1.85051466       9.13323163       0.10267237       0.60000000       0.00452112      -0.00124769       0.00883899      -4.46673049
Ni      -0.00939520       7.46408100       3.83745735       0.60000000      -0.00675588       0.00452569      -0.00110682      -5.92450097
Ni      -0.06775653       9.28799523       5.73224200       0.60000000      -0.00091101       0.00325661       0.00148780      -5.95438890
Al       2.08156747       7.58443530       5.62712799       0.60000000       0.00022762       0.00006330      -0.00945568      -4.40912874
Al       1.76888346       9.11185351       3.53179522       0.60000000       0.00501375      -0.01525845       0.00917606      -4.51576320
Al      -0.03867634       7.56873462       7.67052652       0.60000000      -0.00121353      -0.00078683       0.00040868      -4.18815489
Al      -0.02095679       9.54475518       9.46159974       0.60000000      -0.01028439      -0.00225791       0.00399903      -4.25575161
Ni       1.73115990       7.65026674       9.40249462       0.60000000      -0.00040223       0.00887426      -0.01162948      -5.99264658
Al       1.84902665       9.46934561       7.45673314       0.60000000       0.00453130       0.00189366       0.00397884      -4.49378095
Al       4.04334615      -0.28322337       0.14921958       0.60000000      -0.00174394      -0.00497472       0.00705451      -4.18100234
Al       3.82091810       1.87716151       1.81026826       0.60000000       0.00095472      -0.00252368       0.00906177      -4.07744883
Ni       5.72331255       0.01805988       1.95905788       0.60000000       0.00341869       0.00710071      -0.00493418      -6.21868914
Al       5.63175968       1.86853035      -0.13407866       0.60000000       0.00082588      -0.00197191       0.00070588      -3.99068608
Al       3.76146327      -0.18090956       3.65735014       0.60000000       0.00310820      -0.00076828      -0.00156049      -4.26993977
Al       3.82673002       1.86909962       5.52301445       0.60000000      -0.00797393      -0.01011171      -0.00187270      -3.89583264
Al       5.68887988      -0.14650387       5.60909020       0.60000000      -0.00475921       0.00336319      -0.00451264      -3.78676555
Al       5.77864007       1.99953867       3.67331010       0.60000000      -0.00277435      -0.00366521       0.00613445      -4.06864193
Al       3.79156151      -0.02469064       7.50407932       0.60000000       0.01227036      -0.01081452       0.00441035      -4.06326252
Ni       3.82422809       1.95850672       9.29319507       0.60000000       0.00302028       0.00349994      -0.00250293      -6.19908414
Al       5.69684094      -0.34011562       9.38413601       0.60000000      -0.00374661      -0.00461099       0.00000485      -4.11355547
Al       5.68639414       1.86302074       7.61735843       0.60000000       0.00226274      -0.00286451      -0.00426048      -3.98409309
Al       3.92979810       4.06523087       0.11099711       0.60000000       0.00156588       0.00493609      -0.00446787      -4.39518817
Ni       3.77350670       5.60342397       1.96103570       0.60000000      -0.00053095      -0.00167976       0.00307328      -5.89086746
Ni       5.70294126       3.67165996       1.79482114       0.60000000      -0.00169413       0.00517812       0.00435459      -6.09484867
Ni       5.77017983       5.62715856       0.00121311       0.60000000       0.00279359      -0.00179243       0.00274033      -5.87724767
Al       3.90957726       3.89403371       3.72249465       0.60000000       0.00322565      -0.00713558       0.00342493      -4.24110758
Ni       3.63697421       5.60397824       5.59654794       0.60000000      -0.00702818      -0.00924526      -0.00309379      -6.07856011
Ni       5.68077318       3.67780601       5.71266256       0.60000000       0.00808719      -0.00084656      -0.00603782      -6.14861653
Al       5.37196357       6.04201100       3.78895622       0.60000000       0.00080299      -0.00115187       0.00217865      -4.43332788
Al       3.82923543       3.83356166       7.43894227       0.60000000       0.00053256       0.00979653      -0.00451586      -4.15488408
Ni       3.77608473       5.59684457       9.31389092       0.60000000       0.00125840      -0.00785807       0.00189641      -5.97959151
Al       5.62813899       4.05935378       9.36962249       0.60000000      -0.00004877      -0.00339281      -0.00170717      -4.11434745
Al       5.42606560       5.98224353       7.40732068       0.60000000       0.00337311      -0.00084021       0.00219496      -4.50578458
Al       3.89885425       7.35147964       0.00853472       0.60000000       0.00165779       0.00288661       0.00262825      -4.94933770
Ni       3.66619958       9.35683396       1.88837555       0.60000000       0.00484173      -0.00320476       0.00158702      -5.99219995
Ni       5.66283955       7.45811366       1.81176827       0.60000000      -0.00208239      -0.00213049      -0.00117381      -5.71566542
Ni       5.78020401       9.32929120       0.04914819       0.60000000      -0.00250726      -0.00414410       0.00345189      -5.83603702
Ni       3.59295211       7.58874450       3.73566411       0.60000000      -0.00775462      -0.00362968       0.00154039      -5.82198026
Ni       3.76630342       9.46931596       5.60216630       0.60000000       0.00444639       0.00170557       0.00228580      -6.05173652
Ni       5.61460406       7.58397803       5.63281260       0.60000000       0.00779488       0.00011856       0.01135699      -5.96054534
Al       5.46408726       9.05365176       3.65219603       0.60000000      -0.00225825      -0.00661116      -0.00490229      -4.58010523
Ni       3.53257072       7.57910699       7.55909436       0.60000000       0.00362628       0.00039875       0.00969620      -5.81200651
Ni       3.60193235       9.49286138       9.41762864       0.60000000      -0.00205820       0.00252037      -0.00197096      -6.09123737
Ni       5.54892961       7.52996966       9.35697883       0.60000000       0.00211102       0.00338973      -0.00039010      -5.77520777
Al       5.35659422       9.07726745       7.51933882       0.60000000      -0.00172046       0.00464800       0.00363255      -4.36157690
Al       7.71954073      -0.13307851       0.03573084       0.60000000      -0.00338597       0.00048284       0.00532231      -4.37978841
Al       7.63052740       1.88811993       1.78397629       0.60000000       0.00932372      -0.00010462       0.00624915      -4.32340750
Ni       9.47208036      -0.08515832       1.87531571       0.60000000      -0.00235128       0.00310853       0.00036352      -6.09626928
Ni       9.29875735       2.06409454       0.00992346       0.60000000       0.00066372       0.00561569       0.00333364      -6.15312048
Al       7.57876352      -0.14458763       3.62712806       0.60000000      -0.00066770       0.00206805      -0.00300138      -3.98369344
Al       7.60232717       1.84102287       5.62183212       0.60000000       0.00133796       0.00073774      -0.00763999      -4.05687317
Ni       9.35077170      -0.09994462       5.49306621       0.60000000      -0.00076091      -0.00235943      -0.00162274      -6.25565701
Al       9.56641549       1.68832721       3.69670632       0.60000000       0.00125115       0.00102087      -0.00368170      -4.02395642
Al       7.59960173      -0.17350995       7.52394862       0.60000000      -0.00443387      -0.00487383       0.00449182      -4.11018594
Al       7.73439961       1.82839621       9.38151734       0.60000000      -0.00399387      -0.00626909       0.00165669      -3.93020606
Ni       9.50615361       0.01863879       9.39979587       0.60000000       0.00313214       0.00170844      -0.00298709      -5.98862475
Al       9.61145930       1.60475719       7.48652926       0.60000000       0.00592556      -0.00017300       0.00513877      -3.99261099
Al       7.51535748       3.96421314       0.02498441       0.60000000       0.00668391       0.00047218      -0.01358376      -4.34652563
Al       7.35201789       5.68023797       2.07674337       0.60000000       0.00050948      -0.00030045       0.00351848      -4.55490227
Al       9.45243188       4.00115102       1.89280731       0.60000000       0.00753929       0.00439526      -0.00056880      -4.34625455
Ni       9.32917151       5.70190559       0.04763822       0.60000000      -0.00451666      -0.00031885      -0.01188102      -6.09849621
Ni       7.77410616       3.52343796       3.72166061       0.60000000       0.00235305       0.00351672      -0.00276783      -6.03758295
Al       7.42978522       5.61779278       5.30787181       0.60000000      -0.00688007      -0.00122806      -0.00633703      -4.35324576
Al       9.49629167       3.76378837       5.58802462       0.60000000       0.00539318       0.00798562      -0.00110339      -3.99109952
Ni       9.49872827       5.51583407       3.88836089       0.60000000      -0.00199416       0.00278888      -0.00331365      -6.07214115
Al       7.50983580       3.86597473       7.46743752       0.60000000      -0.00038513      -0.00491154       0.00155579      -3.98607096
Ni       7.56592726       5.54230642       9.26906106       0.60000000      -0.00274912      -0.00297340      -0.00826747      -6.04940643
Al       9.44565803       3.90054411       9.47581819       0.60000000      -0.01001402       0.01321834      -0.00245009      -4.20901013
Al       9.44326816       5.75024533       7.63604702       0.60000000      -0.00122326      -0.00132484      -0.00180677      -4.01239892
Al       7.45666114       7.39633375      -0.32710778       0.60000000      -0.00277160      -0.00350533      -0.00726128      -4.69361389
Al       7.41453076       9.14974108       1.84981723       0.60000000      -0.00308288      -0.00489789      -0.00301672      -4.28989034
Al       9.68837211       7.17319446       2.04386415       0.60000000       0.00300016       0.00106709      -0.00372119      -4.52642602
Al       9.60089709       9.33490546       0.06138056       0.60000000       0.00283125       0.00338145       0.00346248      -4.41593602
Ni       7.61358756       7.53826852       3.73553791       0.60000000      -0.00206793       0.00430808       0.00429279      -6.20774091
Al       7.51673833       9.14863673       5.58410297       0.60000000       0.00108003       0.00676912       0.00405442      -4.06482155
Al       9.54501109       7.44081003       5.47329462       0.60000000      -0.00904558       0.00174549      -0.00829648      -4.13431061
Al       9.53706195       9.29089137       3.63439854       0.60000000      -0.00056712      -0.00101651      -0.00099882      -4.46865731
Al       7.57054836       7.61948776       7.91919418       0.60000000       0.00102524      -0.00289531       0.00900308      -4.25196869
Ni       7.65099901       9.47748342       9.45582640       0.60000000       0.00198778      -0.00017594       0.00868003      -6.00821880
Ni       9.61195882       7.61602608       9.40273783       0.60000000      -0.00456915       0.00070766      -0.00213821      -6.10967112
Al       9.63036431       9.55815035       7.52550450       0.60000000      -0.00654985       0.00064417      -0.00107248      -4.33704747
