32
Lattice="-0.023339806029940895 3.7977540307958195 3.845832836999438 7.481808630884158 0.02561556277424215 7.619108173297072 7.432049497646458 7.473490860391114 0.07562904991336591" Properties=species:S:1:pos:R:3:initial_magmoms:R:1:forces:R:3:energies:R:1 energy=-156.59399922379896 stress="-0.0005664630217804115 -0.00015654103533619006 -0.000776083442623579 -0.00015654103533619006 -0.0008673572142355834 -0.000666207755315046 -0.000776083442623579 -0.000666207755315046 1.991655360870292e-07" free_energy=-156.59399922379896 pbc="T T T"
Al       0.28375186       0.28856620       0.25963713       0.60000000       0.00346748       0.00065710       0.00253583      -4.42097054
Ni       1.94212245       2.07098367      -0.10275371       0.60000000       0.00569289      -0.00055686      -0.00297590      -6.27188328
Al       3.67934008       3.76811916       0.09317857       0.60000000       0.00390048      -0.00312331      -0.01118541      -3.94375983
Al       5.69389976       5.68793544       0.11388068       0.60000000       0.00441630       0.00609728      -0.00776345      -4.25254644
Ni       1.80252179       0.10037055       2.19939365       0.60000000       0.00089387      -0.00996052       0.00972439      -5.83051567
Al       3.54686171       1.78060519       2.15560175       0.60000000       0.00034411       0.00232362      -0.00639490      -4.22117465
Al       5.66562094       3.76412942       1.93216680       0.60000000       0.00478207      -0.00797990      -0.00613302      -3.87294861
Al       7.68594701       5.66727339       2.17928713       0.60000000       0.00499825       0.00713571       0.00292702      -4.48514358
Al       3.87216666      -0.61305104       3.53770781       0.60000000       0.00888813       0.00852312       0.00110645      -4.56433657
Al       5.57148105       1.93041344       3.83963909       0.60000000      -0.00423693       0.01007643       0.00481774      -4.14036114
Ni       7.42437036       3.61325406       3.76029334       0.60000000      -0.00967057       0.00081251      -0.00455666      -6.19098509
Ni       9.32766719       5.49118295       3.90371280       0.60000000       0.00689601      -0.00726852       0.00084993      -5.67230561
Al       5.45637155      -0.04594897       5.76385273       0.60000000      -0.00345445      -0.00197629       0.00744526      -4.40287006
Al       7.49526412       2.01629868       5.66216799       0.60000000      -0.01167013       0.00031495       0.00179014      -4.25531002
Al       9.48407450       3.86337016       5.62370950       0.60000000       0.00206868      -0.00763864       0.00615974      -4.24291459
Ni      11.18879030       5.63157056       5.83292718       0.60000000       0.00789897      -0.00394410      -0.00153562      -6.10585946
Ni      -0.11489287       2.04012473       2.01750953       0.60000000      -0.00120886       0.00398950      -0.00129766      -5.92092618
Al       1.72253003       3.66804264       1.93806888       0.60000000      -0.00034895       0.00684623      -0.01190027      -4.12017205
Al       3.67306855       5.58833805       2.01897315       0.60000000      -0.00960706       0.00788897      -0.00874637      -3.94036077
Al       5.54071010       7.76736937       1.92579020       0.60000000      -0.00685770      -0.00547232      -0.00035621      -4.39344481
Ni       1.62449057       2.05433872       3.86534381       0.60000000      -0.00076134       0.00085274       0.00237007      -5.87034226
Al       3.37392220       3.70200644       4.18554708       0.60000000       0.00190973      -0.00981079      -0.00329241      -4.39566804
Al       5.54348435       5.53905517       3.89709857       0.60000000       0.00292609      -0.00370489       0.00391977      -4.01889552
Ni       7.22034297       7.52217576       3.89133885       0.60000000       0.00442134      -0.01334717      -0.01128086      -6.07201099
Ni       3.78196251       1.69827842       5.49570047       0.60000000      -0.00307736       0.00030986       0.00112670      -5.67980754
Ni       5.60420213       3.87556788       5.74923189       0.60000000       0.00423822       0.00023220       0.01347060      -6.14232573
Al       7.47802481       5.59592679       5.59275560       0.60000000      -0.01359843      -0.00335421      -0.00462145      -4.23250636
Al       9.41973157       7.55345310       5.33913082       0.60000000      -0.00173754       0.00765664       0.00622967      -4.62670113
Ni       5.76064281       1.75967512       7.47231919       0.60000000      -0.00131861       0.00792752      -0.00168308      -5.90096068
Al       7.33467112       3.62069748       7.67734499       0.60000000      -0.00291134       0.00379512       0.00939409      -4.24548623
Al       9.39291187       5.91468362       7.48778093       0.60000000      -0.00364942       0.00598285       0.01015154      -4.13193484
Ni      11.30352507       7.45650319       7.79517298       0.60000000       0.00636607      -0.00328483      -0.00029565      -6.02857097
