32
Lattice="0.016643862767224987 3.6610474598548723 3.7177443873505944 7.176309140468005 0.0934950784684394 7.375500646471417 7.1469508924662986 7.232434489441911 0.12150882777680728" Properties=species:S:1:pos:R:3:initial_magmoms:R:1:forces:R:3:energies:R:1 energy=-174.44617813763404 stress="0.00014351334679001815 -3.719157770160123e-05 -4.941941475487218e-05 -3.719157770160123e-05 -0.0002684209904950829 0.00010751298772042143 -4.941941475487218e-05 0.00010751298772042143 -0.00013419767306207907" free_energy=-174.44617813763404 pbc="T T T"
Ni       0.06600277       0.02344438      -0.05707729       0.60000000      -0.00401951      -0.00176415      -0.00165276      -5.99688176
Al       1.80843545       1.74945118       0.08776040       0.60000000       0.00239045       0.00411795      -0.00319969      -4.74423343
Ni       3.52506540       3.62594917       0.09256292       0.60000000      -0.00407525      -0.00445049       0.00528673      -5.93166040
Ni       5.34567884       5.44584836       0.09291254       0.60000000      -0.00323933       0.00209258       0.00094098      -5.76312262
Ni       1.85485098       0.04304453       1.83103444       0.60000000       0.00210527       0.00110569      -0.00361314      -5.81949018
Al       3.84959759       1.85229041       1.85264552       0.60000000       0.00871582       0.00259424      -0.00428166      -4.95810232
Ni       5.37723166       3.72537625       1.89985930       0.60000000       0.00146420      -0.00619495       0.00055121      -5.64639934
Ni       7.18249025       5.45202035       1.85432284       0.60000000       0.00095840       0.00078804      -0.00420204      -5.72333779
Al       3.50265481      -0.01405463       3.68617806       0.60000000      -0.00872771       0.01256624       0.01123207      -4.66074056
Ni       5.32017685       1.75107786       3.79584392       0.60000000      -0.00257712      -0.00035575       0.00404332      -5.98914767
Ni       7.07261775       3.73656651       3.77641234       0.60000000       0.00309127      -0.00012179       0.00674235      -5.71266738
Ni       8.97760748       5.41713921       3.71610792       0.60000000       0.00312990       0.00927662       0.00479456      -6.05547044
Al       5.54066391      -0.04465275       5.58146458       0.60000000      -0.00559105      -0.01177106       0.00533969      -4.63042846
Al       7.13611089       2.00058490       5.36731833       0.60000000       0.00611495       0.00133700       0.00171667      -4.63700698
Al       8.92756840       3.94057023       5.66970830       0.60000000       0.00432889       0.00500420       0.00255925      -4.87675202
Ni      10.79136568       5.56963455       5.59857680       0.60000000       0.00489448       0.00750072      -0.00377165      -6.10671332
Ni       0.07944508       1.81040102       1.87559482       0.60000000      -0.00480058      -0.00276143       0.00251484      -5.74961543
Al       1.82408434       3.62628985       1.89070409       0.60000000       0.00092625      -0.00341793       0.00550545      -4.75573564
Ni       3.50522848       5.49243629       1.98042249       0.60000000      -0.00160455       0.00210164      -0.00794395      -5.83031890
Ni       5.33664975       7.24480441       1.90805223       0.60000000      -0.00032875      -0.00324309      -0.00590540      -5.76076604
Ni       1.84402082       1.79042658       3.70330758       0.60000000       0.00190222      -0.00349383       0.00429333      -5.98339661
Ni       3.63737528       3.67470548       3.68874399       0.60000000      -0.00080216      -0.00120465      -0.00261294      -5.88633671
Ni       5.35184157       5.47695949       3.69195374       0.60000000       0.00486709      -0.00280257       0.00114391      -5.60553270
Al       7.05721637       7.23151837       3.68018556       0.60000000      -0.00594504       0.00070036       0.00094096      -5.06492668
Al       3.52289373       1.97686143       5.41370775       0.60000000      -0.00219640      -0.00364189      -0.01525225      -4.61908385
Ni       5.32612497       3.57709992       5.66669167       0.60000000       0.00179624       0.00810602      -0.00665385      -5.98886117
Ni       7.03361782       5.50457187       5.62475647       0.60000000       0.00039111      -0.00553013      -0.00211474      -5.77474028
Al       8.73397734       7.20304862       5.72480976       0.60000000       0.00068950       0.00406337       0.00251282      -4.79849024
Al       5.57436135       1.83372539       7.49179551       0.60000000      -0.00938146      -0.00201019       0.00472369      -4.65122967
Ni       7.20383195       3.68301898       7.40092442       0.60000000      -0.00022774      -0.00041547      -0.00370278      -6.11108076
Ni       8.95417337       5.59383642       7.53207240       0.60000000      -0.00275135      -0.00123808      -0.00128953      -5.92873252
Al      10.74931040       7.20553987       7.58671540       0.60000000       0.00850195      -0.00693724       0.00135456      -4.68517624
