32
Lattice="7.430774474292861 0.009035503592156189 -0.07912833943208572 0.008187472286052825 7.053671459936987 0.039739324162022534 -0.07907451578269786 0.04126816207257808 7.4351598163528445" Properties=species:S:1:pos:R:3:initial_magmoms:R:1:forces:R:3:energies:R:1 energy=-171.2942613336812 stress="-0.00031903417218376903 2.419262373716867e-05 -8.885839477617781e-05 2.419262373716867e-05 0.00017493671358528252 0.00025978541566952236 -8.885839477617781e-05 0.00025978541566952236 -7.587895924389647e-05" free_energy=-171.2942613336812 pbc="T T T"
Ni       0.00071506      -0.04198059       0.10277547       0.60000000       0.00392275      -0.00173934      -0.00751527      -5.88822202
Ni       0.00171991       1.81389198       1.86060328       0.60000000       0.00829328      -0.00181247      -0.00645494      -5.79760318
Al       1.70034718       0.19117624       2.05841375       0.60000000       0.00923724       0.00427964       0.00556466      -4.55325472
Al       1.80550480       1.58841529      -0.09520122       0.60000000      -0.01194083       0.00799733       0.00315825      -4.67036586
Ni      -0.01049471       0.00010540       3.75483529       0.60000000      -0.00871042       0.00646888       0.00290629      -5.71700513
Ni       0.00984280       1.80682161       5.62146176       0.60000000      -0.00321790      -0.00634701       0.00025691      -5.87035896
Ni       1.81970358      -0.01301843       5.53628685       0.60000000       0.00830923       0.01479676      -0.00532393      -5.78105903
Ni       1.72849416       1.85181137       3.73613413       0.60000000      -0.00058408      -0.00209807       0.01007672      -5.78072598
Al      -0.01403276       3.46020763       0.03316420       0.60000000       0.00696096       0.00881913       0.00701822      -4.66624171
Al      -0.04783963       5.35536472       1.96850813       0.60000000      -0.00929851      -0.00575136       0.01459554      -4.67547061
Ni       1.87853843       3.61013792       1.67731899       0.60000000      -0.00734240       0.00441904      -0.00258250      -6.11228399
Al       1.82789686       5.44396149      -0.10615911       0.60000000       0.00162369      -0.00810952      -0.00040132      -4.50184613
Ni      -0.13203918       3.62062511       3.66712319       0.60000000      -0.00104255      -0.00440997      -0.00944772      -5.92037494
Ni      -0.08564285       5.29834761       5.72021312       0.60000000       0.00118333       0.00923077      -0.00601614      -5.91674026
Al       1.63688448       3.64249559       5.33594618       0.60000000       0.00350343      -0.00698497       0.00595758      -4.62532075
Ni       1.94830285       5.35083472       3.60771538       0.60000000      -0.01684131       0.00072603       0.00367018      -5.92506969
Al       4.00998620       0.02064444      -0.27034027       0.60000000       0.00483247       0.00163679      -0.00173996      -4.69287922
Ni       3.63740099       1.65063847       1.71625454       0.60000000      -0.00279479       0.00540221      -0.00614108      -6.11295028
Ni       5.51905208      -0.02018569       1.85990554       0.60000000       0.00089936       0.00014572       0.00554079      -5.87055365
Ni       5.60523291       1.84029508      -0.05906320       0.60000000       0.00285162      -0.01197022       0.00150115      -5.90733999
Al       3.65697716       0.23976134       3.93562924       0.60000000       0.01039313       0.00099066      -0.00066283      -4.88752086
Ni       3.55721028       1.98753782       5.61732081       0.60000000      -0.00388046       0.00306583      -0.00865039      -6.09294929
Ni       5.59803138       0.08945346       5.54249596       0.60000000       0.00105427      -0.00200293       0.00519130      -5.63881476
Ni       5.55265075       1.75069933       3.67858839       0.60000000       0.00371565      -0.00090769       0.00095443      -5.77103254
Al       3.73775057       3.49273304      -0.00059916       0.60000000      -0.00188681       0.00653775       0.01646944      -4.66018115
Al       3.73214060       5.43558601       1.88304385       0.60000000       0.00258950      -0.00581078      -0.00719927      -4.38621203
Al       5.57988917       3.28139553       1.89112635       0.60000000       0.00422626      -0.00116336      -0.00717017      -4.54167655
Ni       5.57805708       5.13302625       0.05226651       0.60000000      -0.00941430      -0.00043117      -0.00267336      -6.09503161
Al       3.56307727       3.34274040       3.57669852       0.60000000       0.00300115      -0.00559833       0.00856509      -4.61987340
Ni       3.69558391       5.12848168       5.51024292       0.60000000      -0.00033482       0.00278538      -0.00323422      -6.15891986
Al       5.59443403       3.40030162       5.44951277       0.60000000      -0.00546554      -0.00456812      -0.00304654      -4.79002469
Al       5.63327379       5.49539509       3.88702749       0.60000000       0.00615740      -0.00759659      -0.01316694      -4.66635850
