108
Lattice="12.356962885474578 -0.14841810910359685 0.4455894485469086 -0.14280088956751952 12.297330718236363 -0.013977896113966036 0.42636587914449126 -0.00834094693690457 11.573321119575292" Properties=species:S:1:pos:R:3:initial_magmoms:R:1:forces:R:3:energies:R:1 energy=-449.33001591372624 stress="-0.00022708085042367465 -0.00030069961610563247 -0.00012449990556921594 -0.00030069961610563247 0.0002008844621223184 -0.0005299340532377621 -0.00012449990556921594 -0.0005299340532377621 0.0005293508128324715" free_energy=-449.33001591372624 pbc="T T T"
Al      -0.10449090      -0.42275362      -0.29976899       0.60000000      -0.00055420       0.00719469       0.00657392      -3.88258900
Al      -0.04992512       1.15609394       2.25020070       0.60000000       0.01462375       0.00176010      -0.00763373      -4.04979061
Ni       1.75797859      -0.38430066       1.52813560       0.60000000      -0.00740967       0.00266919       0.00396782      -6.03482282
Al       1.43948784       1.83383022       0.10369280       0.60000000      -0.00187327       0.00161454       0.00563067      -3.99215517
Al       1.54245748      -0.21542902       3.98129677       0.60000000       0.00023277       0.00165822      -0.00013082      -3.66950258
Al       1.36904625       2.27804425       4.89617837       0.60000000      -0.00530676       0.00048468       0.00482623      -3.93115021
Al       2.57491318       0.21136755       6.42993006       0.60000000       0.00087133       0.00272057      -0.00012544      -3.89052585
Al       4.12151476       2.61888457       3.56286175       0.60000000      -0.00001224      -0.00158996      -0.00509120      -4.27668315
Al       0.13001145       1.27222914       7.23706347       0.60000000       0.00526978      -0.00010368      -0.01007489      -3.69466638
Al       0.04676329       2.06250023       9.82821439       0.60000000       0.00393654      -0.00558360       0.00509656      -3.74016782
Al       2.09248387       0.08462698       9.17241810       0.60000000      -0.00119755      -0.00469013       0.00619273      -3.69608503
Al       2.47049235       2.50157939       7.98733322       0.60000000      -0.00503939       0.00291028      -0.00282612      -3.86936825
Al       0.05794587       4.21355664      -0.11126546       0.60000000       0.00200862       0.00108675       0.00199614      -3.86528174
Ni       0.50344717       5.52497147       1.83461230       0.60000000      -0.01183819       0.00213708       0.00680334      -5.85004332
Al       1.90907931       3.64977016       2.23663429       0.60000000      -0.00038758       0.00422100      -0.00426731      -4.28925694
Al       2.50246366       6.08094504       0.42352364       0.60000000       0.00307744       0.01374237      -0.00528723      -3.94093782
Ni       0.61572515       4.54597023       4.19776192       0.60000000       0.00274368       0.00991641       0.00540278      -5.91124751
Al       0.10278718       5.98129529       6.11741362       0.60000000       0.00863558       0.00844130      -0.00072579      -3.87650144
Al       2.56208091       4.45404158       5.63534015       0.60000000      -0.00921471       0.00045775      -0.00158677      -4.17550876
Al       1.99396231       6.45828564       3.53649000       0.60000000      -0.00127592       0.00684006       0.00000889      -4.25634536
Al       0.30012025       4.11554182       8.11705402       0.60000000       0.00008697       0.00159751      -0.00021010      -3.69514026
Al      -0.02806297       6.31933228       9.64638877       0.60000000      -0.00040983       0.00582976       0.00162870      -3.64813032
Al       2.51720055       4.53168302       9.71930108       0.60000000       0.00038806      -0.00923238       0.00013202      -3.58925180
Al       2.21668407       6.33657274       7.72140294       0.60000000      -0.00000489       0.00087310       0.00163814      -3.70675019
Al      -0.45333353       8.85098189      -0.65011362       0.60000000      -0.00012510       0.00195608      -0.00031777      -3.60158016
Al      -0.32026840      10.54797574       1.97163423       0.60000000       0.00345015       0.01224829      -0.00976000      -4.17862659
Al       0.51480535       7.89120499       1.61997208       0.60000000       0.00457750       0.00788159      -0.00619388      -3.99300454
Al       2.08502811       9.82305894       0.30392186       0.60000000      -0.00440830       0.00180158       0.00326488      -4.07816761
Ni      -0.30891808       8.97995832       3.77618034       0.60000000       0.00564794       0.00140907      -0.00217526      -6.07149998
Al      -0.23018615      10.56527507       5.85002866       0.60000000      -0.00075975       0.00098062       0.00151915      -4.00808772
Al       1.56011573       8.37371168       5.47186152       0.60000000      -0.00264716       0.00040524       0.00265741      -3.98809832
Al       2.05428891       9.70176597       3.09347113       0.60000000       0.00220671      -0.00525085      -0.00263916      -4.11913450
Al       0.02369239       8.29302923       7.83470384       0.60000000      -0.00314468      -0.00257955      -0.00395971      -3.86421107
Al      -0.44564884      10.81067414       8.83642881       0.60000000       0.00136075       0.00695855       0.00443130      -3.92604334
Al       2.27985859       8.00829822       9.81833571       0.60000000       0.00296624      -0.00206968      -0.00549018      -3.87564530
Al       2.04020530      10.07144171       7.75922684       0.60000000       0.00107545       0.00152917       0.00068533      -3.69678563
Al       3.42827258      -0.00722212      -0.22305562       0.60000000       0.00282870       0.00493021       0.00012440      -3.98120841
Ni       3.50193127       2.05620384       1.21807134       0.60000000       0.00432249      -0.00455272      -0.00071091      -5.77687166
Ni       6.42335368      -0.50945176       2.19407422       0.60000000      -0.00658949       0.00039362       0.00417131      -5.85434650
Al       5.71665311       1.41571747       0.74025099       0.60000000       0.00791583      -0.00054543       0.00014496      -4.05899843
Al       4.00821681       0.02298981       2.50875330       0.60000000      -0.00335803       0.00373636       0.00152385      -4.14907704
Ni       3.77041608       2.34352521       5.96873703       0.60000000       0.00259327      -0.00923141       0.00543389      -6.06505035
Ni       6.98493576       0.33229350       6.49344996       0.60000000      -0.00498296      -0.00833379       0.00035861      -5.81611742
Al       5.05266070       0.30800738       5.05186015       0.60000000      -0.00118613      -0.01338275       0.00755163      -3.99104553
Al       4.97485282       1.16081159       7.74743561       0.60000000      -0.00356122      -0.00360812      -0.00781506      -4.07606726
Al       4.28013863       2.40708928      10.23260553       0.60000000       0.00221670      -0.00303728       0.00322961      -3.81798575
Al       6.31376318       0.02488351       9.80084003       0.60000000       0.00654994       0.00185136      -0.00239461      -3.64244950
Al       7.54749598       2.15761521       8.24431257       0.60000000      -0.00943438      -0.00455305      -0.00107637      -3.95476702
Al       4.64411649       4.11939739       0.90729448       0.60000000       0.00114492       0.00306508       0.00169648      -3.84426386
Al       4.52775550       5.82455582       3.12558068       0.60000000       0.00291812      -0.00371269       0.00278163      -3.97474376
Al       6.52712151       3.99976381       3.11251999       0.60000000      -0.00398249       0.00143096      -0.00972865      -3.75154436
Al       5.60734385       6.63486827       0.26628913       0.60000000       0.00624519       0.00011769      -0.00023914      -3.88371870
Ni       4.96378117       4.39507954       5.06556583       0.60000000       0.00866595       0.00252402       0.00506567      -5.91574916
Al       4.12831088       6.58839730       5.83069977       0.60000000      -0.00011783      -0.00408760      -0.00009925      -3.93348713
Al       6.53100030       2.73154595       5.77876597       0.60000000      -0.00803508       0.00011342       0.00099972      -4.33935703
Al       6.73469829       6.01789336       5.06715128       0.60000000      -0.00621807      -0.00564822      -0.00441451      -3.89411250
Al       4.67686170       4.16133437       7.53336641       0.60000000      -0.00345885      -0.00976098       0.00098126      -4.10140990
Al       4.60327559       6.25114033       9.48588964       0.60000000      -0.00156351      -0.00284263      -0.00237832      -3.82505026
Al       6.38533219       4.09898069      10.05333604       0.60000000       0.00062625       0.00413879       0.00351223      -3.57216594
Al       7.26797574       5.06356047       7.65731392       0.60000000      -0.00066341       0.00331051      -0.00468166      -3.73726582
Ni       3.96390311       8.29637568      -0.58106977       0.60000000       0.00098878      -0.00012245      -0.00168640      -6.02483332
Al       3.84914662       8.13793945       1.76543236       0.60000000      -0.00398649      -0.00654179      -0.00859862      -4.09374980
Al       6.49317219       7.58776643       2.74404864       0.60000000       0.00521755       0.00557227      -0.00556306      -3.67900858
Al       5.27991146      10.22512062       0.41030293       0.60000000      -0.00267131       0.00020420      -0.00583286      -4.04335998
Ni       3.71289156       8.26929552       4.12112812       0.60000000       0.00354868      -0.00205956      -0.00175250      -6.06816978
Al       3.60870018      10.21108391       5.59549749       0.60000000       0.00510261       0.00071128       0.00689329      -3.83130961
Al       5.91953538       8.62057834       5.66046690       0.60000000      -0.00325668      -0.00395752      -0.00379096      -3.75861525
Al       5.24405464      10.04125299       3.38197384       0.60000000      -0.00522591      -0.00055033       0.00645626      -4.12064697
Al       4.23733513       8.39364934       7.79981300       0.60000000      -0.00543353      -0.00105493       0.00708857      -3.65687978
Al       4.08443358      10.36615316       9.60719855       0.60000000       0.00059579      -0.00553403       0.00208602      -3.76013302
Al       6.38376750       8.56698768       9.66011859       0.60000000       0.00147951      -0.00187170       0.00191991      -3.81120071
Al       5.73220894      10.72016771       7.48731735       0.60000000      -0.00029279       0.00014916       0.00339230      -3.82671746
Al       7.70955258      -0.50182344       0.17865561       0.60000000      -0.00086136       0.00036711      -0.00321217      -3.87695787
Al       7.86891483       1.67428171       2.26636461       0.60000000      -0.01136879      -0.00126629       0.00062641      -4.03413534
Al       9.91744431      -0.40035045       2.08046713       0.60000000      -0.00025074      -0.00539257      -0.00517543      -3.94729568
Al      10.26873994       2.16307890       0.95444291       0.60000000      -0.00324420       0.00459426       0.00233194      -3.83442897
Al       7.74028178      -0.26947387       4.21446376       0.60000000      -0.00187010       0.00026309       0.00622594      -4.09882610
Al       9.08244189       1.37555385       5.90236872       0.60000000       0.00227843      -0.00825587       0.00442610      -4.11988979
Al      11.44888222       0.50694203       5.19268460       0.60000000      -0.01043825      -0.00273088      -0.00130705      -3.76787219
Ni      10.01192162       1.58984024       3.39233792       0.60000000       0.00035775       0.00083515      -0.00597827      -5.93044046
Al      10.25142630      -0.31603223       7.70876953       0.60000000      -0.01034389       0.00282566      -0.00373369      -3.80649821
Al       8.36830798       2.20522888      10.86317856       0.60000000       0.00104010       0.00182992       0.00218922      -3.66080635
Al      10.30854845       0.26774443      10.46098032       0.60000000       0.00076626      -0.00124688       0.00325229      -3.68548675
Al      10.20711859       2.47305216       8.58184363       0.60000000       0.00269714       0.00328079       0.01214156      -3.96336143
Al       7.62759181       4.61831608       0.69918939       0.60000000      -0.00830375      -0.00366264       0.00112476      -3.65908360
Al       8.71090750       5.91981700       2.98049518       0.60000000       0.00285783      -0.00789981       0.00286470      -3.73901452
Al      11.30876938       3.66078967       3.05333775       0.60000000       0.00541093       0.00388939      -0.00135760      -4.29494852
Al      10.76490848       6.09520243       1.10855582       0.60000000      -0.00582371       0.00465189      -0.00646501      -3.82717317
Al       8.87112561       3.52850119       4.28709934       0.60000000      -0.00022488       0.00521042       0.00366362      -3.92812250
Al       9.31595039       5.79996292       5.71263132       0.60000000       0.00239083       0.00643326       0.00463529      -3.89362647
Al      11.29837826       3.33298690       6.07376999       0.60000000       0.01034145       0.00304747      -0.00172088      -4.21495858
Al      11.46151871       6.35963938       4.02624116       0.60000000       0.00427043      -0.00621237       0.00082222      -4.25697750
Ni       8.98113995       3.61442406       6.78373546       0.60000000       0.00124769      -0.00470459      -0.00377276      -5.98126792
Al       8.08580229       6.23386901       9.95041072       0.60000000       0.00422123      -0.01210647      -0.00432210      -3.50803235
Al      10.33686906       4.26719338      10.74156969       0.60000000       0.00073009       0.00044047      -0.00352011      -3.66807803
Al      10.18889637       5.32097264       8.25561981       0.60000000       0.00215084       0.00465822       0.00625250      -3.84147182
Al       8.29551212       7.51259186       0.66889099       0.60000000       0.00258479       0.00593499      -0.00418595      -3.65033071
Al       7.83470905       9.89759707       2.28848876       0.60000000      -0.00352173      -0.00019618       0.00232789      -3.88670095
Al      10.16329739       8.37798097       2.50617244       0.60000000       0.00203837       0.00041420      -0.00000159      -3.93804175
Al       9.63749868      10.00701845       0.17134062       0.60000000      -0.00199439       0.00292762       0.00374593      -3.67090469
Al       8.31773118       8.20277973       4.61266575       0.60000000      -0.00406908       0.00362747      -0.00331860      -3.69502137
Al       8.21397239      10.46376768       6.44887074       0.60000000       0.00121270      -0.00081550      -0.00566855      -3.97974525
Al      10.70133115       8.03720275       6.09659730       0.60000000      -0.00506600      -0.00129792       0.00151029      -4.09570242
Al      10.00793176      10.34619356       4.35474708       0.60000000       0.00857761       0.00318210      -0.00045251      -3.80955331
Al       8.25135410       7.87159362       7.57381068       0.60000000       0.00405298      -0.01066889      -0.00288680      -3.81070186
Al       8.42466878      10.35874140       9.40421368       0.60000000       0.00272860       0.00014532       0.00400747      -3.80841076
Al      10.10877722       8.01287460       9.78574977       0.60000000       0.00461945       0.00054748      -0.00524378      -3.87041835
Ni      10.17840229       9.55630044       7.89000836       0.60000000       0.00431320      -0.01013504       0.00156532      -6.01146574
