32
Lattice="7.245150121446715 -1.2132501823601668e-18 2.237297765130985e-18 -1.598666664447908e-17 7.041639517070408 -0.03025315006444174 4.1635279571346665e-16 -0.031054307580088255 7.259349705792947" Properties=species:S:1:pos:R:3:initial_magmoms:R:1:forces:R:3:energies:R:1 energy=-177.5131897923043 stress="0.0001818318195585708 2.9327171330982104e-17 -1.0013322659599276e-16 2.9327171330982104e-17 0.00041396755048108774 -0.0003260209916248626 -1.0013322659599276e-16 -0.0003260209916248626 0.0003204991462244677" free_energy=-177.5131897923043 pbc="T T T"
Ni      -0.00000000       0.00833801      -0.02440880       0.60000000      -0.00000000      -0.00142235       0.00781017      -5.70565629
Ni      -0.00000000       1.73938344       1.74645558       0.60000000      -0.00000000       0.00137392      -0.01081656      -5.85963910
Al       1.81976243       0.16281770       1.66987876       0.60000000      -0.00768638       0.00611049      -0.00971072      -4.92878325
Ni       1.76323983       1.78480286      -0.08035949       0.60000000      -0.00634813      -0.00361265       0.00127765      -5.67370195
Al      -0.00000000       0.22361427       3.71545121       0.60000000      -0.00000000       0.00890191       0.00685095      -4.87521066
Ni      -0.00000000       1.78126402       5.49305504       0.60000000      -0.00000000      -0.00352688      -0.01223213      -5.75121195
Ni       1.77032481      -0.07134435       5.40995095       0.60000000       0.00094334       0.00008933      -0.00009566      -5.93178331
Ni       1.88657576       1.71769016       3.63299698       0.60000000      -0.00594333       0.00306006       0.00675919      -5.81325537
Ni      -0.00000000       3.53002529       0.05246012       0.60000000      -0.00000000       0.00178178       0.00349121      -5.64178849
Ni      -0.00000000       5.36052435       1.91716080       0.60000000      -0.00000000       0.00812386      -0.00155917      -6.09157568
Ni       1.80401077       3.51474381       1.82334402       0.60000000       0.00479949      -0.00248206      -0.00654546      -5.88441893
Ni       1.85628962       5.24596468       0.04139547       0.60000000       0.00154241      -0.00213496      -0.00071717      -5.92536510
Al      -0.00000000       3.25385103       3.57107205       0.60000000      -0.00000000      -0.00314296       0.00042414      -4.90808307
Al      -0.00000000       5.20815852       5.68891542       0.60000000      -0.00000000      -0.00275371       0.00287338      -4.81059317
Ni       1.80274048       3.52559053       5.38858011       0.60000000      -0.00475911       0.00283826      -0.00038724      -5.96861986
Al       1.80129846       5.23043053       3.60611471       0.60000000       0.00343795      -0.00452854       0.00188159      -4.79878363
Ni       3.62257506       0.06985005       0.00582014       0.60000000      -0.00000000      -0.00226841      -0.00268781      -5.87033380
Ni       3.62257506       1.81036885       1.86633190       0.60000000      -0.00000000      -0.00542367       0.00559733      -5.71964119
Al       5.42538769       0.16281770       1.66987876       0.60000000       0.00768638       0.00611049      -0.00971072      -4.92878325
Ni       5.48191029       1.78480286      -0.08035949       0.60000000       0.00634813      -0.00361265       0.00127765      -5.67370195
Ni       3.62257506      -0.14190392       3.55426277       0.60000000      -0.00000000      -0.00137266      -0.00016635      -6.09719644
Ni       3.62257506       1.67721057       5.37177418       0.60000000      -0.00000000       0.00509934       0.00559412      -5.59735435
Ni       5.47482531      -0.07134435       5.40995095       0.60000000      -0.00094334       0.00008933      -0.00009566      -5.93178331
Ni       5.35857436       1.71769016       3.63299698       0.60000000       0.00594333       0.00306006       0.00675919      -5.81325537
Al       3.62257506       3.26548788      -0.07069329       0.60000000      -0.00000000      -0.00394242       0.01059916      -4.95940978
Al       3.62257506       5.18453254       1.68066461       0.60000000      -0.00000000      -0.00118678      -0.01050431      -4.86219078
Ni       5.44113935       3.51474381       1.82334402       0.60000000      -0.00479949      -0.00248206      -0.00654546      -5.88441893
Ni       5.38886050       5.24596468       0.04139547       0.60000000      -0.00154241      -0.00213496      -0.00071717      -5.92536510
Ni       3.62257506       3.59990685       3.64538778       0.60000000      -0.00000000      -0.00119632      -0.00328779      -5.93768998
Al       3.62257506       5.33501893       5.55164612       0.60000000      -0.00000000       0.00227551       0.01308935      -4.97619225
Ni       5.44240965       3.52559053       5.38858011       0.60000000       0.00475911       0.00283826      -0.00038724      -5.96861986
Al       5.44385166       5.23043053       3.60611471       0.60000000      -0.00343795      -0.00452854       0.00188159      -4.79878363
