32
Lattice="7.259575749236889 -0.04273870544548476 -0.010714513064713087 -0.04266346081451236 7.205582952508291 -0.0141667710531076 -0.010682046292423792 -0.014168492146904268 7.210630484718243" Properties=species:S:1:pos:R:3:initial_magmoms:R:1:forces:R:3:energies:R:1 energy=-176.09144806065382 stress="-0.0006985505545090572 -0.0004859397283146514 -0.00018376266545393422 -0.0004859397283146514 0.0013441842904169657 -0.00021188360527910847 -0.00018376266545393422 -0.00021188360527910847 0.0011369410501439743" free_energy=-176.09144806065382 pbc="T T T"
Al      -0.00696623      -0.14812732       0.15305862       0.60000000       0.00873959      -0.01298501       0.00490579      -4.90139435
Ni       0.00002930       1.77137670       1.83124245       0.60000000       0.00004294      -0.00292895       0.00532079      -5.93356621
Ni       1.81817195      -0.03352329       1.87584342       0.60000000      -0.00671707       0.01325842       0.00859895      -5.89486897
Ni       1.73356926       1.69395785      -0.05102134       0.60000000      -0.00192543      -0.00451698       0.00079958      -5.96278535
Al      -0.06615717      -0.02271312       3.48453198       0.60000000       0.01509451      -0.00521228      -0.00742837      -4.67400365
Al      -0.00043510       1.98520567       5.44180942       0.60000000       0.00632331       0.01548963      -0.00332983      -4.69913458
Al       1.90151603      -0.07814364       5.46033227       0.60000000       0.00530221      -0.00815271      -0.00408721      -4.71073749
Al       1.97178864       1.83629140       3.55748793       0.60000000       0.00779679       0.00873594       0.00170373      -4.78474234
Ni      -0.07242852       3.64610992      -0.04277739       0.60000000      -0.00136828      -0.00316044      -0.00253215      -5.69703867
Ni      -0.05281666       5.36901460       1.87530605       0.60000000       0.00709541       0.00705061      -0.00717525      -5.83457451
Al       1.66341325       3.57584467       1.61017935       0.60000000       0.00365459      -0.00533746      -0.01485013      -4.92954237
Ni       1.75963311       5.41747925      -0.03459821       0.60000000      -0.01054278       0.00233214      -0.00096520      -5.95501673
Ni       0.02805878       3.53658040       3.58544364       0.60000000      -0.00154946      -0.00784713       0.00544904      -5.99680589
Ni      -0.00200901       5.45610339       5.30194316       0.60000000       0.00249448       0.00495752      -0.00229325      -5.96033432
Ni       1.80316429       3.58295304       5.41082661       0.60000000      -0.00612588      -0.00503501      -0.00538373      -5.76324355
Al       1.85603881       5.28862910       3.58976752       0.60000000       0.00042012       0.00236243       0.00807978      -4.85911018
Al       3.67801494      -0.13627396       0.13874181       0.60000000      -0.00857028       0.00737688       0.00910573      -4.92714490
Ni       3.56767413       1.84825369       1.68011750       0.60000000       0.00553557       0.00346339      -0.00784196      -5.92562444
Ni       5.40595011      -0.06103012       1.83267205       0.60000000      -0.00908053       0.00621453      -0.00059238      -5.99947194
Al       5.46549482       1.83541031       0.11938664       0.60000000       0.00163289      -0.00041440       0.01430834      -4.81947466
Ni       3.60803520      -0.02207564       3.61405063       0.60000000      -0.00078039      -0.00197975       0.00038802      -5.94868900
Ni       3.62771344       1.70984269       5.51870330       0.60000000      -0.00241677      -0.00642856      -0.00926496      -5.92249353
Ni       5.55820870       0.08162627       5.39695238       0.60000000      -0.00126841       0.00111776      -0.00742715      -6.09399295
Al       5.26714886       1.86035757       3.50396833       0.60000000      -0.01157658       0.00729329      -0.00035393      -4.93677069
Al       3.62004007       3.70748333      -0.13610733       0.60000000      -0.00649494       0.00641876       0.00994555      -4.97788977
Ni       3.55524421       5.29288603       1.79574004       0.60000000       0.00401894       0.00784589       0.00452991      -5.81229368
Ni       5.41625726       3.60284777       1.75752249       0.60000000       0.00410423      -0.00820259       0.00207527      -5.83439352
Ni       5.44787515       5.38323748      -0.04649224       0.60000000       0.00421312      -0.00254158       0.00788780      -5.76352401
Ni       3.56232668       3.57100626       3.60491629       0.60000000       0.01066517      -0.00922004       0.00220405      -5.94698825
Ni       3.62124157       5.44812560       5.38804728       0.60000000      -0.01399279       0.00771243      -0.00325743      -5.78853889
Ni       5.41356598       3.52359780       5.40108448       0.60000000       0.00225883      -0.00854682      -0.01028616      -5.87663334
Al       5.32540103       5.26177535       3.61031128       0.60000000      -0.00698311      -0.00911989       0.00176674      -4.96062532
