32
Lattice="7.041664310007624 -2.2612315961974058e-18 -3.515726162875936e-20 -1.601681027441389e-16 7.8485369339799025 -1.201397005708671e-13 -6.864274742412372e-18 -2.2097113885785127e-13 7.0416643100098275" Properties=species:S:1:pos:R:3:initial_magmoms:R:1:forces:R:3:energies:R:1 energy=-170.82204708975829 stress="-0.0002862127811351347 2.378010720811369e-17 4.4213752550827976e-18 2.378010720811369e-17 0.0002672259518436955 -9.462822572629431e-15 4.4213752550827976e-18 -9.462822572629431e-15 -0.0002862127810464459" free_energy=-170.82204708975829 pbc="T T T"
Ni      -0.00000000      -0.00000000      -0.00000000       0.60000000       0.00000000       0.00000000       0.00000000      -6.14062988
Ni      -0.00000000       1.96213423       1.76041608       0.60000000       0.00000000      -0.00000000      -0.00000000      -6.04299156
Al       1.76041608      -0.00000000       1.76041608       0.60000000      -0.00000000       0.00000000      -0.00000000      -4.47467728
Al       1.76041608       1.96213423      -0.00000000       0.60000000      -0.00000000      -0.00000000       0.00000000      -4.69445716
Ni      -0.00000000      -0.00000000       3.52083216       0.60000000       0.00000000       0.00000000      -0.00000000      -6.14062988
Ni      -0.00000000       1.96213423       5.28124823       0.60000000       0.00000000      -0.00000000      -0.00000000      -6.04299156
Al       1.76041608      -0.00000000       5.28124823       0.60000000      -0.00000000       0.00000000      -0.00000000      -4.47467728
Al       1.76041608       1.96213423       3.52083216       0.60000000      -0.00000000      -0.00000000      -0.00000000      -4.69445716
Al      -0.00000000       3.92426847      -0.00000000       0.60000000       0.00000000      -0.00000000       0.00000000      -4.47467728
Ni      -0.00000000       5.88640270       1.76041608       0.60000000       0.00000000       0.00000000       0.00000000      -6.04299156
Ni       1.76041608       3.92426847       1.76041608       0.60000000       0.00000000      -0.00000000      -0.00000000      -6.14062988
Al       1.76041608       5.88640270      -0.00000000       0.60000000      -0.00000000       0.00000000       0.00000000      -4.69445716
Al      -0.00000000       3.92426847       3.52083216       0.60000000       0.00000000      -0.00000000      -0.00000000      -4.47467728
Ni      -0.00000000       5.88640270       5.28124823       0.60000000       0.00000000       0.00000000       0.00000000      -6.04299156
Ni       1.76041608       3.92426847       5.28124823       0.60000000       0.00000000      -0.00000000       0.00000000      -6.14062988
Al       1.76041608       5.88640270       3.52083216       0.60000000      -0.00000000       0.00000000      -0.00000000      -4.69445716
Ni       3.52083216      -0.00000000      -0.00000000       0.60000000      -0.00000000       0.00000000       0.00000000      -6.14062988
Ni       3.52083216       1.96213423       1.76041608       0.60000000      -0.00000000      -0.00000000      -0.00000000      -6.04299156
Al       5.28124823      -0.00000000       1.76041608       0.60000000       0.00000000       0.00000000      -0.00000000      -4.47467728
Al       5.28124823       1.96213423      -0.00000000       0.60000000       0.00000000      -0.00000000       0.00000000      -4.69445716
Ni       3.52083216      -0.00000000       3.52083216       0.60000000      -0.00000000       0.00000000      -0.00000000      -6.14062988
Ni       3.52083216       1.96213423       5.28124823       0.60000000      -0.00000000      -0.00000000      -0.00000000      -6.04299156
Al       5.28124823      -0.00000000       5.28124823       0.60000000       0.00000000       0.00000000       0.00000000      -4.47467728
Al       5.28124823       1.96213423       3.52083216       0.60000000       0.00000000      -0.00000000      -0.00000000      -4.69445716
Al       3.52083216       3.92426847      -0.00000000       0.60000000      -0.00000000      -0.00000000       0.00000000      -4.47467728
Ni       3.52083216       5.88640270       1.76041608       0.60000000      -0.00000000       0.00000000      -0.00000000      -6.04299156
Ni       5.28124823       3.92426847       1.76041608       0.60000000       0.00000000      -0.00000000      -0.00000000      -6.14062988
Al       5.28124823       5.88640270      -0.00000000       0.60000000       0.00000000       0.00000000       0.00000000      -4.69445716
Al       3.52083216       3.92426847       3.52083216       0.60000000      -0.00000000      -0.00000000      -0.00000000      -4.47467728
Ni       3.52083216       5.88640270       5.28124823       0.60000000      -0.00000000       0.00000000       0.00000000      -6.04299156
Ni       5.28124823       3.92426847       5.28124823       0.60000000       0.00000000      -0.00000000       0.00000000      -6.14062988
Al       5.28124823       5.88640270       3.52083216       0.60000000       0.00000000       0.00000000      -0.00000000      -4.69445716
