32
Lattice="7.35382262497802 0.08014077041027154 -0.006007113809440288 0.08089891663024928 7.512457335547406 -0.017529328697130957 -0.005972227454735811 -0.017164211800938637 7.247410261052952" Properties=species:S:1:pos:R:3:initial_magmoms:R:1:forces:R:3:energies:R:1 energy=-167.29825323070352 stress="-0.00041180695870430894 0.0002385376175090933 -6.917501656877161e-05 0.0002385376175090933 1.881058455386522e-05 -5.48553166607495e-05 -6.917501656877161e-05 -5.48553166607495e-05 0.0001804757163383011" free_energy=-167.29825323070352 pbc="T T T"
Ni      -0.13097815      -0.04183764       0.11202429       0.60000000       0.00931142       0.00713644      -0.00042125      -5.78750214
Al       0.17137330       1.86616334       1.49973143       0.60000000      -0.00562724       0.00313112       0.00051422      -4.65111555
Ni       1.82704297       0.02015531       1.81387255       0.60000000       0.01409607      -0.00357931      -0.00658817      -5.81901024
Ni       1.90247446       1.94908389      -0.11612169       0.60000000       0.00273692       0.00520122      -0.00002437      -5.80116163
Al       0.12417560      -0.12321889       3.53489516       0.60000000       0.00609876      -0.01295522       0.01246341      -4.38745428
Ni       0.10233135       1.83469976       5.32993972       0.60000000      -0.00483209      -0.00461385       0.00340688      -5.90775685
Al       1.61594922      -0.05318676       5.77926236       0.60000000       0.00332533      -0.00126391      -0.01874672      -4.68819639
Al       1.84738201       1.79235041       3.65704479       0.60000000       0.00963798       0.00688493       0.01173701      -4.32935662
Ni       0.04466702       3.77957941      -0.03364024       0.60000000      -0.00015506      -0.00414198       0.01356471      -5.77147021
Ni      -0.06265486       5.59529822       1.87762642       0.60000000      -0.00220321      -0.00622142       0.00167885      -6.03649406
Ni       1.82911007       3.69142104       1.88036500       0.60000000      -0.00554807      -0.00052271       0.00071606      -6.03332856
Ni       1.83260879       5.64193610       0.06131870       0.60000000       0.00211720       0.00539483      -0.00220197      -5.63974207
Al       0.26153928       3.90195824       3.67303914       0.60000000      -0.00476474       0.00105631      -0.00971621      -4.55480865
Ni      -0.02974378       5.64302989       5.35628020       0.60000000       0.00113319       0.00909742      -0.00934429      -6.09022356
Ni       1.99005958       3.73978490       5.36904462       0.60000000       0.00213785      -0.01177115      -0.00685565      -6.02426661
Ni       1.99987542       5.73123086       3.59628176       0.60000000       0.00139287      -0.00614560      -0.01053603      -5.80560516
Ni       3.76670816      -0.02165131      -0.10547914       0.60000000       0.00390231       0.00174755       0.00267677      -6.04578411
Al       3.52144504       1.73932753       1.68094109       0.60000000      -0.00068938       0.00050498       0.00373499      -4.62272610
Al       5.44059074       0.09124469       1.78484660       0.60000000       0.00278371      -0.00380244       0.01227424      -4.66575378
Ni       5.43798881       1.98425801       0.07616666       0.60000000      -0.00802452      -0.00305848      -0.00178323      -6.16693493
Ni       3.71486611       0.08284730       3.72857767       0.60000000       0.00145723      -0.00401835       0.00862431      -6.03048468
Al       3.68684931       1.87595745       5.51391548       0.60000000      -0.00799097       0.01568048      -0.00243453      -4.56940791
Al       5.66991488       0.24834352       5.46654565       0.60000000       0.00957725       0.00111479      -0.00950561      -4.66680302
Ni       5.52655095       2.01098271       3.49836557       0.60000000      -0.01297259       0.00810494      -0.00040142      -6.17848770
Al       3.44542346       3.87150416       0.10516392       0.60000000       0.00972015       0.00523700      -0.00394320      -4.49242006
Ni       3.86632479       5.64086129       1.77245602       0.60000000      -0.00042798       0.00966730       0.00067173      -6.02101975
Al       5.64622378       3.78974445       1.73480726       0.60000000      -0.00108665      -0.00739913      -0.00150480      -4.50246751
Al       5.73986256       5.71408364      -0.04782963       0.60000000      -0.01578230      -0.00342550      -0.00543553      -4.48147247
Al       3.60217881       3.83701261       3.50353625       0.60000000      -0.01238028      -0.00547449      -0.00151513      -4.37354499
Al       3.51919180       5.71222095       5.46384993       0.60000000      -0.00547434      -0.00297662       0.00211160      -4.48534478
Al       5.73287120       3.62616681       5.47306818       0.60000000      -0.00044707       0.00243862       0.01198537      -4.43876323
Al       5.50278907       5.73385486       3.64659013       0.60000000       0.00897826      -0.00102780       0.00479795      -4.22934564
