32
Lattice="7.235403526621279 0.38139776775000334 -1.842771669229072e-14 0.3813977677503908 7.235403526621176 5.887126327423741e-14 -2.0854611987759123e-14 -6.930233752589716e-14 8.417975568129235" Properties=species:S:1:pos:R:3:initial_magmoms:R:1:forces:R:3:energies:R:1 energy=-151.6373726391704 stress="-0.00022502921721955348 0.00023719702509292885 -1.324347765239951e-14 0.00023719702509292885 -0.00022502921720547059 -1.0135514308736297e-14 -1.324347765239951e-14 -1.0135514308736297e-14 0.0004351415636999532" free_energy=-151.6373726391704 pbc="T T T"
Al      -0.20060496      -0.35273384      -0.10728288       0.60000000      -0.00868953       0.00645999      -0.00928540      -4.18264800
Al       0.37942772       2.35063337       2.10449389       0.60000000       0.01090027      -0.00495549       0.00000000      -4.14532299
Al       1.28889133      -0.21218461       2.10449389       0.60000000       0.00515811       0.00884235       0.00000000      -4.24337503
Ni       1.51742934       1.50396912      -0.00676110       0.60000000      -0.00314135      -0.00178421       0.00183312      -6.20793483
Al      -0.20060496      -0.35273384       4.31627066       0.60000000      -0.00868953       0.00645999       0.00928540      -4.18264800
Al      -0.19058799       1.38651373       6.31348168       0.60000000       0.00997685      -0.01650925       0.00000000      -3.93272088
Al       2.08344075       0.18347587       6.31348168       0.60000000       0.00355323      -0.00555238       0.00000000      -4.25919821
Ni       1.51742934       1.50396912       4.21574888       0.60000000      -0.00314135      -0.00178421      -0.00183312      -6.20793483
Al       0.60951821       4.03652109       0.00000000       0.60000000       0.00531384       0.00531384      -0.00000000      -4.44432474
Al      -0.48337320       5.35473828       2.10449389       0.60000000      -0.00948630       0.00830745       0.00000000      -3.94746220
Ni       1.91351596       4.41687457       2.10449389       0.60000000      -0.00014808      -0.00013045       0.00000000      -6.16543455
Ni       2.54735169       5.97435457      -0.00000000       0.60000000      -0.00205909      -0.00205909      -0.00000000      -5.97377148
Al       0.60951821       4.03652109       4.20898778       0.60000000       0.00531384       0.00531384      -0.00000000      -4.44432474
Ni       0.98987169       5.34051884       6.31348168       0.60000000      -0.00013045      -0.00014808       0.00000000      -6.16543455
Al       1.92773540       2.94362968       6.31348168       0.60000000       0.00830745      -0.00948630       0.00000000      -3.94746220
Ni       2.54735169       5.97435457       4.20898778       0.60000000      -0.00205909      -0.00205909      -0.00000000      -5.97377148
Al       3.92625960       0.49925672      -0.00000000       0.60000000      -0.00827217      -0.00827217      -0.00000000      -4.10607414
Al       2.93124826       1.94715437       2.10449389       0.60000000      -0.00193430      -0.00277701       0.00000000      -3.83838177
Al       5.55315795       1.02036513       2.10449389       0.60000000       0.00635083       0.01048086       0.00000000      -3.80101023
Ni       5.95437027       2.52736739       0.00000000       0.60000000       0.00113418       0.00113418      -0.00000000      -6.18044444
Al       3.92625960       0.49925672       4.20898778       0.60000000      -0.00827217      -0.00827217      -0.00000000      -4.10607414
Al       4.44736801       2.12615507       6.31348168       0.60000000       0.01048086       0.00635083       0.00000000      -3.80101023
Al       5.37415725      -0.49575462       6.31348168       0.60000000      -0.00277701      -0.00193430       0.00000000      -3.83838177
Ni       5.95437027       2.52736739       4.20898778       0.60000000       0.00113418       0.00113418       0.00000000      -6.18044444
Al       3.45566681       3.60779569       0.10728288       0.60000000       0.00645999      -0.00868953       0.00928540      -4.18264800
Al       3.99187652       5.89184140       2.10449389       0.60000000      -0.00555238       0.00355323       0.00000000      -4.25919821
Al       5.19491438       3.61781266       2.10449389       0.60000000      -0.01650925       0.00997685       0.00000000      -3.93272088
Ni       5.31236977       5.32582999       0.00676110       0.60000000      -0.00178421      -0.00314135      -0.00183312      -6.20793483
Al       3.45566681       3.60779569       4.10170491       0.60000000       0.00645999      -0.00868953      -0.00928540      -4.18264800
Al       3.59621603       5.09729198       6.31348168       0.60000000       0.00884235       0.00515811       0.00000000      -4.24337503
Al       6.15903402       4.18782837       6.31348168       0.60000000      -0.00495549       0.01090027       0.00000000      -4.14532299
Ni       5.31236977       5.32582999       4.20222669       0.60000000      -0.00178421      -0.00314135       0.00183312      -6.20793483
