32
Lattice="-0.021704556395663946 3.7687988781514044 3.9445147620946797 7.56811576697623 -0.010852280864422591 7.856065693040571 7.559255390658686 7.496383006304099 -0.0027580680917793426" Properties=species:S:1:pos:R:3:initial_magmoms:R:1:forces:R:3:energies:R:1 energy=-150.72118779209353 stress="-0.00023237400099721824 4.802609770390149e-05 0.0004939303319977831 4.802609770390149e-05 -0.00048628678163292847 -0.0001959997948916572 0.0004939303319977831 -0.0001959997948916572 -0.0001690257608021037" free_energy=-150.72118779209353 pbc="T T T"
Al      -0.00265743       0.11982678      -0.03640913       0.60000000       0.00172544      -0.00968751      -0.00243965      -3.77545465
Al       1.91227798       1.92563971      -0.02240747       0.60000000      -0.00098761       0.00854894       0.01041753      -3.91441285
Al       3.78333312       3.70031292      -0.00464182       0.60000000       0.00712415       0.00380759       0.00326738      -3.90130401
Al       5.63001244       5.51111980       0.21661797       0.60000000       0.00231750      -0.01279775      -0.00980167      -4.20724535
Al       1.79097256       0.02655297       1.92161880       0.60000000       0.00668354      -0.00061710       0.01219316      -3.78217246
Al       3.89896406       1.78193365       1.97798944       0.60000000      -0.00688037       0.00110916       0.00085556      -4.01961202
Ni       5.44053093       3.63247325       1.85176456       0.60000000       0.00711424       0.00307964       0.00057991      -5.84553220
Al       7.64981826       4.43506922       1.93210139       0.60000000      -0.00676530       0.00806406      -0.00560703      -4.23579038
Al       3.97117608       0.10305589       3.94420636       0.60000000      -0.00230991      -0.00463499       0.00088584      -4.03341140
Ni       5.55269801       1.94199859       3.94115903       0.60000000       0.00566775       0.00323199       0.00155522      -5.95035966
Ni       7.54072697       3.66110771       4.15109381       0.60000000      -0.00346334       0.00020128       0.00519762      -5.78717242
Al       8.90294698       5.79449314       4.06616586       0.60000000       0.00311050       0.00075272       0.00288765      -4.29299195
Al       5.67412533       0.33641597       6.03233546       0.60000000      -0.00141176       0.00522783      -0.00282337      -4.20968967
Ni       7.69258530       1.78954062       6.00842726       0.60000000       0.00027924      -0.00116592       0.00198258      -6.09424767
Al       9.36659730       3.71015830       5.81479569       0.60000000       0.00092280       0.00363047      -0.01447340      -4.25306285
Al      11.43093217       5.62958368       5.70849511       0.60000000      -0.00326373      -0.00108863      -0.00137367      -4.24567590
Al      -0.14081731       2.01859252       1.91962715       0.60000000      -0.00365844      -0.00492641      -0.00045949      -4.04142119
Al       1.92296351       3.91062514       1.89186245       0.60000000       0.00425395       0.00155238      -0.00641715      -4.00051781
Ni       3.81179474       5.67742968       2.10939485       0.60000000       0.00309838       0.00906722       0.00714270      -6.11841702
Al       5.58483669       7.49316970       1.86859576       0.60000000       0.00813057      -0.00135689       0.00928100      -4.18815738
Al       1.74877109       1.79127291       4.02689070       0.60000000       0.00286708      -0.00361440      -0.00210614      -4.02250860
Al       3.92943926       3.80147247       3.82508659       0.60000000       0.00712409      -0.00580696       0.00181144      -4.19524607
Al       6.05008364       5.68155807       3.91372819       0.60000000      -0.01243900      -0.00190293      -0.00658551      -4.43863724
Ni       7.42308500       7.73203709       3.53231315       0.60000000      -0.01512922       0.00428151      -0.00868185      -5.98317747
Al       3.60184804       1.87185426       6.19674748       0.60000000      -0.00051219      -0.00460889      -0.00351456      -4.08717386
Al       5.88181075       3.48680263       5.86708966       0.60000000      -0.00987517       0.00372863       0.00134015      -4.44723237
Ni       7.43710401       5.60671345       6.06784859       0.60000000       0.00506314      -0.00252464       0.01318393      -5.93194845
Ni       9.85542129       7.42494534       5.72860232       0.60000000       0.00367858      -0.00253873      -0.01299998      -5.90886356
Ni       5.69404754       1.99921243       7.95851416       0.60000000      -0.00604153       0.00022346       0.00369952      -6.20884599
Al       7.39112389       4.04492423       7.93479781       0.60000000       0.00502656      -0.00097840       0.00110332      -4.36536538
Al       9.43780478       5.94051662       7.63328139       0.60000000      -0.00589615       0.00986941      -0.00178491      -4.36321694
Ni      11.49046045       7.39635097       7.81811702       0.60000000       0.00444621      -0.00812613       0.00168385      -5.87232305
