32
Lattice="6.515534743620129 0.3157606404090568 -0.049222103156218805 0.2913584001277499 8.290929563619153 -0.05869921076683523 -0.030281860136775647 -0.06258586792637358 8.331357943604207" Properties=species:S:1:pos:R:3:initial_magmoms:R:1:forces:R:3:energies:R:1 energy=-157.76352635458156 stress="-6.51332735240934e-05 -0.0003536405760838598 -0.0004380163585070204 -0.0003536405760838598 4.984031312415326e-05 0.00017460923054000115 -0.0004380163585070204 0.00017460923054000115 0.0002640476308990367" free_energy=-157.76352635458156 pbc="T T T"
Al      -0.16777534       0.07767047       0.10446849       0.60000000      -0.01274978      -0.00438476      -0.00694532      -4.38774467
Al       0.03377885       2.02196901       2.04886567       0.60000000      -0.00057534       0.00297130      -0.00515175      -4.21175068
Ni       1.58201767       0.13022098       1.83312668       0.60000000       0.00298215       0.00274232       0.00965725      -6.04140405
Al       2.21734065       2.04254306       0.32010186       0.60000000       0.00014180       0.00489751       0.00017007      -4.42045943
Al       0.10531522       0.00314651       4.07222615       0.60000000       0.00672561       0.00241643       0.00041227      -4.53704615
Al       0.77910117       2.14565167       6.17188161       0.60000000       0.00050978      -0.00206905       0.00510539      -4.09602731
Ni       1.01115705      -0.33091475       6.32960662       0.60000000      -0.00878107      -0.00088136      -0.00634083      -5.85021911
Al       2.29612198       1.79447032       3.56960760       0.60000000       0.00460392      -0.00042705       0.00017869      -4.31440979
Al       0.55100302       4.22205836       0.35300313       0.60000000      -0.00998812       0.00242064       0.00405185      -3.98978036
Al       0.84245015       6.18735704       2.29163449       0.60000000       0.00438004      -0.00220514      -0.00176769      -4.60067691
Ni       2.07860436       3.79926835       2.16357343       0.60000000       0.00761385      -0.00413696       0.00546135      -6.06200784
Al       2.29567916       6.93564837      -0.14472126       0.60000000      -0.00960934      -0.00342920      -0.00857139      -4.55267188
Al       0.37347926       3.93774739       3.97277047       0.60000000       0.00598373      -0.00377699      -0.00302034      -4.23360199
Al      -0.87929998       6.79077124       5.99421054       0.60000000       0.01175930       0.00763998      -0.00127447      -4.51727883
Al       1.69971555       4.58569168       6.39123226       0.60000000      -0.00129845      -0.00408858      -0.00304944      -4.07365909
Ni       0.99735201       6.05096979       4.73813841       0.60000000       0.00686760       0.00134491       0.00563269      -5.73602119
Ni       3.97672704       0.37374913      -0.00903044       0.60000000      -0.00247786      -0.00474593       0.00740806      -6.06552404
Ni       4.09248200       2.11589085       1.91087722       0.60000000       0.00153180      -0.00573410       0.00241658      -5.89670987
Al       4.26644463      -0.18121490       2.40557871       0.60000000       0.00040987       0.00616666      -0.00116888      -4.56861411
Al       4.83416260       2.71794008      -0.30368206       0.60000000      -0.00287172      -0.00316321       0.00672846      -4.35372546
Ni       2.48649403      -0.66629388       4.05958386       0.60000000      -0.01391200      -0.00116799      -0.00348122      -5.80666815
Al       3.12304606       0.62801373       6.00919662       0.60000000      -0.00561040      -0.00350869       0.00104370      -4.45142636
Ni       5.36471401       1.21324829       6.24866350       0.60000000       0.00187334      -0.00205715       0.00935004      -5.72873372
Al       4.83632599       2.44700255       4.25491301       0.60000000      -0.00420566       0.00308917      -0.00022182      -4.07645518
Ni       3.17861927       4.53036892      -0.05444947       0.60000000      -0.00399488       0.00572889      -0.00388480      -6.06808624
Ni       3.25711947       6.19797413       1.90201255       0.60000000       0.01491378      -0.00324949      -0.00364668      -5.75191153
Al       4.70136888       4.38304238       2.02139768       0.60000000       0.00199008       0.00157185      -0.00117713      -4.48863608
Al       4.91472799       6.26948309       0.06178383       0.60000000       0.00080322       0.00452391      -0.00121727      -4.27945799
Al       3.07552351       5.10528946       4.03496655       0.60000000      -0.00375414       0.00590937      -0.00478091      -4.54816556
Ni       3.33472439       6.35814106       6.12707414       0.60000000      -0.00155281       0.00394026       0.00501912      -5.97424870
Al       4.80610999       4.45858839       6.13959572       0.60000000       0.00654731      -0.00394682      -0.00305872      -4.08654452
Ni       5.25470476       6.18375928       3.66303199       0.60000000       0.00174437      -0.00239072      -0.00387686      -5.99385957
