32
Lattice="0.13383744054789706 3.999626855521915 4.130070140597217 7.925078944555351 0.38524499339827944 8.149675152788625 8.293212058548379 8.250794455466373 0.015383921841806314" Properties=species:S:1:pos:R:3:initial_magmoms:R:1:forces:R:3:energies:R:1 energy=-132.3737921173089 stress="0.0009127080299723948 0.00017265237739296575 0.00039871801900801895 0.00017265237739296575 -0.00019988727651838788 0.0004228144891856241 0.00039871801900801895 0.0004228144891856241 -0.00035540336818508963" free_energy=-132.3737921173089 pbc="T T T"
Al      -0.11731407      -0.03507198       0.06415660       0.60000000      -0.00044065      -0.00441697      -0.00682764      -3.86682309
Al       2.12143651       1.94768922       0.04136823       0.60000000       0.00170970      -0.00076602       0.00421585      -3.86689172
Al       4.27957843       4.05499656      -0.13335498       0.60000000       0.01285562      -0.00367828       0.00467504      -3.85122098
Al       6.14594121       6.09484889      -0.10192244       0.60000000       0.00397238      -0.00284534      -0.00109265      -3.88480964
Al       2.63420596       0.55601729       2.46339758       0.60000000      -0.00064650       0.00221311       0.00068023      -4.16651589
Al       4.45714989       2.62349319       2.04666578       0.60000000      -0.00036351       0.00941451       0.00358122      -3.93292180
Ni       6.33300015       4.05654876       1.41177494       0.60000000      -0.00525464       0.00078216       0.00851948      -6.09086992
Al       7.97923895       5.94816990       1.89639107       0.60000000       0.00537874       0.00587193       0.00092334      -3.95873552
Ni       3.98219155      -0.13022877       4.44735365       0.60000000      -0.00671712      -0.00460156       0.00956126      -5.80372562
Al       6.26982398       3.22568516       3.93909283       0.60000000      -0.00033879       0.00302586      -0.00245630      -3.93706097
Al       8.72399059       4.51244402       4.13442223       0.60000000      -0.00688670      -0.00991590       0.00498723      -3.64143898
Al      10.54979041       6.49024953       3.89517863       0.60000000       0.00896423       0.00712153       0.00875901      -3.79242119
Al       5.70787110       0.47123815       5.98911821       0.60000000      -0.00320171      -0.00657548       0.00734352      -3.88756707
Al       7.86016714       2.41057101       6.24267822       0.60000000      -0.00146894      -0.00627279       0.00100714      -3.69145888
Al      10.05971516       4.33993001       6.39157709       0.60000000      -0.00402459      -0.00043881      -0.00147456      -3.70270287
Al      12.00122483       6.44689317       6.23543646       0.60000000      -0.00065268       0.00487044      -0.01539324      -3.93619931
Al      -0.06756906       1.96468966       1.91368263       0.60000000      -0.00176666      -0.00002670      -0.00186487      -3.93672124
Al       2.01225023       3.76358535       2.37722619       0.60000000      -0.00053762      -0.00395264       0.00665095      -3.83699337
Al       4.45607812       5.56924164       2.27453060       0.60000000       0.00213101       0.00195431       0.00243837      -4.09363223
Al       6.19886794       8.01149176       1.99035173       0.60000000       0.00411287       0.00795622      -0.00733764      -3.68245580
Ni       1.22120595       1.90654111       3.96137127       0.60000000      -0.00024126       0.00795390      -0.00384545      -5.87321975
Ni       4.34431327       4.70826215       4.64426449       0.60000000      -0.00072906      -0.00005817      -0.00424926      -5.91432402
Al       6.42098370       5.99439921       4.26016352       0.60000000       0.01179836       0.00139062      -0.00501179      -4.07027561
Al       8.28416983       8.07136239       3.81142165       0.60000000      -0.00394413      -0.00335724       0.00438347      -4.07409691
Al       3.57033438       2.39918448       4.64638211       0.60000000      -0.00743865       0.00052257      -0.00286001      -4.17113036
Al       5.61309496       4.09604723       6.58290326       0.60000000       0.00112003      -0.00258628       0.01167726      -3.90984640
Al       8.44275373       6.59475450       6.21251925       0.60000000      -0.00339223       0.00481580      -0.00152078      -3.90727507
Al      10.46043559       8.69967827       5.91226391       0.60000000       0.00504993      -0.00332146      -0.01063535      -4.01312418
Al       5.68836215       2.05465129       8.24921282       0.60000000      -0.01112318      -0.00627260       0.00025996      -3.86484265
Al       7.94690255       4.48832677       8.22388309       0.60000000      -0.00359094       0.00093619      -0.00614509      -3.66224889
Al      10.13165194       6.13749049       8.55738009       0.60000000       0.00177545       0.00140611      -0.00642656      -3.69412489
Al      11.97834449       8.15630785       8.44037933       0.60000000       0.00389123      -0.00114905      -0.00252212      -3.65811727
