32
Lattice="7.7044360801792955 -4.382514991117772e-19 1.4760083388751538e-20 -3.732580054330415e-17 7.704436080179473 1.9038185652898946e-13 2.11923394089108e-17 1.5700591400409927e-13 7.704436080180263" Properties=species:S:1:pos:R:3:initial_magmoms:R:1:forces:R:3:energies:R:1 energy=-143.40739023571462 stress="-0.00034421281018463747 -6.740549755664243e-18 -5.507727254298579e-18 -6.740549755664243e-18 -0.0003442128101782209 1.145563216746069e-14 -5.507727254298579e-18 1.145563216746069e-14 -0.0003442128101494717" free_energy=-143.40739023571462 pbc="T T T"
Al      -0.00000000      -0.00000000      -0.00000000       0.60000000      -0.00000000      -0.00000000      -0.00000000      -3.86749361
Al      -0.00000000       1.92610902       1.92610902       0.60000000      -0.00000000      -0.00000000      -0.00000000      -3.86749361
Al       1.92610902       0.00000000       1.92610902       0.60000000      -0.00000000      -0.00000000      -0.00000000      -3.86749361
Ni       1.92610902       1.92610902       0.00000000       0.60000000      -0.00000000      -0.00000000      -0.00000000      -6.32344295
Al      -0.00000000       0.00000000       3.85221804       0.60000000      -0.00000000      -0.00000000       0.00000000      -3.86749361
Al      -0.00000000       1.92610902       5.77832706       0.60000000      -0.00000000      -0.00000000       0.00000000      -3.86749361
Al       1.92610902       0.00000000       5.77832706       0.60000000      -0.00000000      -0.00000000       0.00000000      -3.86749361
Ni       1.92610902       1.92610902       3.85221804       0.60000000      -0.00000000      -0.00000000       0.00000000      -6.32344295
Al      -0.00000000       3.85221804       0.00000000       0.60000000      -0.00000000      -0.00000000      -0.00000000      -3.86749361
Al      -0.00000000       5.77832706       1.92610902       0.60000000      -0.00000000       0.00000000      -0.00000000      -3.86749361
Al       1.92610902       3.85221804       1.92610902       0.60000000      -0.00000000      -0.00000000      -0.00000000      -3.86749361
Ni       1.92610902       5.77832706       0.00000000       0.60000000      -0.00000000       0.00000000      -0.00000000      -6.32344295
Al      -0.00000000       3.85221804       3.85221804       0.60000000      -0.00000000      -0.00000000       0.00000000      -3.86749361
Al      -0.00000000       5.77832706       5.77832706       0.60000000      -0.00000000       0.00000000       0.00000000      -3.86749361
Al       1.92610902       3.85221804       5.77832706       0.60000000      -0.00000000      -0.00000000       0.00000000      -3.86749361
Ni       1.92610902       5.77832706       3.85221804       0.60000000      -0.00000000       0.00000000       0.00000000      -6.32344295
Al       3.85221804      -0.00000000      -0.00000000       0.60000000      -0.00000000      -0.00000000      -0.00000000      -3.86749361
Al       3.85221804       1.92610902       1.92610902       0.60000000      -0.00000000      -0.00000000      -0.00000000      -3.86749361
Al       5.77832706       0.00000000       1.92610902       0.60000000       0.00000000      -0.00000000      -0.00000000      -3.86749361
Ni       5.77832706       1.92610902       0.00000000       0.60000000       0.00000000      -0.00000000      -0.00000000      -6.32344295
Al       3.85221804       0.00000000       3.85221804       0.60000000      -0.00000000      -0.00000000       0.00000000      -3.86749361
Al       3.85221804       1.92610902       5.77832706       0.60000000      -0.00000000      -0.00000000       0.00000000      -3.86749361
Al       5.77832706       0.00000000       5.77832706       0.60000000       0.00000000      -0.00000000       0.00000000      -3.86749361
Ni       5.77832706       1.92610902       3.85221804       0.60000000       0.00000000      -0.00000000       0.00000000      -6.32344295
Al       3.85221804       3.85221804       0.00000000       0.60000000      -0.00000000      -0.00000000      -0.00000000      -3.86749361
Al       3.85221804       5.77832706       1.92610902       0.60000000      -0.00000000       0.00000000      -0.00000000      -3.86749361
Al       5.77832706       3.85221804       1.92610902       0.60000000       0.00000000      -0.00000000      -0.00000000      -3.86749361
Ni       5.77832706       5.77832706       0.00000000       0.60000000       0.00000000       0.00000000      -0.00000000      -6.32344295
Al       3.85221804       3.85221804       3.85221804       0.60000000      -0.00000000      -0.00000000       0.00000000      -3.86749361
Al       3.85221804       5.77832706       5.77832706       0.60000000      -0.00000000       0.00000000       0.00000000      -3.86749361
Al       5.77832706       3.85221804       5.77832706       0.60000000       0.00000000      -0.00000000       0.00000000      -3.86749361
Ni       5.77832706       5.77832706       3.85221804       0.60000000       0.00000000       0.00000000       0.00000000      -6.32344295
