32
Lattice="7.357938523597715 -4.04886422044188e-19 1.9510856523970297e-18 -3.505185290012642e-16 7.731713281255248 1.472181991534075e-13 -1.0713022720784476e-15 4.811600462599795e-14 7.356511693190824" Properties=species:S:1:pos:R:3:initial_magmoms:R:1:forces:R:3:energies:R:1 energy=-158.087732193858 stress="6.881839912139314e-05 1.888382965445246e-17 -5.468086018071153e-17 1.888382965445246e-17 -0.00017218395824400795 6.236334060472456e-15 -5.468086018071153e-17 6.236334060472456e-15 -0.0004089435524788794" free_energy=-158.087732193858 pbc="T T T"
Ni      -0.00000000       0.00735524      -0.00000000       0.60000000      -0.00000000       0.00454555      -0.00000000      -5.96319910
Ni      -0.13746681       1.93752557       1.89791039       0.60000000      -0.00092436       0.00173642      -0.00112107      -6.21952910
Al       1.83948463      -0.00719637       1.69583160       0.60000000       0.00000000      -0.00800171      -0.00988045      -4.23125161
Al       1.83948463       1.92483102       0.11169164       0.60000000      -0.00000000      -0.00272218       0.01894297      -4.32341911
Al      -0.00000000      -0.01924479       3.67825585       0.60000000       0.00000000       0.00207935       0.00000000      -4.06780006
Ni       0.13746681       1.93752557       5.45860130       0.60000000       0.00092436       0.00173642       0.00112107      -6.21952910
Al       1.83948463      -0.01888548       5.66483552       0.60000000      -0.00000000      -0.00591622       0.00529867      -4.50047046
Al       1.83948463       2.00377449       3.48999008       0.60000000      -0.00000000      -0.00047944      -0.01201453      -4.11166771
Al      -0.00000000       3.78868243       0.00000000       0.60000000      -0.00000000      -0.00492816      -0.00000000      -4.29303181
Al       0.13945830       5.78693689       1.71105766       0.60000000       0.00277849      -0.00011383       0.00758380      -4.23501175
Ni       1.83948463       3.87289200       1.81582715       0.60000000      -0.00000000       0.01059525       0.01300726      -5.94722860
Ni       1.83948463       5.69451867      -0.14983234       0.60000000       0.00000000       0.00160360       0.00432581      -6.14377639
Al      -0.00000000       3.95647284       3.67825585       0.60000000      -0.00000000      -0.00246241       0.00000000      -4.30055442
Al      -0.13945830       5.78693689       5.64545403       0.60000000      -0.00277849      -0.00011383      -0.00758380      -4.23501175
Al       1.83948463       3.86411630       5.49956797       0.60000000       0.00000000      -0.00004612      -0.00341546      -3.94773442
Ni       1.83948463       5.87403842       3.76988148       0.60000000      -0.00000000       0.00248731      -0.01053799      -6.30465070
Ni       3.67896926       0.00735524      -0.00000000       0.60000000       0.00000000       0.00454555      -0.00000000      -5.96319910
Ni       3.81643608       1.93752557       1.89791039       0.60000000       0.00092436       0.00173642      -0.00112107      -6.21952910
Al       5.51845389      -0.01888548       1.69167617       0.60000000       0.00000000      -0.00591622      -0.00529867      -4.50047046
Al       5.51845389       1.92483102      -0.11169164       0.60000000      -0.00000000      -0.00272218      -0.01894297      -4.32341911
Al       3.67896926      -0.01924479       3.67825585       0.60000000      -0.00000000       0.00207935       0.00000000      -4.06780006
Ni       3.54150245       1.93752557       5.45860130       0.60000000      -0.00092436       0.00173642       0.00112107      -6.21952910
Al       5.51845389      -0.00719637       5.66068009       0.60000000      -0.00000000      -0.00800171       0.00988045      -4.23125161
Al       5.51845389       2.00377449       3.86652161       0.60000000       0.00000000      -0.00047944       0.01201453      -4.11166771
Al       3.67896926       3.78868243       0.00000000       0.60000000       0.00000000      -0.00492816      -0.00000000      -4.29303181
Al       3.53951096       5.78693689       1.71105766       0.60000000      -0.00277849      -0.00011383       0.00758380      -4.23501175
Al       5.51845389       3.86411630       1.85694372       0.60000000       0.00000000      -0.00004612       0.00341546      -3.94773442
Ni       5.51845389       5.69451867       0.14983234       0.60000000       0.00000000       0.00160360      -0.00432581      -6.14377639
Al       3.67896926       3.95647284       3.67825585       0.60000000       0.00000000      -0.00246241       0.00000000      -4.30055442
Al       3.81842757       5.78693689       5.64545403       0.60000000       0.00277849      -0.00011383      -0.00758380      -4.23501175
Ni       5.51845389       3.87289200       5.54068454       0.60000000       0.00000000       0.01059525      -0.01300726      -5.94722860
Ni       5.51845389       5.87403842       3.58663021       0.60000000       0.00000000       0.00248731       0.01053799      -6.30465070
