32
Lattice="7.085933250997827 -0.030861305009963806 0.030760709308872015 -0.032009409178242965 7.412365474321263 0.03871976155767708 0.03200910052798159 0.03866761335514303 7.388795168578132" Properties=species:S:1:pos:R:3:initial_magmoms:R:1:forces:R:3:energies:R:1 energy=-171.78238909186118 stress="6.808766861833865e-05 -0.00015647216365532394 1.5595304932920757e-05 -0.00015647216365532394 -1.6312828277100954e-05 0.00015221753680237743 1.5595304932920757e-05 0.00015221753680237743 -0.0003007662469173855" free_energy=-171.78238909186118 pbc="T T T"
Al      -0.04383147      -0.09275034      -0.06963617       0.60000000      -0.00297004       0.00534280       0.00650635      -4.73317647
Al       0.30957979       1.93741256       1.93488707       0.60000000       0.00051304      -0.00888204      -0.00862019      -4.75999213
Ni       1.71483532      -0.09908902       1.98381601       0.60000000      -0.00309977       0.00120709      -0.00481480      -6.14215498
Ni       1.78079980       1.73968147      -0.05307231       0.60000000      -0.00197666      -0.00200017      -0.00385652      -5.97138371
Al      -0.22915390       0.07503843       3.78346915       0.60000000       0.00110171      -0.00716599      -0.00234599      -4.79401524
Ni       0.03378369       1.81222311       5.53459657       0.60000000      -0.00076144       0.00490438       0.00064527      -5.78979960
Al       1.77025098       0.00444973       5.52544051       0.60000000      -0.00675588       0.00295205       0.00011651      -4.55115444
Ni       1.87033614       1.78131406       3.77182499       0.60000000       0.00263473       0.00273776       0.00393445      -5.95337335
Ni       0.01982150       3.68101955       0.09434841       0.60000000      -0.00014542      -0.01217051       0.00527540      -5.84764827
Al      -0.00354386       5.49190169       1.81296485       0.60000000       0.00746947       0.01448989       0.00757349      -4.81961070
Ni       1.88134569       3.81562491       1.94459252       0.60000000       0.00076495      -0.00166907      -0.00494342      -5.91751467
Ni       1.75050689       5.64837654       0.03344358       0.60000000      -0.00073977       0.00212225      -0.00674241      -5.91395797
Ni      -0.02742249       3.70590932       3.67904142       0.60000000       0.00805634      -0.00046893       0.00965390      -5.78175936
Ni      -0.04464953       5.63899943       5.55994249       0.60000000       0.00358820      -0.00560737      -0.00489626      -5.81556108
Ni       1.75334612       3.65147435       5.53906408       0.60000000      -0.01663521      -0.00764202       0.00079441      -5.77204171
Al       1.62799115       5.42971152       3.86206926       0.60000000      -0.01036367       0.00650726      -0.00176061      -4.59425954
Al       3.55160925      -0.01549822       0.10257865       0.60000000       0.00309799      -0.00661525      -0.00560770      -4.65966327
Ni       3.58521534       1.92053472       1.75612769       0.60000000       0.00183915      -0.00176440       0.00202514      -5.98044752
Ni       5.43723363       0.07193157       1.78112389       0.60000000       0.00285708      -0.00852794       0.00160637      -6.13029788
Al       5.45038479       1.92421672      -0.06181909       0.60000000       0.00078226       0.00075546       0.01055808      -4.54880271
Al       3.74171999       0.08226879       3.60141893       0.60000000      -0.00416903       0.01470263       0.00873679      -4.69047137
Al       3.56921124       1.89616830       5.55919295       0.60000000       0.00695509      -0.01273818      -0.00861769      -4.47897673
Ni       5.21915944       0.03606425       5.65890471       0.60000000       0.00468053       0.00283933      -0.00354334      -6.01294469
Ni       5.30302075       1.91301575       3.73382825       0.60000000      -0.00740216       0.00383628       0.00434539      -5.90640021
Al       3.30857051       3.79620006      -0.07420820       0.60000000       0.00994815       0.01227783       0.00794888      -4.72816265
Al       3.53936341       5.59175530       1.89874630       0.60000000      -0.00906558      -0.00512123      -0.01301559      -4.43108858
Al       5.34718123       3.61003905       1.92275526       0.60000000      -0.00512977      -0.00165186       0.00050110      -4.61198332
Ni       5.22400464       5.46076993       0.10084749       0.60000000       0.00101623      -0.00112780       0.00943858      -5.96141761
Al       3.54731673       3.68008434       3.80055019       0.60000000       0.00580496      -0.00019765      -0.00873364      -4.67001340
Ni       3.49058389       5.64817246       5.48841684       0.60000000       0.00177409      -0.00124250       0.00348468      -5.99002818
Ni       5.27278281       3.71051788       5.62229992       0.60000000      -0.00119903       0.00793152      -0.00544270      -5.83704225
Ni       5.27984184       5.49452322       3.67175147       0.60000000       0.00752947       0.00198637      -0.00020397      -5.98724549
