32
Lattice="7.093534342734135 -0.20175399469341587 0.3850622056596498 -0.17140539012830341 8.35871670698033 0.4098997164786063 0.43151187710996236 0.4714449312359438 8.241121296808961" Properties=species:S:1:pos:R:3:initial_magmoms:R:1:forces:R:3:energies:R:1 energy=-146.83320559946335 stress="-0.0003438274118745066 0.0002500567684960456 -0.0004971563004959277 0.0002500567684960456 -0.00040992566222701894 -6.569092357754589e-05 -0.0004971563004959277 -6.569092357754589e-05 4.003260700368162e-05" free_energy=-146.83320559946335 pbc="T T T"
Ni       0.27559827      -0.19206558       0.59468484       0.60000000       0.00315001       0.00283187      -0.00644191      -6.01510195
Al       0.09745108       1.60780962       2.28202447       0.60000000      -0.00485538       0.00350477       0.00073086      -4.00924604
Al       2.50907357       0.36933066       2.37358467       0.60000000      -0.00414607      -0.00360972      -0.00540013      -4.21235570
Al       1.56157662       1.93301284       0.08364847       0.60000000      -0.00969613       0.00326857       0.00040731      -3.84576034
Al       0.31467229       0.98745526       4.96983577       0.60000000      -0.00218716       0.00301934      -0.00887361      -4.00761559
Ni       1.17811148       3.12389470       6.14503585       0.60000000      -0.00490016       0.00030867       0.00683113      -5.86511848
Al       1.70008403      -1.55087367       7.37479509       0.60000000       0.00737153      -0.00152463      -0.00119812      -4.35051896
Al       2.22267384       2.53272816       3.96777347       0.60000000      -0.00105168       0.00195941      -0.01041328      -3.80789584
Al      -0.33707338       3.86034527      -0.15972532       0.60000000       0.00529835      -0.00601977       0.00051858      -4.21919788
Al      -0.58000773       6.01088142       2.00165473       0.60000000       0.00122395       0.00876614       0.00838121      -4.27693256
Al       1.42294983       4.10163414       1.93347721       0.60000000      -0.00026080      -0.00100869       0.00022207      -4.07767799
Ni       1.82404761       6.52508101       1.80419664       0.60000000      -0.00319199      -0.00187288       0.00932184      -5.71805749
Al      -0.24246957       3.99768709       4.39915916       0.60000000       0.00777162      -0.00438058      -0.00019617      -4.35263952
Ni       0.12127879       5.64163175       6.09828393       0.60000000       0.00528622       0.00441856      -0.00779861      -5.87221551
Al       2.51935690       5.19375895       5.79002526       0.60000000      -0.01412762      -0.00434640       0.00869375      -4.28263133
Al       0.98344394       6.75082864       4.12300766       0.60000000       0.00058450      -0.00137017      -0.00403158      -4.23700215
Al       3.24870715      -0.13364003      -0.13909776       0.60000000      -0.00440648       0.00894729      -0.00516693      -4.35147503
Al       4.10436794       2.54498575       1.23387974       0.60000000       0.00388336       0.00423477       0.00192666      -3.95975511
Al       5.15891585      -0.30905991       2.00335775       0.60000000      -0.00900858       0.00039141       0.00639412      -4.08463498
Al       6.03960256       1.14942573      -0.45875568       0.60000000      -0.00412120       0.01595495       0.00083004      -4.15073384
Al       3.04047765      -0.17527312       5.11168675       0.60000000       0.00077929      -0.00670139      -0.00605393      -4.22958593
Al       3.64908600       2.51867729       6.26012952       0.60000000       0.00404740      -0.00513524      -0.00306639      -4.01175424
Ni       5.09007299       0.53562074       6.11533322       0.60000000       0.00551930      -0.00816555       0.00676006      -5.87452808
Al       4.88136551       1.67321433       3.94688462       0.60000000       0.00872853       0.01152966       0.00412666      -4.09182471
Al       3.86112234       5.40313548       1.31900256       0.60000000      -0.00850781      -0.00739224       0.00076427      -4.24388463
Ni       3.45732169       6.59838819       3.68096619       0.60000000      -0.01556686      -0.00248070       0.00875210      -5.91964095
Ni       5.97562691       3.47870409       2.54604821       0.60000000       0.01007200      -0.00188308       0.00174372      -5.92913609
Al       5.70060894       6.79153908      -0.34164570       0.60000000       0.00234096       0.00243000      -0.00464288      -4.41321848
Al       4.25175756       4.36566601       3.87638015       0.60000000       0.00493500      -0.00268791      -0.00099876      -4.14349171
Ni       3.84548529       6.73040399       7.26564419       0.60000000       0.01113600      -0.01030569      -0.00781047      -5.90552571
Al       4.98167718       4.64024788       7.01764853       0.60000000       0.00611260       0.00246040       0.00370427      -3.98595646
Al       5.38672682       6.83571598       5.21407446       0.60000000      -0.00221271      -0.00514118       0.00198412      -4.38809233
