108
Lattice="12.133323758273875 0.17146594885473523 0.26939720843433346 0.18763620190286512 10.963025785237358 -0.1145567258085784 0.280341612922108 -0.1327029793221759 11.813490916805383" Properties=species:S:1:pos:R:3:initial_magmoms:R:1:forces:R:3:energies:R:1 energy=-515.264907063489 stress="-0.0001831240691082994 3.0134477503637694e-05 -0.00015891713731785195 3.0134477503637694e-05 -0.0004874046934474744 0.0004317542174318162 -0.00015891713731785195 0.0004317542174318162 0.0006932316720104368" free_energy=-515.264907063489 pbc="T T T"
Al       0.31539368      -0.06208154       0.05836167       0.60000000      -0.00596327      -0.01160982      -0.00299877      -4.20712152
Ni       0.76726384       1.07944195       2.20878828       0.60000000      -0.00700571       0.00327880       0.00244551      -5.95982202
Al       2.66692170      -0.19841716       1.29344393       0.60000000       0.00442000      -0.00092714      -0.00374645      -4.09427846
Al       2.33191371       1.94649685      -0.81530273       0.60000000       0.00268573       0.00375547      -0.00609838      -4.32811858
Ni       0.71243072      -0.52380461       5.21903567       0.60000000       0.00035377      -0.00119034      -0.00250429      -5.82641946
Al       1.12614547       1.43419464       6.54852174       0.60000000      -0.00664082      -0.00666106       0.00330523      -4.26566005
Al       1.83793704      -1.44682170       7.18951213       0.60000000       0.00712109      -0.00530496       0.00254199      -3.87274653
Al       2.36877557       0.86071368       4.00919813       0.60000000       0.00341191      -0.00633542      -0.00106543      -4.17395121
Al       1.07179139       0.48100896       9.13359926       0.60000000      -0.00358057       0.00417383      -0.00520978      -4.13312748
Ni      -0.96277791       1.06436483      10.36454865       0.60000000      -0.00504459      -0.00389130      -0.00169371      -5.93727424
Ni       2.69655169      -0.63459037      10.67866440       0.60000000       0.00825521      -0.00348769       0.00354938      -6.01571185
Ni       2.43849734       2.42107654       8.40734275       0.60000000      -0.00647940      -0.00545315       0.00119554      -6.15131576
Al      -0.28304346       2.56944903       0.48195142       0.60000000       0.00370632      -0.00365037       0.00304919      -4.39198910
Al       0.09818916       5.16653638       1.29670038       0.60000000      -0.00617093      -0.00898654      -0.00008609      -4.32951016
Al       2.18018630       3.12470093       1.84388633       0.60000000       0.00239495      -0.00813446       0.00075400      -4.47922876
Al       3.03825724       5.69042784       0.87551962       0.60000000       0.00463316      -0.00374494       0.00111456      -4.50933894
Al       0.64895228       3.20690143       4.07621049       0.60000000       0.00171554      -0.00492779      -0.00940437      -3.99274192
Al       0.07090040       5.51827145       5.62649304       0.60000000      -0.00857448      -0.00671994       0.00386845      -3.76403605
Al       2.28696511       3.84339538       6.12029386       0.60000000       0.00022206      -0.00262447       0.00112416      -4.20029661
Al       1.94699176       5.72326468       3.56658088       0.60000000      -0.00923047      -0.00291760       0.00317110      -4.15247193
Ni       0.17636595       3.65052779       7.32825719       0.60000000       0.00282134      -0.00172696       0.00514647      -5.92971161
Al       0.34929946       3.13905637       9.71280371       0.60000000       0.00118794      -0.00164036       0.00632963      -4.34617357
Ni       1.95918293       4.05297571      11.33923583       0.60000000      -0.00787068      -0.01052077      -0.00023683      -6.05552856
Al       2.07987568       4.96272024       8.60577377       0.60000000      -0.00521792       0.00606447      -0.00142601      -4.33048677
Al      -0.51308765       8.22189236       0.53053533       0.60000000      -0.00598885      -0.00192448      -0.00176477      -3.85413307
Al       0.96143057       9.53773799       2.77118961       0.60000000      -0.00789214      -0.00329282      -0.00551722      -4.16558953
Ni       1.30827678       7.29336138       1.68054459       0.60000000      -0.00011502       0.00383752       0.00650539      -5.96196654
Al       2.98547920       8.31060851      -0.19718127       0.60000000      -0.00703133       0.00773871      -0.00304442      -4.36871898
Al      -0.41859872       7.09701753       3.35469502       0.60000000       0.00519890       0.00206475      -0.00157693      -3.80325755
Al      -0.60342372      10.24666291       7.07067752       0.60000000      -0.00402723      -0.00457421      -0.00272075      -4.04824701
Al       2.39056931       6.74343848       6.30518738       0.60000000       0.00358787      -0.00140623       0.00378559      -4.02125824
Al       2.97968754       9.15950509       4.65379194       0.60000000      -0.00117275      -0.00421947      -0.00581466      -4.27535721
Al       0.02052830       7.65833207       7.23694080       0.60000000       0.00196669       0.00369825       0.00919624      -3.69395824
Al       1.14629949       8.84648796       9.71713373       0.60000000      -0.00546370      -0.00512785      -0.00470563      -3.78676259
Al       1.26665760       6.37470118      10.85550659       0.60000000       0.00562138      -0.00548663       0.00318579      -4.10184409
Al       3.61642826       8.44604235       8.93360297       0.60000000      -0.00096252       0.00637812      -0.00072041      -4.16654735
Al       4.70294130       1.00684289      -0.10960684       0.60000000      -0.00025984      -0.00726265      -0.00520048      -4.37212190
Ni       4.04381095       1.55085052       2.13793268       0.60000000       0.00426230      -0.00682296       0.00578401      -5.84649311
Ni       6.53703668       1.25840033       1.53632141       0.60000000       0.01027926       0.00170939      -0.00146363      -5.95841440
Al       6.60300608       2.98973497      -0.68817206       0.60000000       0.00430892      -0.00093836      -0.00259650      -4.51401821
Al       5.24616283      -0.47149522       2.68371562       0.60000000       0.00004856      -0.00459675      -0.00604418      -4.51965529
Al       4.09903000       1.73774478       6.72968495       0.60000000       0.00435501       0.00264891      -0.00343925      -4.22871247
Al       5.14004741      -0.51398995       5.64143315       0.60000000      -0.00119527       0.01326648       0.00014586      -4.25854576
Al       7.02140963       1.57822990       3.98623171       0.60000000      -0.00441978       0.00430205      -0.00519417      -4.40611866
Al       4.05917392       0.47500683       8.97891372       0.60000000       0.00501754      -0.00371757       0.00012374      -4.39170415
Al       4.14448649       3.67494225       9.93490494       0.60000000      -0.00028895       0.00181608       0.01052136      -4.58095473
Al       6.81089940       0.35597580       9.69721765       0.60000000      -0.00592362      -0.00366281      -0.00328286      -4.42145725
Ni       6.25420632       0.64321813       7.39343412       0.60000000       0.00230536       0.00194081       0.00043302      -5.89171894
Ni       4.08458637       3.41865464       0.43572357       0.60000000       0.00168553      -0.00065775      -0.00256055      -5.98447205
Ni       3.99354698       4.60731168       2.89782966       0.60000000       0.00299615      -0.00080601      -0.00275250      -5.91512874
Al       5.91943465       3.48621158       2.07238432       0.60000000       0.00207458       0.00040956       0.00108805      -4.28466075
Al       5.57238560       5.42133786       0.09110441       0.60000000       0.00009563       0.00877070       0.01082975      -4.42285501
Al       4.41094160       2.49451971       4.20283822       0.60000000      -0.00681543      -0.00213430       0.00478945      -4.07777461
Al       4.78235571       4.81194776       5.29955066       0.60000000      -0.00395366      -0.00272462       0.00755287      -4.50468599
Ni       6.12709070       2.81027341       5.85647021       0.60000000      -0.00108074       0.00747862       0.00469198      -5.88511939
Al       5.73835485       6.46903083       2.82710422       0.60000000      -0.00709053       0.00486028      -0.00227981      -4.58859068
Ni       4.23817040       4.03068089       7.55523488       0.60000000       0.00951186       0.00890307      -0.01082883      -5.95850751
Ni       3.68678050       6.11303380      10.19120564       0.60000000      -0.00384268       0.00299372       0.00340739      -6.08870141
Ni       6.12503111       4.98610971       9.51279166       0.60000000      -0.00383898       0.00221329      -0.00357571      -5.94039211
Ni       6.53949910       5.05726504       7.01669108       0.60000000       0.00177896      -0.00341640      -0.00519009      -5.79372087
Ni       5.25370979       7.82950347       0.63561708       0.60000000      -0.00857848      -0.00202842      -0.00891954      -5.90158576
Al       3.54058596       8.09384276       2.35235409       0.60000000       0.00740259       0.00229245       0.00546731      -4.29510019
Ni       7.11577057       8.52586319       2.12138989       0.60000000       0.01394762       0.00087753       0.00484345      -5.89275051
Al       6.76459740       9.97325457       0.14765017       0.60000000       0.00530676       0.00113937       0.00931699      -4.43724572
Ni       3.89283831       6.79010501       4.42265164       0.60000000       0.00011252       0.00274130      -0.00376224      -5.85052019
Ni       4.20356332       8.32324996       6.51203936       0.60000000       0.00108727       0.00833606      -0.00746664      -5.99028696
Al       6.22085552       7.08823102       5.59922720       0.60000000       0.00351362      -0.00261141      -0.00538261      -4.51365235
Ni       5.35473334       8.67998022       4.01198509       0.60000000      -0.00963202      -0.00642685       0.00640781      -5.84840911
Al       4.71107725       6.30351194       7.87734430       0.60000000      -0.00223686      -0.00047584      -0.00174551      -4.51674469
Ni       5.30022128       9.71265664      10.27632973       0.60000000       0.00876376       0.00577059      -0.00077523      -6.12032366
Al       5.85132430       7.35321933      10.10120114       0.60000000      -0.00100220       0.00140815       0.00403386      -4.28959932
Al       5.99155331       9.25474946       7.90957692       0.60000000       0.00554562       0.00967462       0.00359733      -4.15069856
Ni       8.18667479       0.99518334      -0.32508091       0.60000000      -0.00454931       0.01109423       0.00218961      -5.97697858
Al       8.68141894       2.45067545       1.96055946       0.60000000      -0.00767542       0.00470637      -0.00328229      -4.51263451
Al      10.68250917       0.34799854       2.73905597       0.60000000       0.00147016      -0.00421900      -0.00066975      -4.17531893
Al       9.42534209       3.14777047      -0.73902798       0.60000000       0.00197623      -0.00211813      -0.00897018      -4.45185168
Ni       8.95810858       0.18613831       4.61883558       0.60000000      -0.00320581       0.00302697      -0.00501302      -5.83079316
Al       8.30120390       1.82122262       6.63561304       0.60000000       0.00410406      -0.00234824      -0.00681123      -4.50094882
Al      11.00515565       1.41146076       5.24691106       0.60000000      -0.00322446       0.00007259       0.00082368      -4.42687992
Ni      10.95159114       2.76015466       3.00913740       0.60000000       0.01269250       0.00195383      -0.00214089      -5.71594110
Al       8.25131714      -0.84894530       6.81443910       0.60000000       0.00316007      -0.00767320       0.00074945      -4.13516849
Ni       8.43456585       2.03016688       9.16973238       0.60000000       0.00112693       0.01083430       0.00087213      -5.97671127
Al       9.57515847      -0.13956881       9.37475061       0.60000000      -0.00323872      -0.00427504       0.00162412      -4.24820428
Al      10.73185445       2.10350220       8.31720009       0.60000000      -0.00340602      -0.00296661      -0.00032085      -4.25344144
Ni       7.95052812       5.04902115      -0.54018774       0.60000000      -0.00565682       0.00053519       0.00180020      -5.93828356
Al       7.96729828       5.30881390       1.88676244       0.60000000       0.00262810       0.00114925       0.00269885      -4.22586385
Ni      10.03608818       4.32151314       1.28142486       0.60000000      -0.00201953      -0.00283078      -0.00519131      -5.69258230
Al      10.19146783       6.06219472      -0.25146609       0.60000000      -0.00196903       0.00492108      -0.00126145      -4.23532999
Ni       9.09361639       2.75336222       4.60180499       0.60000000       0.01154164      -0.00558026       0.00825847      -5.81052520
Al       7.63841261       4.58901934       4.96779848       0.60000000       0.00436119       0.00636188       0.00287315      -4.38061363
Al      10.15961319       4.00647440       6.38779764       0.60000000       0.00429428       0.00043900       0.00655628      -3.99134093
Al      10.02771055       4.95744209       3.66680846       0.60000000      -0.00118500       0.00363264       0.00617190      -4.36609583
Al       6.28078246       2.87944852       8.27848811       0.60000000      -0.00288927      -0.00344479      -0.00742321      -4.57855589
Ni       9.15120806       6.61946064       9.69948817       0.60000000      -0.00496550      -0.00747819       0.01310850      -5.77610793
Al       8.43925805       4.46213961       8.78807633       0.60000000      -0.00085027      -0.00104339      -0.00275647      -4.38390837
Al      11.10426548       5.59522182       8.68119794       0.60000000      -0.00213742      -0.00678243       0.00156742      -4.10409139
Al       7.69568476       7.39016901       0.03464827       0.60000000       0.01243686       0.00287637      -0.00106729      -4.34635585
Al       8.38701691      10.62599181       2.14694004       0.60000000      -0.00554747       0.00493625      -0.00127314      -4.24886365
Al       9.42349729       7.90924311       2.22802515       0.60000000       0.00182825       0.00357988      -0.00130736      -4.06402941
Al      10.08500827      10.36975810       0.04539495       0.60000000      -0.00177451       0.00589118      -0.00128934      -3.92607867
Ni       8.05761801       6.71809532       3.84762318       0.60000000      -0.00129249       0.00661442       0.00223749      -5.91122025
Al       7.77299669       9.11728332       4.33106995       0.60000000      -0.00163188       0.00897564      -0.00206995      -4.35990863
Al       9.74004741       7.16897434       5.65112882       0.60000000      -0.00079603       0.00641390       0.00153729      -3.95437889
Al      10.85444604       9.51328573       4.85257932       0.60000000       0.00267446      -0.00069301       0.00547596      -3.97975650
Al       7.86139122       6.93774770       7.70546376       0.60000000       0.00311420      -0.00761694      -0.01086802      -4.33188746
Al       8.09932027       8.81209246       9.60594837       0.60000000      -0.00303235       0.00713305       0.00363736      -4.08914917
Al      10.86641308       8.16667956      10.05119776       0.60000000       0.00789837       0.00075662       0.00259056      -4.05061041
Ni       9.84554858       8.55569998       7.87442317       0.60000000      -0.00337186       0.00339182      -0.00356391      -5.97835462
