32
Lattice="7.90760506453936 -0.004143430528210471 1.3729907404635717e-16 -0.004143430528276268 7.9076050645385525 -1.2864230253008305e-16 1.3734549404636437e-16 -8.178045008471935e-17 7.903661587193096" Properties=species:S:1:pos:R:3:initial_magmoms:R:1:forces:R:3:energies:R:1 energy=-131.23225749730355 stress="0.00017553586910638803 -9.679901543374383e-06 2.2518365694329995e-17 -9.679901543374383e-06 0.00017553586909725466 -2.834287252762202e-17 2.2518365694329995e-17 -2.834287252762202e-17 0.0005112048654693952" free_energy=-131.23225749730355 pbc="T T T"
Ni      -0.03648831       0.03648831      -0.00000000       0.60000000      -0.01205449       0.01205449       0.00000000      -6.15331796
Al      -0.01719340       1.94561908       2.04505356       0.60000000       0.00096994       0.00077077      -0.00275883      -3.95140536
Al       1.94980312       0.04569290       2.03864094       0.60000000      -0.00712425       0.00058216      -0.00109711      -3.85623882
Al       1.87993191       1.91160916      -0.00000000       0.60000000       0.00976844      -0.01184425      -0.00000000      -3.73872279
Al      -0.03809569       0.03809569       3.95183079       0.60000000      -0.00025875       0.00025875       0.00000000      -3.74887841
Al      -0.01719340       1.94561908       5.85860803       0.60000000       0.00096994       0.00077077       0.00275883      -3.95140536
Al       1.94980312       0.04569290       5.86502065       0.60000000      -0.00712425       0.00058216       0.00109711      -3.85623882
Ni       1.94205979       1.91558513       3.95183079       0.60000000       0.00803607       0.00316899      -0.00000000      -6.21897634
Al      -0.02836760       3.96653016      -0.00000000       0.60000000       0.00578726      -0.01112524      -0.00000000      -3.60276131
Al      -0.04983633       5.95780194       2.03864094       0.60000000      -0.00058216       0.00712425      -0.00109711      -3.85623882
Al       1.97239605       3.89798725       2.01867255       0.60000000      -0.00409335      -0.00000096       0.00329267      -3.74710808
Al       1.88400308       6.01945856      -0.00000000       0.60000000      -0.00576273       0.00576273      -0.00000000      -3.84853277
Al      -0.01472894       3.89953583       3.95183079       0.60000000      -0.00467095      -0.00681200       0.00000000      -3.86149825
Al      -0.04983633       5.95780194       5.86502065       0.60000000      -0.00058216       0.00712425       0.00109711      -3.85623882
Al       1.97239605       3.89798725       5.88498904       0.60000000      -0.00409335      -0.00000096      -0.00329267      -3.74710808
Al       1.98450602       5.91895561       3.95183079       0.60000000       0.00336250      -0.00336250      -0.00000000      -3.60805032
Al       3.94107491       0.02422417      -0.00000000       0.60000000       0.01112524      -0.00578726      -0.00000000      -3.60276131
Al       3.96551971       1.96433582       2.07110045       0.60000000      -0.00562934       0.00162214       0.00577205      -3.81915739
Al       5.96198598       0.01304997       2.04505356       0.60000000      -0.00077077      -0.00096994      -0.00275883      -3.95140536
Al       5.99507886       1.90838278      -0.00000000       0.60000000       0.00803072      -0.00803072      -0.00000000      -3.77721087
Al       4.00806924       0.01058551       3.95183079       0.60000000       0.00681200       0.00467095       0.00000000      -3.86149825
Al       3.96551971       1.96433582       5.83256114       0.60000000      -0.00562934       0.00162214      -0.00577205      -3.81915739
Al       5.96198598       0.01304997       5.85860803       0.60000000      -0.00077077      -0.00096994       0.00275883      -3.95140536
Ni       5.94811769       1.95534394       3.95183079       0.60000000      -0.00182051       0.00182051      -0.00000000      -6.26399464
Al       3.96440234       3.93905929      -0.00000000       0.60000000       0.00413266      -0.00413266      -0.00000000      -3.70156250
Al       4.00547439       5.93106558       2.01867255       0.60000000       0.00000096       0.00409335       0.00329267      -3.74710808
Al       5.93912581       3.93794192       2.07110045       0.60000000      -0.00162214       0.00562934       0.00577205      -3.81915739
Al       5.99185248       6.02352972      -0.00000000       0.60000000       0.01184425      -0.00976844      -0.00000000      -3.73872279
Al       3.97769666       3.92576498       3.95183079       0.60000000      -0.00346050       0.00346050       0.00000000      -3.79115401
Al       4.00547439       5.93106558       5.88498904       0.60000000       0.00000096       0.00409335      -0.00329267      -3.74710808
Al       5.93912581       3.93794192       5.83256114       0.60000000      -0.00162214       0.00562934      -0.00577205      -3.81915739
Ni       5.98787650       5.96140184       3.95183079       0.60000000      -0.00316899      -0.00803607      -0.00000000      -6.21897634
