32
Lattice="6.5388507679121535 -1.1612515261224638e-17 -3.421152844304552e-17 -9.068324418346484e-16 7.948113476068037 -1.1170353382623273e-12 -2.9486511203871233e-15 -9.723011688866343e-13 8.059199539299303" Properties=species:S:1:pos:R:3:initial_magmoms:R:1:forces:R:3:energies:R:1 energy=-159.2186541475615 stress="-4.6444094867711886e-08 3.00333165380696e-16 6.956844895492972e-16 3.00333165380696e-16 -0.00013153952761859003 1.3068765595430957e-14 6.956844895492972e-16 1.3068765595430957e-14 -0.00023267115374128063" free_energy=-159.2186541475615 pbc="T T T"
Al       0.09215266      -0.06696354      -0.11749084       0.60000000      -0.00449190       0.00151050       0.00521629      -4.33626655
Ni      -0.33341499       1.98702837       2.01479988       0.60000000      -0.00607562      -0.00000000      -0.00000000      -6.04728706
Al       1.63471269       0.55401456       2.01479988       0.60000000      -0.00000000      -0.00199829      -0.00000000      -4.13119569
Ni       1.63471269       1.98702837       0.00864807       0.60000000      -0.00000000       0.00000000       0.01234163      -6.10731874
Al       0.09215266      -0.06696354       4.14709061       0.60000000      -0.00449190       0.00151050      -0.00521629      -4.33626655
Al       0.24334095       1.98702837       6.04439965       0.60000000       0.00551297       0.00000000      -0.00000000      -4.40715932
Ni       1.63471269      -0.12552676       6.04439965       0.60000000       0.00000000       0.00710507      -0.00000000      -6.11731841
Ni       1.63471269       1.98702837       4.02095170       0.60000000       0.00000000      -0.00000000      -0.01234163      -6.10731874
Al       0.09215266       4.04102028      -0.11749084       0.60000000      -0.00449190      -0.00151050       0.00521629      -4.33626655
Al       0.30454737       5.96108511       2.01479988       0.60000000      -0.01628585      -0.00000000      -0.00000000      -4.08247200
Al       1.63471269       3.42004218       2.01479988       0.60000000      -0.00000000       0.00199829      -0.00000000      -4.13119569
Ni       1.63471269       5.96108511      -0.16255087       0.60000000      -0.00000000       0.00000000       0.00307630      -6.09833911
Al       0.09215266       4.04102028       4.14709061       0.60000000      -0.00449190      -0.00151050      -0.00521629      -4.33626655
Al      -0.19334952       5.96108511       6.04439965       0.60000000       0.00557073      -0.00000000      -0.00000000      -4.42623473
Ni       1.63471269       4.09958349       6.04439965       0.60000000      -0.00000000      -0.00710507      -0.00000000      -6.11731841
Ni       1.63471269       5.96108511       4.19215064       0.60000000       0.00000000      -0.00000000      -0.00307630      -6.09833911
Al       3.17727273      -0.06696354      -0.11749084       0.60000000       0.00449190       0.00151050       0.00521629      -4.33626655
Ni       3.60284037       1.98702837       2.01479988       0.60000000       0.00607562      -0.00000000      -0.00000000      -6.04728706
Al       4.90413808      -0.11581287       2.01479988       0.60000000       0.00000000      -0.01033911      -0.00000000      -4.16813144
Al       4.90413808       1.98702837      -0.06690015       0.60000000       0.00000000       0.00000000       0.00547209      -4.16282278
Al       3.17727273      -0.06696354       4.14709061       0.60000000       0.00449190       0.00151050      -0.00521629      -4.33626655
Al       3.02608443       1.98702837       6.04439965       0.60000000      -0.00551297      -0.00000000      -0.00000000      -4.40715932
Ni       4.90413808       0.16003921       6.04439965       0.60000000       0.00000000       0.00405287       0.00000000      -6.27289902
Al       4.90413808       1.98702837       4.09649992       0.60000000       0.00000000      -0.00000000      -0.00547209      -4.16282278
Al       3.17727273       4.04102028      -0.11749084       0.60000000       0.00449190      -0.00151050       0.00521629      -4.33626655
Al       2.96487801       5.96108511       2.01479988       0.60000000       0.01628585       0.00000000      -0.00000000      -4.08247200
Al       4.90413808       4.08986961       2.01479988       0.60000000       0.00000000       0.01033911      -0.00000000      -4.16813144
Ni       4.90413808       5.96108511       0.18108407       0.60000000       0.00000000       0.00000000      -0.00541070      -6.24308259
Al       3.17727273       4.04102028       4.14709061       0.60000000       0.00449190      -0.00151050      -0.00521629      -4.33626655
Al       3.46277490       5.96108511       6.04439965       0.60000000      -0.00557073       0.00000000      -0.00000000      -4.42623473
Ni       4.90413808       3.81401753       6.04439965       0.60000000       0.00000000      -0.00405287      -0.00000000      -6.27289902
Ni       4.90413808       5.96108511       3.84851570       0.60000000       0.00000000      -0.00000000       0.00541070      -6.24308259
