32
Lattice="0.10604230186843452 3.898048796822485 4.327958386806284 8.151517413698066 0.22045719260155713 8.623925139206968 7.809063638026242 7.426555332825934 0.5593743932597306" Properties=species:S:1:pos:R:3:initial_magmoms:R:1:forces:R:3:energies:R:1 energy=-145.96062171337533 stress="-0.0005619813071371303 7.790670582449093e-05 0.0005033918967994184 7.790670582449093e-05 0.0006240400973895135 4.12051325039254e-06 0.0005033918967994184 4.12051325039254e-06 5.7919322746029154e-05" free_energy=-145.96062171337533 pbc="T T T"
Ni      -0.38469891      -0.17519952      -0.11883510       0.60000000      -0.00006269      -0.00465925       0.00846883      -5.83538470
Al       2.26860838       2.37680642       0.78273940       0.60000000      -0.00043450       0.00065482      -0.00766686      -3.87561498
Al       4.83190973       3.92561804       0.60584734       0.60000000       0.00166722       0.00319800      -0.00423488      -4.12932887
Al       5.19385177       6.84718733      -0.12876871       0.60000000       0.00557232      -0.00485207       0.00169041      -4.39492135
Al       1.27642957      -0.01586497       1.68694689       0.60000000      -0.00032047      -0.00475101       0.00051859      -3.95187005
Al       4.41775803       1.81550107       2.63199469       0.60000000      -0.00146100       0.00474001       0.00160086      -4.07030635
Al       7.03717222       3.03227282       2.76901035       0.60000000      -0.00006711      -0.00050438      -0.00055271      -4.10821476
Al       6.83042109       5.43724101       1.83259814       0.60000000       0.00084339       0.00277194      -0.00383549      -3.87087292
Al       4.80680456       0.21803607       5.24001296       0.60000000      -0.00428748       0.00050112       0.00702247      -4.48092031
Ni       5.75898318       2.37946339       4.60765804       0.60000000      -0.00488846       0.00160502       0.00581396      -5.90983017
Al       8.02721944       2.96024199       5.42384320       0.60000000       0.00023790       0.00129848       0.00151438      -4.21703165
Al       8.89204466       5.02101047       3.65260262       0.60000000       0.00926316      -0.00325295      -0.00876266      -4.08164396
Ni       6.89474597       1.14252917       6.44952748       0.60000000      -0.00591209       0.00445922      -0.00319338      -5.85167756
Al       9.22379969       1.37923177       7.24945737       0.60000000       0.00523084       0.00116120       0.00054260      -4.21709366
Al      10.08892661       4.08505557       7.09037691       0.60000000       0.00278513      -0.00143403      -0.00199746      -4.06278514
Ni      12.09606560       5.52237246       7.12480084       0.60000000      -0.00421010      -0.00152456       0.00595683      -5.94362266
Al      -0.26100406       2.63529226       1.84531500       0.60000000       0.01229905      -0.00453595      -0.00071854      -4.14784966
Ni       3.14707500       3.86798979       2.31776321       0.60000000      -0.00492206      -0.00038845      -0.00427596      -5.77478391
Al       4.24311893       5.91488134       2.92580704       0.60000000       0.00365278       0.00146035      -0.00124464      -4.00501400
Al       6.05547652       7.83344731       2.50686594       0.60000000       0.01382327      -0.00283030      -0.00896814      -4.14081359
Al       1.70232525       2.17475316       3.80525487       0.60000000      -0.00542130       0.00043280      -0.00557236      -4.16980243
Al       3.78158875       3.84682067       4.65500809       0.60000000       0.00617191       0.00266272       0.00373900      -4.24443024
Al       6.23969348       4.95525500       4.77104024       0.60000000      -0.00720511      -0.00520673      -0.00102140      -4.16195390
Al       7.79810769       7.34114851       4.56734842       0.60000000       0.00289853       0.00031253       0.00160487      -3.79268285
Ni       3.01602402       1.90590727       5.95209860       0.60000000      -0.00444367      -0.00248438       0.00176140      -5.79265694
Al       5.13893844       2.92847951       6.79715246       0.60000000      -0.00441413       0.00347853       0.00413018      -4.31274226
Ni       8.37835407       5.30308749       5.94112390       0.60000000      -0.00378253       0.00385260       0.00924001      -5.84213243
Al      10.11721939       6.93205603       6.55287768       0.60000000      -0.00218308      -0.00556149       0.00091818      -4.15477008
Ni       6.12549343       2.10870262       8.76072236       0.60000000      -0.00293587       0.00476262      -0.00537365      -5.87360275
Al       7.31749638       4.36854512       8.17679280       0.60000000      -0.00312705       0.00153430       0.00535625      -4.35859845
Al      10.83854513       5.91624350       9.23141127       0.60000000       0.00295866      -0.00410027      -0.00299770      -4.05412718
Al      11.47681703       8.96442800       9.11686718       0.60000000      -0.00732547       0.00719954       0.00053701      -4.13354194
