Nb50Al4 dilute solid solution
1.0
  9.903000  0.000000  0.000000
  0.000000  9.903000  0.000000
  0.000000  0.000000  9.903000
  Nb  Al
  50  4
Direct
  0.166667  0.166667  0.166667
  0.000000  0.000000  0.333333
  0.000000  0.000000  0.666667
  0.166667  0.166667  0.833333
  0.000000  0.333333  0.000000
  0.000000  0.333333  0.333333
  0.166667  0.500000  0.500000
  0.000000  0.333333  0.666667
  0.166667  0.500000  0.833333
  0.000000  0.666667  0.000000
  0.166667  0.833333  0.166667
  0.000000  0.666667  0.333333
  0.166667  0.833333  0.500000
  0.000000  0.666667  0.666667
  0.166667  0.833333  0.833333
  0.333333  0.000000  0.000000
  0.500000  0.166667  0.166667
  0.333333  0.000000  0.333333
  0.500000  0.166667  0.500000
  0.333333  0.000000  0.666667
  0.500000  0.166667  0.833333
  0.333333  0.333333  0.000000
  0.500000  0.500000  0.166667
  0.333333  0.333333  0.333333
  0.333333  0.333333  0.666667
  0.500000  0.500000  0.833333
  0.333333  0.666667  0.000000
  0.500000  0.833333  0.166667
  0.333333  0.666667  0.333333
  0.500000  0.833333  0.500000
  0.333333  0.666667  0.666667
  0.500000  0.833333  0.833333
  0.666667  0.000000  0.000000
  0.833333  0.166667  0.166667
  0.666667  0.000000  0.333333
  0.833333  0.166667  0.500000
  0.666667  0.000000  0.666667
  0.833333  0.166667  0.833333
  0.666667  0.333333  0.000000
  0.833333  0.500000  0.166667
  0.666667  0.333333  0.333333
  0.833333  0.500000  0.500000
  0.666667  0.333333  0.666667
  0.833333  0.500000  0.833333
  0.666667  0.666667  0.000000
  0.833333  0.833333  0.166667
  0.666667  0.666667  0.333333
  0.833333  0.833333  0.500000
  0.666667  0.666667  0.666667
  0.833333  0.833333  0.833333
  0.000000  0.000000  0.000000
  0.166667  0.166667  0.500000
  0.166667  0.500000  0.166667
  0.500000  0.500000  0.500000
