Fe8Mg8 BCC-SQS16 (2x2x2, 50:50)
1.0
  6.461854  0.0  0.0
  0.0  6.461854  0.0
  0.0  0.0  6.461854
  Fe  Mg
  8  8
Direct
  0.000000  0.000000  0.000000
  0.250000  0.250000  0.750000
  0.000000  0.500000  0.000000
  0.000000  0.500000  0.500000
  0.750000  0.250000  0.250000
  0.500000  0.000000  0.500000
  0.750000  0.750000  0.250000
  0.750000  0.750000  0.750000
  0.250000  0.250000  0.250000
  0.000000  0.000000  0.500000
  0.250000  0.750000  0.250000
  0.250000  0.750000  0.750000
  0.500000  0.000000  0.000000
  0.750000  0.250000  0.750000
  0.500000  0.500000  0.000000
  0.500000  0.500000  0.500000
