128
Lattice="11.486960955796796 0.0 0.0 0.0 11.486960955796796 0.0 0.0 0.0 11.486960955796796" Properties=species:S:1:pos:R:3:initial_magmoms:R:1 pbc="T T T"
Ni       0.00000000       0.00000000       0.00000000       2.30000000
Fe       1.43587012       1.43587012       1.43587012       2.30000000
Ni       0.00000000       0.00000000       2.87174024       2.30000000
Ni       1.43587012       1.43587012       4.30761036       2.30000000
Ni       0.00000000       0.00000000       5.74348048       2.30000000
Fe       1.43587012       1.43587012       7.17935060       2.30000000
Ni       0.00000000       0.00000000       8.61522072       2.30000000
Ni       1.43587012       1.43587012      10.05109084       2.30000000
Fe       0.00000000       2.87174024       0.00000000       2.30000000
Fe       1.43587012       4.30761036       1.43587012       2.30000000
Fe       0.00000000       2.87174024       2.87174024       2.30000000
Ni       1.43587012       4.30761036       4.30761036       2.30000000
Fe       0.00000000       2.87174024       5.74348048       2.30000000
Fe       1.43587012       4.30761036       7.17935060       2.30000000
Fe       0.00000000       2.87174024       8.61522072       2.30000000
Ni       1.43587012       4.30761036      10.05109084       2.30000000
Fe       0.00000000       5.74348048       0.00000000       2.30000000
Fe       1.43587012       7.17935060       1.43587012       2.30000000
Fe       0.00000000       5.74348048       2.87174024       2.30000000
Ni       1.43587012       7.17935060       4.30761036       2.30000000
Fe       0.00000000       5.74348048       5.74348048       2.30000000
Ni       1.43587012       7.17935060       7.17935060       2.30000000
Fe       0.00000000       5.74348048       8.61522072       2.30000000
Ni       1.43587012       7.17935060      10.05109084       2.30000000
Ni       0.00000000       8.61522072       0.00000000       2.30000000
Ni       1.43587012      10.05109084       1.43587012       2.30000000
Ni       0.00000000       8.61522072       2.87174024       2.30000000
Fe       1.43587012      10.05109084       4.30761036       2.30000000
Fe       0.00000000       8.61522072       5.74348048       2.30000000
Ni       1.43587012      10.05109084       7.17935060       2.30000000
Ni       0.00000000       8.61522072       8.61522072       2.30000000
Ni       1.43587012      10.05109084      10.05109084       2.30000000
Ni       2.87174024       0.00000000       0.00000000       2.30000000
Fe       4.30761036       1.43587012       1.43587012       2.30000000
Ni       2.87174024       0.00000000       2.87174024       2.30000000
Ni       4.30761036       1.43587012       4.30761036       2.30000000
Ni       2.87174024       0.00000000       5.74348048       2.30000000
Fe       4.30761036       1.43587012       7.17935060       2.30000000
Ni       2.87174024       0.00000000       8.61522072       2.30000000
Ni       4.30761036       1.43587012      10.05109084       2.30000000
Fe       2.87174024       2.87174024       0.00000000       2.30000000
Ni       4.30761036       4.30761036       1.43587012       2.30000000
Fe       2.87174024       2.87174024       2.87174024       2.30000000
Fe       4.30761036       4.30761036       4.30761036       2.30000000
Fe       2.87174024       2.87174024       5.74348048       2.30000000
Fe       4.30761036       4.30761036       7.17935060       2.30000000
Fe       2.87174024       2.87174024       8.61522072       2.30000000
Fe       4.30761036       4.30761036      10.05109084       2.30000000
Fe       2.87174024       5.74348048       0.00000000       2.30000000
Ni       4.30761036       7.17935060       1.43587012       2.30000000
Ni       2.87174024       5.74348048       2.87174024       2.30000000
Fe       4.30761036       7.17935060       4.30761036       2.30000000
Fe       2.87174024       5.74348048       5.74348048       2.30000000
Ni       4.30761036       7.17935060       7.17935060       2.30000000
Fe       2.87174024       5.74348048       8.61522072       2.30000000
Ni       4.30761036       7.17935060      10.05109084       2.30000000
Fe       2.87174024       8.61522072       0.00000000       2.30000000
Fe       4.30761036      10.05109084       1.43587012       2.30000000
Fe       2.87174024       8.61522072       2.87174024       2.30000000
Fe       4.30761036      10.05109084       4.30761036       2.30000000
Ni       2.87174024       8.61522072       5.74348048       2.30000000
Fe       4.30761036      10.05109084       7.17935060       2.30000000
Ni       2.87174024       8.61522072       8.61522072       2.30000000
Ni       4.30761036      10.05109084      10.05109084       2.30000000
Ni       5.74348048       0.00000000       0.00000000       2.30000000
Ni       7.17935060       1.43587012       1.43587012       2.30000000
Fe       5.74348048       0.00000000       2.87174024       2.30000000
Ni       7.17935060       1.43587012       4.30761036       2.30000000
Fe       5.74348048       0.00000000       5.74348048       2.30000000
Ni       7.17935060       1.43587012       7.17935060       2.30000000
Ni       5.74348048       0.00000000       8.61522072       2.30000000
Fe       7.17935060       1.43587012      10.05109084       2.30000000
Fe       5.74348048       2.87174024       0.00000000       2.30000000
Ni       7.17935060       4.30761036       1.43587012       2.30000000
Ni       5.74348048       2.87174024       2.87174024       2.30000000
Fe       7.17935060       4.30761036       4.30761036       2.30000000
Ni       5.74348048       2.87174024       5.74348048       2.30000000
Fe       7.17935060       4.30761036       7.17935060       2.30000000
Ni       5.74348048       2.87174024       8.61522072       2.30000000
Ni       7.17935060       4.30761036      10.05109084       2.30000000
Ni       5.74348048       5.74348048       0.00000000       2.30000000
Fe       7.17935060       7.17935060       1.43587012       2.30000000
Ni       5.74348048       5.74348048       2.87174024       2.30000000
Ni       7.17935060       7.17935060       4.30761036       2.30000000
Ni       5.74348048       5.74348048       5.74348048       2.30000000
Fe       7.17935060       7.17935060       7.17935060       2.30000000
Fe       5.74348048       5.74348048       8.61522072       2.30000000
Fe       7.17935060       7.17935060      10.05109084       2.30000000
Fe       5.74348048       8.61522072       0.00000000       2.30000000
Ni       7.17935060      10.05109084       1.43587012       2.30000000
Fe       5.74348048       8.61522072       2.87174024       2.30000000
Ni       7.17935060      10.05109084       4.30761036       2.30000000
Ni       5.74348048       8.61522072       5.74348048       2.30000000
Ni       7.17935060      10.05109084       7.17935060       2.30000000
Fe       5.74348048       8.61522072       8.61522072       2.30000000
Ni       7.17935060      10.05109084      10.05109084       2.30000000
Ni       8.61522072       0.00000000       0.00000000       2.30000000
Fe      10.05109084       1.43587012       1.43587012       2.30000000
Ni       8.61522072       0.00000000       2.87174024       2.30000000
Fe      10.05109084       1.43587012       4.30761036       2.30000000
Ni       8.61522072       0.00000000       5.74348048       2.30000000
Fe      10.05109084       1.43587012       7.17935060       2.30000000
Ni       8.61522072       0.00000000       8.61522072       2.30000000
Ni      10.05109084       1.43587012      10.05109084       2.30000000
Fe       8.61522072       2.87174024       0.00000000       2.30000000
Ni      10.05109084       4.30761036       1.43587012       2.30000000
Fe       8.61522072       2.87174024       2.87174024       2.30000000
Fe      10.05109084       4.30761036       4.30761036       2.30000000
Fe       8.61522072       2.87174024       5.74348048       2.30000000
Ni      10.05109084       4.30761036       7.17935060       2.30000000
Fe       8.61522072       2.87174024       8.61522072       2.30000000
Fe      10.05109084       4.30761036      10.05109084       2.30000000
Ni       8.61522072       5.74348048       0.00000000       2.30000000
Ni      10.05109084       7.17935060       1.43587012       2.30000000
Ni       8.61522072       5.74348048       2.87174024       2.30000000
Ni      10.05109084       7.17935060       4.30761036       2.30000000
Fe       8.61522072       5.74348048       5.74348048       2.30000000
Fe      10.05109084       7.17935060       7.17935060       2.30000000
Fe       8.61522072       5.74348048       8.61522072       2.30000000
Ni      10.05109084       7.17935060      10.05109084       2.30000000
Ni       8.61522072       8.61522072       0.00000000       2.30000000
Fe      10.05109084      10.05109084       1.43587012       2.30000000
Fe       8.61522072       8.61522072       2.87174024       2.30000000
Fe      10.05109084      10.05109084       4.30761036       2.30000000
Fe       8.61522072       8.61522072       5.74348048       2.30000000
Ni      10.05109084      10.05109084       7.17935060       2.30000000
Fe       8.61522072       8.61522072       8.61522072       2.30000000
Fe      10.05109084      10.05109084      10.05109084       2.30000000
