128
Lattice="11.475413950413003 0.0 0.0 0.0 11.475413950413003 0.0 0.0 0.0 11.475413950413003" Properties=species:S:1:pos:R:3:initial_magmoms:R:1 pbc="T T T"
Ni       0.00000000       0.00000000       0.00000000       2.30000000
Fe       1.43442674       1.43442674       1.43442674       2.30000000
Fe       0.00000000       0.00000000       2.86885349       2.30000000
Fe       1.43442674       1.43442674       4.30328023       2.30000000
Ni       0.00000000       0.00000000       5.73770698       2.30000000
Fe       1.43442674       1.43442674       7.17213372       2.30000000
Fe       0.00000000       0.00000000       8.60656046       2.30000000
Ni       1.43442674       1.43442674      10.04098721       2.30000000
Fe       0.00000000       2.86885349       0.00000000       2.30000000
Ni       1.43442674       4.30328023       1.43442674       2.30000000
Fe       0.00000000       2.86885349       2.86885349       2.30000000
Fe       1.43442674       4.30328023       4.30328023       2.30000000
Fe       0.00000000       2.86885349       5.73770698       2.30000000
Fe       1.43442674       4.30328023       7.17213372       2.30000000
Fe       0.00000000       2.86885349       8.60656046       2.30000000
Fe       1.43442674       4.30328023      10.04098721       2.30000000
Fe       0.00000000       5.73770698       0.00000000       2.30000000
Fe       1.43442674       7.17213372       1.43442674       2.30000000
Fe       0.00000000       5.73770698       2.86885349       2.30000000
Fe       1.43442674       7.17213372       4.30328023       2.30000000
Ni       0.00000000       5.73770698       5.73770698       2.30000000
Fe       1.43442674       7.17213372       7.17213372       2.30000000
Fe       0.00000000       5.73770698       8.60656046       2.30000000
Fe       1.43442674       7.17213372      10.04098721       2.30000000
Ni       0.00000000       8.60656046       0.00000000       2.30000000
Fe       1.43442674      10.04098721       1.43442674       2.30000000
Ni       0.00000000       8.60656046       2.86885349       2.30000000
Fe       1.43442674      10.04098721       4.30328023       2.30000000
Fe       0.00000000       8.60656046       5.73770698       2.30000000
Fe       1.43442674      10.04098721       7.17213372       2.30000000
Fe       0.00000000       8.60656046       8.60656046       2.30000000
Fe       1.43442674      10.04098721      10.04098721       2.30000000
Fe       2.86885349       0.00000000       0.00000000       2.30000000
Fe       4.30328023       1.43442674       1.43442674       2.30000000
Ni       2.86885349       0.00000000       2.86885349       2.30000000
Fe       4.30328023       1.43442674       4.30328023       2.30000000
Fe       2.86885349       0.00000000       5.73770698       2.30000000
Fe       4.30328023       1.43442674       7.17213372       2.30000000
Fe       2.86885349       0.00000000       8.60656046       2.30000000
Fe       4.30328023       1.43442674      10.04098721       2.30000000
Fe       2.86885349       2.86885349       0.00000000       2.30000000
Fe       4.30328023       4.30328023       1.43442674       2.30000000
Fe       2.86885349       2.86885349       2.86885349       2.30000000
Fe       4.30328023       4.30328023       4.30328023       2.30000000
Fe       2.86885349       2.86885349       5.73770698       2.30000000
Fe       4.30328023       4.30328023       7.17213372       2.30000000
Fe       2.86885349       2.86885349       8.60656046       2.30000000
Fe       4.30328023       4.30328023      10.04098721       2.30000000
Fe       2.86885349       5.73770698       0.00000000       2.30000000
Ni       4.30328023       7.17213372       1.43442674       2.30000000
Fe       2.86885349       5.73770698       2.86885349       2.30000000
Fe       4.30328023       7.17213372       4.30328023       2.30000000
Ni       2.86885349       5.73770698       5.73770698       2.30000000
Fe       4.30328023       7.17213372       7.17213372       2.30000000
Fe       2.86885349       5.73770698       8.60656046       2.30000000
Fe       4.30328023       7.17213372      10.04098721       2.30000000
Ni       2.86885349       8.60656046       0.00000000       2.30000000
Fe       4.30328023      10.04098721       1.43442674       2.30000000
Fe       2.86885349       8.60656046       2.86885349       2.30000000
Ni       4.30328023      10.04098721       4.30328023       2.30000000
Fe       2.86885349       8.60656046       5.73770698       2.30000000
Ni       4.30328023      10.04098721       7.17213372       2.30000000
Fe       2.86885349       8.60656046       8.60656046       2.30000000
Ni       4.30328023      10.04098721      10.04098721       2.30000000
Fe       5.73770698       0.00000000       0.00000000       2.30000000
Fe       7.17213372       1.43442674       1.43442674       2.30000000
Fe       5.73770698       0.00000000       2.86885349       2.30000000
Ni       7.17213372       1.43442674       4.30328023       2.30000000
Ni       5.73770698       0.00000000       5.73770698       2.30000000
Fe       7.17213372       1.43442674       7.17213372       2.30000000
Fe       5.73770698       0.00000000       8.60656046       2.30000000
Fe       7.17213372       1.43442674      10.04098721       2.30000000
Ni       5.73770698       2.86885349       0.00000000       2.30000000
Ni       7.17213372       4.30328023       1.43442674       2.30000000
Fe       5.73770698       2.86885349       2.86885349       2.30000000
Fe       7.17213372       4.30328023       4.30328023       2.30000000
Fe       5.73770698       2.86885349       5.73770698       2.30000000
Fe       7.17213372       4.30328023       7.17213372       2.30000000
Ni       5.73770698       2.86885349       8.60656046       2.30000000
Ni       7.17213372       4.30328023      10.04098721       2.30000000
Fe       5.73770698       5.73770698       0.00000000       2.30000000
Ni       7.17213372       7.17213372       1.43442674       2.30000000
Fe       5.73770698       5.73770698       2.86885349       2.30000000
Fe       7.17213372       7.17213372       4.30328023       2.30000000
Fe       5.73770698       5.73770698       5.73770698       2.30000000
Fe       7.17213372       7.17213372       7.17213372       2.30000000
Fe       5.73770698       5.73770698       8.60656046       2.30000000
Fe       7.17213372       7.17213372      10.04098721       2.30000000
Fe       5.73770698       8.60656046       0.00000000       2.30000000
Fe       7.17213372      10.04098721       1.43442674       2.30000000
Ni       5.73770698       8.60656046       2.86885349       2.30000000
Ni       7.17213372      10.04098721       4.30328023       2.30000000
Ni       5.73770698       8.60656046       5.73770698       2.30000000
Fe       7.17213372      10.04098721       7.17213372       2.30000000
Fe       5.73770698       8.60656046       8.60656046       2.30000000
Fe       7.17213372      10.04098721      10.04098721       2.30000000
Ni       8.60656046       0.00000000       0.00000000       2.30000000
Fe      10.04098721       1.43442674       1.43442674       2.30000000
Fe       8.60656046       0.00000000       2.86885349       2.30000000
Fe      10.04098721       1.43442674       4.30328023       2.30000000
Ni       8.60656046       0.00000000       5.73770698       2.30000000
Fe      10.04098721       1.43442674       7.17213372       2.30000000
Fe       8.60656046       0.00000000       8.60656046       2.30000000
Fe      10.04098721       1.43442674      10.04098721       2.30000000
Fe       8.60656046       2.86885349       0.00000000       2.30000000
Fe      10.04098721       4.30328023       1.43442674       2.30000000
Fe       8.60656046       2.86885349       2.86885349       2.30000000
Ni      10.04098721       4.30328023       4.30328023       2.30000000
Fe       8.60656046       2.86885349       5.73770698       2.30000000
Fe      10.04098721       4.30328023       7.17213372       2.30000000
Fe       8.60656046       2.86885349       8.60656046       2.30000000
Fe      10.04098721       4.30328023      10.04098721       2.30000000
Fe       8.60656046       5.73770698       0.00000000       2.30000000
Ni      10.04098721       7.17213372       1.43442674       2.30000000
Fe       8.60656046       5.73770698       2.86885349       2.30000000
Ni      10.04098721       7.17213372       4.30328023       2.30000000
Fe       8.60656046       5.73770698       5.73770698       2.30000000
Fe      10.04098721       7.17213372       7.17213372       2.30000000
Fe       8.60656046       5.73770698       8.60656046       2.30000000
Ni      10.04098721       7.17213372      10.04098721       2.30000000
Fe       8.60656046       8.60656046       0.00000000       2.30000000
Ni      10.04098721      10.04098721       1.43442674       2.30000000
Fe       8.60656046       8.60656046       2.86885349       2.30000000
Fe      10.04098721      10.04098721       4.30328023       2.30000000
Ni       8.60656046       8.60656046       5.73770698       2.30000000
Fe      10.04098721      10.04098721       7.17213372       2.30000000
Fe       8.60656046       8.60656046       8.60656046       2.30000000
Fe      10.04098721      10.04098721      10.04098721       2.30000000
