128
Lattice="12.993607547132155 -0.4917841542784542 0.024958110624679397 -0.49388345581863696 12.341703322885774 -0.09914555412945088 0.04176378577909622 -0.1094062607077385 13.810867272045952" Properties=species:S:1:pos:R:3:forces:R:3:energies:R:1 energy=-914.3785380503675 stress="0.00043264459815989926 8.535435579562375e-05 5.878706487097162e-05 8.535435579562375e-05 8.222219055714827e-05 -8.380061917717992e-05 5.878706487097162e-05 -8.380061917717992e-05 -0.000515437114708409" free_energy=-914.3785380503675 pbc="T T T"
Nb       0.08652747      -0.40009628      -0.04540732      -0.00035335       0.00032766       0.00011543     -10.38092360
Al       0.79332598       2.16209954       0.93694624      -0.00011340       0.00017880       0.00038368      -4.22236901
Nb      -1.57285763       0.38406826       4.30530005      -0.00042141       0.00002918      -0.00017041     -10.07696763
Al       1.59599316       1.33615496       5.31882463      -0.00049811      -0.00014249      -0.00005125      -4.23384549
Nb      -0.26801786       0.06357655       6.88461922       0.00047011       0.00027981       0.00102352     -10.16240236
Nb       2.24187028       1.02207691       8.31563741      -0.00020393      -0.00004354      -0.00033429     -10.20878799
Nb       0.23967766      -0.25704755       9.71691360       0.00023241      -0.00006149      -0.00043339      -9.69881076
Nb       1.73830810       1.15227614      11.86877210       0.00036075      -0.00031088       0.00026514     -10.04229419
Nb       0.00650148       3.55959376      -1.23787203       0.00018080      -0.00026664       0.00018187      -9.84949931
Nb       1.27697040       4.74862070       2.08217111       0.00016504       0.00032337       0.00008159     -10.24792286
Nb      -0.11222924       3.00182141       3.77283782      -0.00002322       0.00022425      -0.00002202     -10.40547718
Al       0.49977380       5.75385913       4.67441638      -0.00000171       0.00017639      -0.00006099      -4.18289129
Nb       0.59977471       3.34594576       6.87479707       0.00020387       0.00015896      -0.00003640     -10.02846049
Al       1.67335610       4.91893332       8.84543518       0.00024068       0.00000346       0.00008530      -4.13023860
Al       0.54485280       2.76504698       9.87199721       0.00035997      -0.00000859       0.00025776      -4.26701361
Nb       2.48703721       5.09187763      11.47103007       0.00021252      -0.00022044       0.00000484     -10.00495061
Al       0.47169189       6.15671198      -0.18003796       0.00004143      -0.00005431       0.00001235      -4.12126150
Al       0.18577461       9.13871664       0.05860499      -0.00004846       0.00010601      -0.00007518      -4.29974626
Al      -1.30351599       7.78844879       4.76353683      -0.00017326       0.00011095      -0.00000787      -4.37152645
Al       1.11698886       8.32753053       5.60224863       0.00006334       0.00014383      -0.00027977      -4.26062073
Nb      -0.38854971       6.70786830       7.36114159       0.00022029       0.00042211      -0.00009910     -10.08058759
Nb       0.94115790       7.51401744       9.44921372      -0.00007348      -0.00016372       0.00023466      -9.85562702
Nb      -0.23020955       5.49917125      10.85983337       0.00020617      -0.00029406       0.00028733     -10.07365411
Nb       1.97086829       7.82104311      11.97380779      -0.00000840       0.00006309       0.00007599     -10.22250033
Nb      -2.60732873       9.80175481       0.01530066      -0.00010685      -0.00016335      -0.00010669      -9.88476238
Al       1.30364403      10.49253125       1.94944024      -0.00017345       0.00010963      -0.00008025      -4.18983131
Al      -1.33428286      10.52916230       2.26303361      -0.00019357       0.00003996      -0.00006705      -4.31210224
Nb       0.00317859      10.59487157       4.60964442      -0.00034620      -0.00011185      -0.00036394     -10.43492161
Al      -1.49271311       9.63711485       6.75136701      -0.00020097       0.00036140      -0.00025955      -4.27252133
Nb       0.81987591      10.01812820       8.16766272       0.00040110      -0.00016832      -0.00017022      -9.89893397
Nb       0.64317408      10.19925169      11.20048872       0.00005537       0.00004441      -0.00001741      -9.91569460
Al       2.56109190      10.40827332      13.15526882      -0.00012524       0.00039462      -0.00009636      -4.22831456
Al       2.92538753       0.53900198       0.43443761      -0.00041216       0.00008598       0.00077176      -4.27730587
Nb       5.42760294       1.75838281       1.01431688       0.00006500      -0.00021825       0.00008059     -10.16866817
Al       2.98848557      -0.40326588       4.00900585      -0.00012612      -0.00012644      -0.00007485      -4.07787782
Al       6.98639406       0.85945721       5.87845112      -0.00003818      -0.00013049      -0.00002155      -4.30136853
Al       2.59428624      -1.11508064       6.33147950      -0.00052332      -0.00015236      -0.00000399      -4.14830593
Nb       5.39112725       1.37623188       8.76133073       0.00010688      -0.00018515      -0.00037194     -10.05873553
Nb       3.49967505      -0.44330072      10.78200829       0.00025396       0.00004833      -0.00039592     -10.04275872
Al       4.99099834       1.61695752      11.96433669      -0.00006418      -0.00003278       0.00024116      -4.18760037
Nb       3.27548322       3.19240568      -0.09524761       0.00014687      -0.00003781       0.00023049     -10.05182786
Al       4.17174993       4.31701940       2.39157827       0.00026646       0.00018526       0.00017698      -4.12346712
Nb       2.90127010       2.01746771       2.83546751      -0.00011743       0.00018421       0.00041125     -10.31977703
Al       7.45810891       5.65827344       6.01834254       0.00019868      -0.00016552       0.00032395      -4.21734406
Al       4.24714735       1.09746333       6.20837427      -0.00022730       0.00009895      -0.00027025      -4.17412870
Nb       3.57272909       3.57077922       7.25085794       0.00012883       0.00007439      -0.00002966     -10.09906389
Nb       3.37491634       2.95729792      10.23318501       0.00045320       0.00000275       0.00001876      -9.96765186
Nb       5.41992610       4.45349592      12.09905846      -0.00001436       0.00007826      -0.00029737     -10.20444120
Al       3.01265564       5.81621577       0.31923922       0.00012476      -0.00006994      -0.00010444      -4.08660049
Al       5.06255381       6.74482677       1.63109261      -0.00000072       0.00014499      -0.00004819      -4.00430932
Al       2.41683144       4.09124220       4.67691001       0.00009177       0.00024071       0.00007195      -4.31890762
Al       2.97398687       9.28652481       3.90754656      -0.00011827       0.00012529      -0.00023042      -4.13152836
Nb       2.52665567       6.21479413       6.55530758      -0.00011755       0.00007642      -0.00000273      -9.79250741
Al       5.67393559       9.00792952       8.75133833      -0.00003024      -0.00017778       0.00004393      -4.33728443
Nb       3.94075342       6.64409991       9.68086366       0.00005010      -0.00002729      -0.00011648     -10.24252627
Al       4.52987612       6.99569353      12.65906966       0.00019139       0.00016812       0.00007214      -4.04666937
Nb       2.86701407       8.37039283       1.20228920      -0.00027896      -0.00006641      -0.00011577     -10.29600391
Nb       4.01651480      11.15586597       1.86007105      -0.00019205       0.00001535       0.00029494     -10.13750956
Al       2.79179041       6.71511842       3.56722000       0.00023012       0.00021116       0.00007543      -4.30984786
Nb       4.75245458      10.90576490       5.33048135      -0.00016691       0.00004477      -0.00004893     -10.08585309
Nb       3.43435675       8.62670443       6.94266262      -0.00025216       0.00001224       0.00026369     -10.02479470
Al       3.90705934      11.18033818       8.11718705      -0.00024673      -0.00012481      -0.00024302      -4.34149627
Al       2.92050537       9.29225276       9.66908581      -0.00012597      -0.00009646      -0.00012172      -4.00708698
Nb       4.79519869       9.44705514      11.49711212       0.00026937       0.00010898       0.00018063      -9.93692411
Al       5.39405674      -0.59407399      -0.65843361      -0.00017514       0.00001824       0.00000218      -4.20382124
Al       8.27845209       2.05347115       1.43315363       0.00027768       0.00006214      -0.00015032      -4.32584336
Al       5.79803692       0.66381538       3.53927041      -0.00013530       0.00002655       0.00002547      -4.23578510
Al       8.70419034       0.65345725       3.62184191      -0.00022924       0.00000371      -0.00009872      -4.25214402
Al       7.18634614      -1.00420486       7.67914002      -0.00028194      -0.00023321      -0.00017115      -4.28766467
Nb       8.60245817       1.50409371       8.23581330      -0.00001622      -0.00036142       0.00004482      -9.99460795
Nb       6.41045526      -0.68016155      10.36722395       0.00000416      -0.00004021      -0.00012059     -10.24340255
Nb       7.63795544       0.81556931      12.80328433       0.00008827      -0.00016676       0.00003299      -9.87063612
Al       7.95967173       3.62902565      -0.96278415       0.00005420      -0.00018523      -0.00011238      -4.20538805
Nb       7.13524960       3.42440793       3.52661780       0.00010200      -0.00022728      -0.00021704     -10.25655346
Al       4.73619249       3.06745330       4.62553876       0.00017711       0.00031129       0.00019567      -4.08558805
Al       9.17504511       5.39134777       4.08447852      -0.00013697      -0.00001811       0.00006256      -4.11644093
Nb       6.26130827       3.33267910       6.86373627       0.00004961      -0.00016381       0.00020291      -9.92268230
Nb       8.61564011       4.28917999       8.17606301       0.00030598      -0.00027783       0.00007631     -10.10061075
Nb       7.20703378       2.48341021      10.37769845      -0.00018815      -0.00015600      -0.00007002      -9.87790782
Al       8.02539312       5.14837472      10.77472843       0.00020140      -0.00019478      -0.00009720      -4.26878340
Al       6.30388344       4.32394557       0.96023495      -0.00017966      -0.00010438      -0.00032119      -4.15725706
Al       7.29665964       6.32532672       2.68331560       0.00000469      -0.00019260      -0.00024398      -4.21219834
Nb       5.20506107       5.94057038       4.52176545       0.00041529       0.00021820       0.00000972     -10.16068259
Al       8.04243347       7.99509904       4.59181540      -0.00032927      -0.00048196       0.00013535      -4.18985806
Al       5.11111996       6.12790457       7.26100807       0.00005943       0.00009960      -0.00003181      -4.23247930
Nb       7.59264284       6.93983418       8.55342492       0.00016486      -0.00005068       0.00010094     -10.03633912
Al       5.66457775       4.49122941       9.27951543       0.00018908       0.00011954      -0.00010660      -4.19804094
Al       7.32752560       6.14607825      13.36006977       0.00020296      -0.00013483      -0.00018258      -4.17338515
Al       5.40241516       9.28782704       0.38786451      -0.00008730       0.00016525      -0.00006123      -4.23036284
Nb       6.80490603      11.60559648       1.37890991       0.00001290       0.00018785      -0.00009210     -10.24014906
Nb       5.79855874       8.86874549       3.14016951      -0.00004798       0.00004938      -0.00006622     -10.11902062
Nb       7.29874218      10.70055339       4.66535443      -0.00003419      -0.00013526      -0.00004388     -10.12598973
Al       6.00233191       8.38581495       5.96879115      -0.00027585       0.00018534      -0.00005934      -4.22880387
Al       8.13102939       9.53467190       9.92374982      -0.00008514       0.00001441       0.00001228      -4.36845167
Al       6.50358151       7.36001812      11.08428112      -0.00006881      -0.00022735      -0.00012764      -4.28132190
Nb       7.48205514       9.99620790      12.50320169      -0.00001686      -0.00012629      -0.00005856     -10.12265659
Al       9.84390337      -0.54359687      -0.26009602       0.00025823      -0.00010913      -0.00008175      -4.21813358
Nb      11.13616238       0.69411810       1.77694477      -0.00041722       0.00004413       0.00026215     -10.13847202
Nb       9.41618341      -1.87034383       2.48800310      -0.00028745      -0.00019825      -0.00008730      -9.86294730
Al      11.05402121       1.86035338       6.27919286       0.00008453      -0.00001718       0.00020739      -4.16982648
Al       9.71727842      -0.44386664       6.48610846       0.00000058      -0.00012226      -0.00004916      -4.28967204
Al      11.30095678       1.08170087       8.90569280       0.00020421       0.00029954       0.00017221      -4.34190654
Nb       9.21753400       0.04801516      10.76631011       0.00004600       0.00011327       0.00020091     -10.00518373
Al      11.84933834       0.59461394      11.76702634       0.00029210      -0.00007374      -0.00037296      -4.31711954
Nb      10.21404643       2.23656343      -0.50572895       0.00039690      -0.00013227      -0.00019984      -9.85828070
Al      11.77704931       3.53805026       1.21591821      -0.00000959       0.00016463       0.00003982      -4.20933362
Nb      10.16142932       2.88044605       3.36446601      -0.00005060       0.00005876       0.00023065     -10.10873268
Nb      11.09142028       4.54495867       5.81687428      -0.00000699       0.00003457       0.00005250      -9.91281247
Al       8.72638599       2.93836092       5.74508437      -0.00003549      -0.00013737       0.00005602      -4.27278458
Nb      11.55787389       3.80108928       8.40967180       0.00050016       0.00038634       0.00006598      -9.65536056
Nb      10.15199567       2.90147603      10.69637615       0.00013315       0.00001491       0.00006017     -10.35000182
Al      10.47723758       4.89298948      12.53234726       0.00002581      -0.00000324       0.00003736      -4.26464195
Nb       9.19459635       4.89541863       1.28438691      -0.00003786      -0.00019359      -0.00005560     -10.50034400
Nb      13.43318802       7.41336760       2.63181570      -0.00012153       0.00016304       0.00003488     -10.41482377
Al      11.58519596       5.29111431       2.94545228      -0.00005720      -0.00000171       0.00005326      -4.26515978
Nb       9.97735185       7.69198972       2.60154067      -0.00022561      -0.00009204      -0.00003726     -10.16096037
Nb       9.77941452       6.86453269       6.71868591       0.00015031       0.00002660       0.00019957      -9.93034192
Nb      11.09114168       8.45254229       9.30393243      -0.00009197       0.00023965      -0.00003309     -10.02917575
Nb      10.45011453       5.94830536       9.72412871       0.00032468       0.00007146       0.00003351      -9.81151104
Al      11.91497390       7.56799224      11.75180027       0.00008998      -0.00006557      -0.00011406      -4.10256517
Al      11.19514359       6.70540298       0.48450533      -0.00002736      -0.00004565       0.00007650      -4.04083098
Al      13.12932983      12.23528130       2.69610553      -0.00022274       0.00009354       0.00003582      -4.12094002
Al       7.86293514       8.43403724       0.92091009      -0.00020744      -0.00018582      -0.00013311      -4.01396282
Al      10.07943499       9.60010396       4.76961875      -0.00018471      -0.00022960      -0.00005236      -4.18888683
Nb       8.48652797       9.14813164       7.19746680      -0.00008333      -0.00006502      -0.00000385     -10.20153343
Al      10.12290070      10.95178486       8.64375851      -0.00034809       0.00036353       0.00009407      -4.09856070
Nb       9.21245461       7.51395042      11.80912237       0.00006359      -0.00001580      -0.00024714     -10.09949938
Nb      10.68165089      10.16176160      11.39437196      -0.00005029      -0.00015216       0.00004832     -10.01374249
