128
Lattice="13.757305762542082 -0.4305419722459664 0.08394566770182944 -0.434150511916754 12.49764829573233 -0.3337178183042299 0.0912516435766542 -0.34677962007947677 12.912268204594106" Properties=species:S:1:pos:R:3:forces:R:3:energies:R:1 energy=-913.6813026672914 stress="-0.0005023419396533883 0.00017642447217822483 -0.00020191527611009808 0.00017642447217822483 0.0003382534717992174 4.0582410177499325e-05 -0.00020191527611009808 4.0582410177499325e-05 0.00018252066458108025" free_energy=-913.6813026672914 pbc="T T T"
Nb       0.81196760      -0.18223605       0.88223014       0.00008737      -0.00002592       0.00017996     -10.04291721
Al       3.43607375       0.01560973       2.55803433      -0.00027505      -0.00009472      -0.00127508      -4.03842601
Nb       1.65888848      -0.59820786       4.55499766      -0.00045403       0.00008679      -0.00026639     -10.20144487
Al      -0.24391773       2.37046586       7.23265064       0.00034988      -0.00023174       0.00017675      -4.25249170
Nb      -2.45058314       0.18138905       7.22359105       0.00000286      -0.00026634       0.00026532     -10.28877930
Nb       2.35602164       1.63117904       8.57918162      -0.00009513      -0.00005657      -0.00007945     -10.35137367
Nb      -0.46909671      -1.27683450      11.07761148      -0.00031854      -0.00003932       0.00077945      -9.79690390
Al       1.82410218       0.35600183      11.27255932       0.00016512      -0.00029925      -0.00003797      -4.07377115
Al       0.81762301       2.35484303       0.22287967       0.00005923      -0.00024870      -0.00003523      -3.93125857
Al       2.53400487       4.01981535       1.48132385      -0.00021688       0.00077395       0.00005553      -4.16497015
Nb       1.21162572       1.86744481       2.94475968       0.00036026       0.00026571      -0.00002159     -10.13156087
Nb       1.91566843       4.88334248       4.00118370       0.00009994       0.00005872      -0.00040340     -10.07128952
Nb      -0.47099585       3.77065491       4.80081769       0.00030400      -0.00024751      -0.00006521     -10.06910836
Nb       1.81926533       4.39912105       7.08128939       0.00013255      -0.00002652      -0.00010529     -10.35235504
Al       0.34151219       3.28264004       9.75178174       0.00002752      -0.00012508       0.00001101      -4.29749506
Nb       0.80092253       4.47639610      12.20407484       0.00009564       0.00020152       0.00017550     -10.09631529
Al       1.37731619       6.25763052       1.50885176       0.00002408      -0.00003117      -0.00007783      -4.16075556
Nb       2.94236599       7.99295673       2.68762500       0.00007221       0.00023578      -0.00003275      -9.84093234
Al       0.09900601       8.63600072       1.52815012      -0.00029678       0.00022564      -0.00049263      -4.08987363
Al       3.05062481       9.91144846       4.77115887      -0.00099841       0.00031788       0.00017724      -4.16687822
Al       0.28406634       6.24037992       5.67068606       0.00005057       0.00023629       0.00022050      -4.02729342
Al       1.01686591       6.93567868       8.03791754       0.00022022      -0.00007596      -0.00015340      -4.12726490
Al      -0.60249744       5.84429730      10.20128162       0.00001830      -0.00004372       0.00006816      -4.19249545
Al       0.88700924       7.14127559      11.90632725       0.00003734       0.00001909      -0.00006060      -4.28613287
Al      -1.60568721       9.69706210      -0.10270103       0.00015527      -0.00013342       0.00033886      -4.14924099
Al       1.82610320      10.37252288       1.85149461       0.00033235       0.00069361      -0.00010785      -4.20963262
Nb       0.54546134       8.78469251       4.18321732      -0.00022673      -0.00011103       0.00061638     -10.16029013
Al      -1.28823665      10.70880771       5.19714298      -0.00018982      -0.00033722       0.00017016      -4.24989314
Al      -1.03896064       8.16110865       6.59529662       0.00028195      -0.00048575       0.00011354      -4.17202415
Al       0.15579666      12.32902877       6.71786456      -0.00034790      -0.00023275       0.00009216      -4.31574824
Nb      -0.62681586       8.62239891       9.70120369      -0.00004941      -0.00018001      -0.00021463     -10.02650914
Nb       1.14664831       9.85970095      11.97364210      -0.00035400       0.00024178      -0.00004612      -9.87778208
Nb       3.79986389      -0.81031630      -0.05762754      -0.00089584       0.00085107       0.00081086     -10.19885129
Nb       6.14862019       0.82892792       1.67056984      -0.00002884       0.00008213       0.00057109     -10.32914706
Al       6.36168195      -0.62911266      -0.83409280       0.00108587       0.00000042       0.00006226      -4.13908790
Nb       4.37847656       2.08334180       6.40565946       0.00036052      -0.00042378       0.00018167      -9.98695358
Al       3.62463806      -0.49047032       7.28386923      -0.00172249      -0.00060245      -0.00144403      -4.33326111
Al       4.18411790      -0.15211158       9.95665667       0.00009947       0.00010107      -0.00130934      -4.22988764
Nb       1.88458571      -1.53352318       9.32180247       0.00009401       0.00016610       0.00045576     -10.15145049
Al       5.25643837       1.37448037      11.85419892       0.00002711      -0.00029307      -0.00016065      -4.19549572
Al       3.33994343       1.73807413       0.79088886       0.00019558      -0.00080213      -0.00012581      -4.10919439
Nb       5.31887403       3.87150089       0.87418351      -0.00001388       0.00025525      -0.00021324     -10.03402541
Nb       3.90918063       2.54391908       3.54142911       0.00020040       0.00041179       0.00016828     -10.09148841
Nb       4.38079439       4.91559314       5.80932970       0.00021256      -0.00053150      -0.00015036     -10.06224509
Al       1.75535625       2.05270334       5.59485802       0.00026706      -0.00000969       0.00013955      -4.20001248
Al       4.05040588       3.80528188       8.46643025       0.00030779      -0.00025697       0.00011184      -4.09134569
Al       2.96624542       2.91939726      11.26825196      -0.00011689       0.00000809      -0.00016773      -4.09631583
Al       5.32562300       4.05745389      10.86910830      -0.00035866       0.00005719       0.00017448      -4.29531822
Nb       3.73035325       5.98401392      -0.13024151       0.00024024       0.00062203       0.00020514     -10.32018752
Al       5.50460004       7.63933425       1.38566110       0.00045516       0.00062822      -0.00003154      -4.14766846
Nb       4.38028973       5.73648528       2.96698280      -0.00030563       0.00002444      -0.00013486      -9.87863814
Nb       5.36977247       8.61132439       4.04622908      -0.00058566       0.00220634       0.00017641      -9.99470820
Nb       2.83423580       7.34818028       5.60859143       0.00024000      -0.00023264      -0.00017064     -10.13030313
Al       3.63680490       6.48790885       8.05674958       0.00014734      -0.00010037      -0.00029948      -4.16151861
Nb       2.31660075       5.35035125      10.16393985      -0.00011563      -0.00000727      -0.00013400     -10.29329585
Al       4.71796823       6.88785191      10.45793025      -0.00062632      -0.00000383      -0.00052535      -4.23114513
Nb       3.28676096       8.68199428      -0.25671184      -0.00008031       0.00049817      -0.00014442     -10.10576376
Nb       5.89421267       9.02871021      -0.90794890       0.00195459      -0.00108631       0.00118827     -10.10071049
Al       4.74638639      10.24501679       1.81170439      -0.00022592       0.00069950      -0.00046118      -4.35049357
Al       4.18332596      12.24345757       4.42931819       0.00021755      -0.00059550      -0.00022592      -4.16987320
Nb       3.69311834       9.37167479       7.73585048       0.00003220      -0.00030455       0.00016544     -10.14786385
Al       1.09813190       9.68130680       6.69501079      -0.00056591      -0.00112472      -0.00039460      -4.40642398
Al       2.24244812       8.27702750       9.89551669       0.00007105       0.00039487      -0.00017865      -4.21278348
Al       4.15339908       9.87384248      10.35420602      -0.00022487      -0.00002222      -0.00152226      -4.22354419
Nb       9.01495578       0.33675739      -0.06233182      -0.00015926      -0.00040029       0.00003270     -10.06752487
Nb       8.23710097       2.57627619       2.35563639       0.00007286      -0.00060320       0.00060859      -9.93193148
Al       6.53316819       1.33946212       4.31106307      -0.00025316       0.00101271       0.00030803      -4.06682811
Nb       9.08520649       1.22624519       5.35568458       0.00018195       0.00102948       0.00060447      -9.99343097
Al       6.63669382       0.54195628       6.78927470       0.00001145       0.00082008       0.00086258      -4.10907505
Nb       8.94477081       1.38993364       8.17727113       0.00032262       0.00052039       0.00049998     -10.21304761
Al       7.76290921       0.62677667      10.55414711       0.00009028      -0.00006869       0.00062853      -4.30549969
Nb       9.83562793       2.21442903      11.11273662      -0.00004240      -0.00007825       0.00023192      -9.80116672
Nb       7.50007230       3.05825964      -0.38079618      -0.00003632      -0.00042912       0.00053538      -9.87756442
Nb      10.51945956       4.97963901       2.45386087       0.00005672       0.00065784      -0.00048998     -10.03537521
Nb       6.16094402       3.87901211       3.73654099       0.00028265      -0.00057476      -0.00075870      -9.43079004
Al       8.84360533       4.19949211       4.66444317      -0.00032427       0.00144876       0.00028673      -4.27555204
Nb       6.93442590       3.34333558       6.66781507       0.00007299       0.00164726      -0.00024007     -10.14031543
Nb       9.22948631       4.42128896       7.49709942       0.00064292      -0.00156124       0.00065136      -9.92949097
Nb       5.80479417       1.86518271       9.05467194       0.00046972       0.00105217       0.00031009     -10.05833445
Al       7.91562976       3.81450247       9.88995123       0.00023167       0.00058951       0.00093406      -4.32477115
Al       6.63474613       6.06270410      -0.63349000      -0.00002140       0.00022672      -0.00058069      -4.21811703
Al      10.03701464       7.33716935       1.41875322       0.00156268      -0.00162366       0.00098670      -4.32845614
Nb       7.64830528       5.72925466       2.01576025       0.00017222      -0.00049424      -0.00084276     -10.25857730
Al       9.28343602       7.00221615       4.16881007      -0.00011109      -0.00017995      -0.00012116      -4.20979348
Nb       6.91478473       6.14070514       5.04128072      -0.00059998       0.00161011      -0.00316626      -9.74919290
Nb       8.36774820       6.91381183       7.22162249      -0.00063874      -0.00247538      -0.00170783      -9.78105652
Nb       6.32490849       5.50560022       8.47181197      -0.00000507      -0.00008228       0.00007092     -10.14211138
Nb       8.38149339       6.83867401      10.08713637       0.00040630       0.00011749      -0.00027447     -10.14229565
Al       6.32051750       8.85380576      -3.93299194       0.00004509      -0.00046499      -0.00066973      -4.33710655
Al       7.21784993      10.81464111       0.97832085       0.00018984      -0.00061939      -0.00000857      -4.15200616
Al       7.80124230       8.68318122       2.77762574      -0.00014908      -0.00046807       0.00070038      -4.27150731
Nb       6.80422718      11.16739995       3.78604701       0.00063607       0.00011904       0.00011326     -10.32272358
Al       5.56091347      10.42045581       6.11177568       0.00000686       0.00106149       0.00042853      -4.39907567
Nb       6.18459697      11.26678433       8.60731156       0.00035826       0.00006486      -0.00006313     -10.17567526
Al       5.50005359       7.61288255       6.68329688      -0.00022280       0.00000906      -0.00001294      -4.21492488
Al       7.85435200      10.32591125      10.63580948       0.00000379      -0.00015323       0.00010160      -4.20720738
Al      11.55297344      -0.74351611       0.30241019       0.00053322       0.00052486       0.00016420      -4.13415061
Nb      12.51101926       0.92665450       2.16960819       0.00046092       0.00051981       0.00019402      -9.70824654
Nb       9.64646506       0.09684948       2.61008185       0.00094415      -0.00015701       0.00040137     -10.00624038
Nb      12.51711786       0.46865388       4.90689065      -0.00020337      -0.00011470       0.00017554     -10.09619732
Al       8.61344563      -1.03393807       6.76574157       0.00031785      -0.00010431       0.00074960      -4.21349080
Al      13.46198803       0.20678287       9.32447834       0.00009158       0.00003678      -0.00020448      -4.18496243
Al      10.57534687      -0.51067115      10.14726148      -0.00015958      -0.00018230       0.00002773      -4.37692184
Nb      12.43449842       1.15724715      11.79610433      -0.00016539      -0.00019261       0.00044811     -10.25878889
Al      10.49643406       2.52605703       0.87717383       0.00016579      -0.00030735       0.00016613      -4.19728885
Nb      13.17456838       3.69973981       1.78315777       0.00006459       0.00006255      -0.00007047     -10.23492396
Nb      10.95283266       2.68695913       3.68429992      -0.00014206       0.00048682       0.00051917      -9.77468515
Al      13.08117959       5.86925138       3.41995407      -0.00006844      -0.00025316       0.00006510      -4.28025800
Al      11.07912972       2.60216341       6.46447292       0.00047768      -0.00073080       0.00010639      -4.23579611
Nb      12.53162571       4.60741650       7.77470045       0.00030308       0.00008986       0.00023432     -10.32380039
Al      11.54351271       2.17944460       9.05689942       0.00016878      -0.00002457       0.00034736      -4.28266276
Al      11.85344832       3.79807046      12.14850551      -0.00013577       0.00002598       0.00049515      -4.29884475
Nb       9.28012358       5.25520633      -0.22502258      -0.00008372      -0.00029056      -0.00051132     -10.20968246
Nb      11.62083093       8.22451180       3.50729258       0.00017867      -0.00027789      -0.00084069     -10.11834733
Al      12.37561695       6.18619062       0.70693861       0.00010372       0.00049378       0.00024804      -4.04953954
Al      10.41962838       8.64943817       6.17456772      -0.00024124      -0.00099228      -0.00016813      -4.26178196
Nb      11.14790091       5.59714337       5.59806499       0.00027838      -0.00028230      -0.00005723     -10.32555156
Nb      10.89610834       7.13002697       8.60390307      -0.00044532      -0.00026080       0.00018916     -10.17689550
Al      10.48251836       4.71413719       9.94520967       0.00037526      -0.00002298       0.00028185      -4.25917049
Al      11.05913123       6.84243985      11.43437163       0.00019247      -0.00005038      -0.00009757      -4.14586283
Al       8.32617337       8.14972370      -0.14535707      -0.00298150       0.00077721      -0.00164232      -4.31432899
Nb      12.45223233      10.64737434       2.56068462      -0.00035957       0.00015634       0.00012150     -10.10921192
Nb       9.79469250      10.05264347       1.47514048      -0.00112550      -0.00009359       0.00085217      -9.72243173
Nb       9.86052674      10.65120707       4.21506056      -0.00020829      -0.00046861       0.00081840      -9.99989261
Al       7.77175962       9.02644990       5.48862845      -0.00031138       0.00011874       0.00072470      -4.29207928
Nb      12.04666338      10.03715930       8.19920841      -0.00031992      -0.00019388       0.00006609     -10.16154151
Nb       8.99527780       9.66171845       8.28541116      -0.00003737      -0.00076347      -0.00059466      -9.89489639
Nb      10.32157281       9.41777799      11.00155738      -0.00031671       0.00008681       0.00024917      -9.93009500
