128
Lattice="12.209113210564794 -0.0286983872737217 0.044056255554353434 -0.0284881240350873 12.358364700893576 -0.04188439537834829 0.04380114776816014 -0.04261310148568273 12.305535058570857" Properties=species:S:1:pos:R:3:forces:R:3:energies:R:1 energy=-840.0443411088698 stress="0.0005934503997667511 0.00012247141484312185 -0.00031324965667302876 0.00012247141484312185 -0.00011471433345039829 -3.667008398090326e-05 -0.00031324965667302876 -3.667008398090326e-05 -0.0004563164847077985" free_energy=-840.0443411088698 pbc="T T T"
V       -0.04105777       0.02719529      -0.04577874       0.00006376       0.00064230      -0.00020511      -8.74158950
Al       1.55371335       1.53527537       1.35890907       0.00064196       0.00035406      -0.00021458      -4.16323055
V        0.06673515      -0.00564959       3.02544314       0.00002845      -0.00010511      -0.00072433      -8.91490591
Al       1.39773460       1.53509441       4.67047274       0.00054548       0.00037095      -0.00025853      -4.18386261
V       -0.00024888      -0.12409567       6.15828037       0.00028220       0.00010835      -0.00037920      -8.94204381
V        1.49815364       1.14335155       7.75324329      -0.00014331      -0.00041740       0.00017964      -8.89334711
V        0.11140352      -0.20489332       9.30091843       0.00092803      -0.00020303       0.00096756      -8.89615964
V        1.48476729       1.52079304      10.70779320       0.00033813       0.00013845       0.00001703      -8.96755910
V        0.09476445       3.06061798      -0.10411201       0.00006017       0.00022234       0.00000094      -8.86524680
V        1.42419711       4.59919870       1.59124709      -0.00074177      -0.00002672       0.00019112      -9.04407025
V        0.12659156       3.13806433       2.91138074       0.00024774       0.00057024      -0.00013713      -8.67538466
Al       1.51487072       4.39795476       4.62824553       0.00027500       0.00001253       0.00013707      -4.29177389
V       -0.09015829       3.07440449       6.21682445       0.00006388       0.00001502       0.00011968      -8.98428029
Al       1.55662098       4.68945976       7.67922757      -0.00145021       0.00149742       0.00139292      -4.14222011
Al       0.12023215       3.04974851       9.03346780       0.00038295       0.00025986      -0.00060160      -4.25681686
V        1.63322640       4.46035905      10.74814705      -0.00032735      -0.00016167      -0.00045762      -8.87667882
Al      -0.15980429       5.99221850      -0.25168899      -0.00034962       0.00086705       0.00050522      -4.28778291
Al       1.52165057       7.31257745       1.41261756      -0.00083186       0.00023037       0.00017739      -4.23635472
Al      -0.06326297       6.07061949       3.23840562       0.00023326       0.00049807       0.00053241      -4.31514783
Al       1.50883101       7.74228047       4.80922599       0.00031757       0.00040414       0.00014757      -4.18291131
V       -0.06780555       6.01603554       6.10582126       0.00013067      -0.00010542       0.00032190      -8.93041914
V        1.51665880       7.54705507       7.71135313      -0.00008405      -0.00009332      -0.00033492      -8.80850404
V        0.02660607       6.16522967       9.18058895       0.00286665      -0.00219401      -0.00278058      -8.98203575
V        1.54447880       7.51526925      10.63452729       0.00088000      -0.00033645       0.00052088      -8.93286363
V       -0.13274140       8.97270131       0.16763055      -0.00370253      -0.00356377       0.00318617      -8.67257440
Al       1.46736720      10.86173874       1.42724298      -0.00024414      -0.00008749       0.00038277      -4.30925734
Al       0.17038531       9.05008005       2.94635452      -0.00047948      -0.00002764      -0.00101255      -4.33772397
V        1.43553394      10.77231480       4.61241044       0.00020372      -0.00018629       0.00005804      -8.90905692
Al      -0.04843394       9.20258061       6.32636414      -0.00093231       0.00059038       0.00049191      -4.23811910
V        1.50584339      10.82535237       7.57025019      -0.00000238      -0.00014403       0.00018537      -8.69240821
V       -0.00125233       8.99791846       9.23418640       0.00031452       0.00184364      -0.00101162      -8.72512278
Al       1.32635965      10.49990224      10.89138445       0.00162551       0.00156397      -0.00255901      -4.18369304
Al       3.04230700      -0.05336553      -0.16391130      -0.00005609       0.00022309      -0.00017764      -4.35386647
V        4.53975698       1.57421646       1.72344901       0.00052823       0.00015530       0.00017140      -8.85866815
Al       3.00237872       0.02533353       3.16062737       0.00004411      -0.00023226      -0.00008231      -4.32054864
Al       4.54266918       4.29120596       4.91096560      -0.00055719       0.00017142       0.00000003      -4.12222564
Al       3.09265660      -0.14906956       6.12495625       0.00000425      -0.00003733      -0.00028624      -4.25661085
V        4.57755685       1.41851664       7.82624962       0.00006407      -0.00050487      -0.00012093      -8.88099034
V        2.80197600      -0.06048932       9.48312991      -0.00116268      -0.00077688       0.00108526      -8.69755391
Al       4.61217873       1.47996711      10.62378729      -0.00000561       0.00019495       0.00006805      -4.10548033
V        3.05156453       3.13696228      -0.11111463       0.00073543       0.00068751       0.00006314      -8.75105063
Al       4.71057887       4.43445496       1.40129208       0.00120542      -0.00013024       0.00011271      -4.27283497
V        3.16248310       2.91611984       2.92795414       0.00075696       0.00031944      -0.00008834      -8.89678456
Al       6.24723186       5.81001043       6.13738477      -0.00022750       0.00012041       0.00025655      -4.18878770
Al       2.94513373       2.82848409       6.38993856      -0.00002696      -0.00113060      -0.00063582      -4.24102383
V        4.64460251       4.31646763       7.69724347      -0.00013319       0.00056472       0.00044913      -8.91076518
V        3.05635956       2.95585301       9.17432859      -0.00054959       0.00007486       0.00019696      -9.02033959
V        4.55764628       4.32719753      10.76465668      -0.00021300      -0.00031459       0.00058029      -8.91847143
Al       3.10066236       6.01466042      -0.17715985      -0.00034025      -0.00078231       0.00043841      -4.09348004
Al       4.55250617       7.58527491       1.71318987      -0.00010726      -0.00057722      -0.00027226      -4.25291900
Al       3.19129384       5.82349022       3.25389635      -0.00008782      -0.00003598       0.00007717      -4.23992539
Al       4.54885463       7.77411642       4.63397095       0.00000426       0.00033108       0.00011362      -4.35863887
V        3.06108396       6.16692180       6.05594204      -0.00001121       0.00106554      -0.00017451      -8.87011026
Al       4.56142901       7.45690305       7.70661943       0.00032262      -0.00008488       0.00019498      -4.23928914
V        3.13399637       5.91271856       9.28081044      -0.00090580      -0.00025242      -0.00028954      -8.85755979
Al       4.44207351       7.77751487      10.63020426      -0.00033837      -0.00020623       0.00041039      -4.29542049
V        3.10293172       9.14074075       0.25290503       0.00044546      -0.00062982       0.00035618      -8.90050035
V        4.35694953      10.72798580       1.45669253       0.00054373       0.00021018      -0.00007195      -8.81265928
Al       2.91255040       9.26635417       3.02216479       0.00013760      -0.00000563      -0.00037739      -4.09306962
V        4.66404371      10.73153486       4.40353311       0.00015069      -0.00040555      -0.00016818      -8.84083958
V        3.16283493       9.16391425       6.28450895      -0.00004716      -0.00003287       0.00053044      -8.91996568
Al       4.35321232      10.95071208       7.96821109       0.00003294      -0.00000404       0.00012874      -4.24479065
Al       2.79778273       9.25247154       9.15333810       0.00008315       0.00041583       0.00018091      -4.19250466
V        4.59762934      10.44746391      10.81624853      -0.00032861      -0.00035333       0.00013546      -8.89381870
Al       5.93700131      -0.07136242       0.05144456       0.00007862       0.00002216      -0.00035552      -4.36988793
Al       7.66381952       1.35819798       1.55808044      -0.00002398      -0.00012844       0.00025312      -4.27984059
Al       4.68438138       1.52863398       4.53240685      -0.00023586      -0.00002229       0.00002492      -4.23143989
Al       7.73801035       1.32565620       4.65792306       0.00007365       0.00010566      -0.00025809      -4.32537539
Al       6.00083483       0.01131640       6.20221307      -0.00017752       0.00016562      -0.00005709      -4.44401552
V        7.69957548       1.31880517       7.70826635      -0.00049248      -0.00050691       0.00011385      -9.02385585
V        6.27127513      -0.21152326       9.34013005       0.00006732      -0.00006399       0.00034016      -8.96135399
V        7.61232476       1.11622925      10.62375990       0.00128575      -0.00075127      -0.00069656      -8.88098090
Al       6.19993003       2.80480993      -0.10314876      -0.00004213      -0.00038675       0.00039704      -4.19262067
V        7.74562920       4.72521207       1.40480997      -0.00061892      -0.00071345       0.00072633      -8.79864458
Al       6.28356437       3.18239868       3.09417792       0.00024001       0.00029679      -0.00012396      -4.22198017
Al       7.93946256       4.48908907       4.61024335       0.00096277       0.00063045       0.00012314      -4.13367752
V        6.31292857       2.88846657       6.29858099      -0.00073304      -0.00013953      -0.00002363      -9.05152205
V        7.69220309       4.43819352       7.78155268      -0.00043752       0.00017057      -0.00020212      -8.87685950
V        6.17980259       2.83874829       9.04609051       0.00016361       0.00018414      -0.00005146      -8.79767644
Al       7.66572387       4.29779270      10.67380474       0.00045102      -0.00026233      -0.00078138      -4.23001699
Al       6.13376774       6.09805562      -0.16651531       0.00009552       0.00019625      -0.00059552      -4.23411159
Al       7.62097914       7.45747553       1.64598553      -0.00017498       0.00036448       0.00005371      -4.29178842
V        5.97133404       6.06225534       3.25266664       0.00020520      -0.00014675       0.00063150      -8.95402438
Al       9.09316512       9.20109980       3.22040430       0.00017526       0.00024172      -0.00017326      -4.25873410
Al       7.55839850       7.73228490       4.81046950      -0.00012840       0.00014309      -0.00001263      -4.33095682
V        7.61657304       7.58140727       7.70367255      -0.00050331      -0.00028119       0.00012231      -9.06843682
Al       6.03008631       5.86582518       9.25236790      -0.00027354      -0.00099361       0.00001078      -4.23946217
Al       7.64796239       7.61068195      10.56953770      -0.00015223      -0.00024391      -0.00005729      -4.17975401
Al       6.02126095       9.14886183       0.15145946      -0.00029124      -0.00080002      -0.00007780      -4.13525038
V        6.09742096      11.98073587       3.11149424       0.00049915      -0.00059247      -0.00007045      -8.83605373
V        6.16973680       9.22096933       3.05878950      -0.00020461      -0.00017073      -0.00048198      -8.90293359
V        7.31751525      10.70364873       4.53679196       0.00023577       0.00001332       0.00013281      -8.85360063
Al       5.88451206       9.32839952       6.32340757       0.00019846       0.00016580       0.00042863      -4.24023488
Al       7.81287308      10.76808564       7.51954048      -0.00011722       0.00016017       0.00020383      -4.23949012
Al       6.28413261       9.36749452       9.13872311      -0.00029064       0.00012076       0.00003373      -4.29277085
V        7.65771970      10.66736085      10.95053855      -0.00026784       0.00028985      -0.00029796      -8.98568630
Al       9.34661316      -0.04006422      -0.09722647       0.00000589       0.00013418      -0.00100395      -4.28155359
V       10.59813822       1.58172623       1.64309283      -0.00032988      -0.00029568      -0.00015482      -8.88649060
V        9.25366571      -0.09153536       3.14445681      -0.00022432       0.00022119      -0.00009370      -8.93774910
Al      10.81759243       1.61734209       4.47840345       0.00003428       0.00044821      -0.00032233      -4.20885444
Al       9.38721171      -0.26961431       5.96526132       0.00006670       0.00051345      -0.00023900      -4.24311782
Al      10.71398753       1.27909127       7.79835270       0.00039270      -0.00009604      -0.00029708      -4.40814100
V        9.06184836      -0.14293931       9.42351980      -0.00076117       0.00064798       0.00123068      -8.88729349
Al      10.79472139       1.47930955      10.73253541      -0.00051308      -0.00044087       0.00045111      -4.32057637
V        9.14769923       2.94833791       0.04565849       0.00003507      -0.00006535       0.00003621      -8.74669186
Al      10.69965764       4.47486363       1.49249172       0.00046041       0.00063579      -0.00003474      -4.15347728
V        9.22130480       2.87965802       2.92894049      -0.00045722      -0.00013356       0.00013969      -8.75524299
V       10.67854123       4.59192491       4.85651607      -0.00036343      -0.00031738       0.00055740      -8.84452513
Al       9.23062282       2.94893036       6.30735060       0.00084581      -0.00047415      -0.00041337      -4.20488814
V       10.67152533       4.64743903       7.69661185       0.00036467      -0.00007629      -0.00016920      -8.86607393
V        9.07093878       2.82000809       9.11800383       0.00013616       0.00047944       0.00037874      -8.88390571
Al      10.65446175       4.38174314      10.55995384      -0.00024680      -0.00044948      -0.00031045      -4.35296078
V        8.95178178       5.96649937       0.04192179       0.00089828       0.00074316      -0.00158528      -8.95592298
V       10.74445238       7.72851204       1.49084634       0.00195776       0.00284105      -0.00336442      -8.82351414
Al       9.29666831       6.06713583       3.13634813      -0.00155856      -0.00157997       0.00217880      -4.23663464
V       10.69903642       7.66956511       4.68416328      -0.00006263       0.00047573       0.00028893      -8.96192714
V        9.15240358       6.24295413       6.27193030      -0.00033729      -0.00010287      -0.00006654      -8.98000543
V       10.62818973       7.49551325       7.65448454       0.00014715       0.00025956      -0.00017339      -8.84043995
V        9.15820602       6.00757818       9.13896681      -0.00080014      -0.00123840      -0.00046933      -8.92645992
Al      10.63147582       7.59274439      10.69729554      -0.00242440       0.00201563       0.00396119      -4.14663256
Al       9.13557153       9.04897509      -0.02576815       0.00241277      -0.00202612      -0.00048881      -4.29137888
Al      10.71135957      10.78550706       1.48845114       0.00100742      -0.00043590      -0.00045224      -4.33375708
Al       7.71613616      10.75718349       1.51488004      -0.00082692       0.00023709       0.00033304      -4.18965923
Al      10.90516610      10.60762938       4.48455746      -0.00023125       0.00029003       0.00004352      -4.24734030
V        9.33423845       9.07463414       6.10603790       0.00000581       0.00038943       0.00034729      -8.88870258
Al      10.72152507      10.65823805       7.94005567      -0.00005600      -0.00079731      -0.00063196      -4.22355731
V        9.08412201       9.07128041       9.08053305      -0.00014080       0.00072416      -0.00099781      -8.86957907
V       10.67622612      10.47410751      10.69689436      -0.00010491      -0.00016793       0.00039914      -8.79961216
