128
Lattice="13.764728376089991 0.0026597817384814287 -0.0022386809257888725 0.00264851648297305 13.715621474357272 0.008624523359198725 -0.0022074615916532563 0.008589332947006905 13.725360811293955" Properties=species:S:1:pos:R:3:forces:R:3:energies:R:1 energy=-1271.3046107842636 stress="-0.000426395718538839 4.859286300508437e-06 -9.00092444591835e-06 4.859286300508437e-06 7.961712879440263e-05 -8.799218302457954e-05 -9.00092444591835e-06 -8.799218302457954e-05 0.00011190045778265626" free_energy=-1271.3046107842636 pbc="T T T"
Nb      -0.22529846      -0.04961833      -0.01081534      -0.00027404      -0.00081692      -0.00116608      -9.87650478
Hf       1.65404636       1.68233409       1.76650132       0.00003471       0.00140357      -0.00029546     -10.14095323
Nb      -0.20538193       0.00676573       3.44125128       0.00342535      -0.00151749       0.00225748      -9.69745276
Hf       1.50940327       1.78432912       5.05666431      -0.00064198       0.00098804       0.00322287     -10.12525921
Nb      -0.12178947      -0.07132169       6.77335086       0.00070945       0.00140310       0.00026577      -9.77807456
Nb       1.65744232       1.63116735       8.56254250      -0.00041864       0.00148854       0.00120784      -9.83157308
Nb      -0.08809743      -0.06500267      10.36808661       0.00115399      -0.00111477      -0.00290372      -9.82924728
Hf       1.69642663       1.50303739      12.07834450      -0.00126563       0.00123455       0.00242302     -10.07703319
Hf      -0.03316619       3.42881277      -0.02007394       0.00152052       0.00043249      -0.00144719     -10.10135477
Hf       1.80903417       5.07347220       1.85169827      -0.00367680      -0.00073166       0.00103996      -9.99109746
Nb      -0.12857721       3.46611678       3.35606714      -0.00096654       0.00224236      -0.00232014      -9.73146720
Nb       1.73360794       5.12957394       5.06767152       0.00033390      -0.00062443      -0.00160708      -9.89351564
Nb       0.08116644       3.52976637       6.94698276       0.00286089       0.00001264      -0.00080239      -9.83737682
Nb       1.80231184       5.22037732       8.50462795       0.00076374      -0.00206427      -0.00015336      -9.71014140
Hf       0.05085056       3.53214766      10.31538337       0.00241639      -0.00068427      -0.00063236     -10.14231304
Nb       1.79028842       5.28052963      12.07153611       0.00112173       0.00038309      -0.00117793      -9.68186147
Hf      -0.02607110       6.88421687       0.12326376      -0.00059332      -0.00038457      -0.00140737     -10.13170882
Nb       1.81767862       8.60550103       1.68459788       0.00096978      -0.00013854       0.00094511      -9.84375389
Hf      -0.00179745       6.87949357       3.37595358      -0.00176375      -0.00088770       0.00132000     -10.02833443
Hf       1.75999286       8.60545608       5.15436398      -0.00125816      -0.00065947      -0.00156625     -10.09592955
Hf      -0.03343403       6.83004407       6.89264076      -0.00109459       0.00087688      -0.00107359     -10.09253508
Hf       1.81558988       8.58865719       8.55119061       0.00099432       0.00009820      -0.00180360     -10.07132762
Hf      -0.01994270       6.81454860      10.21123679      -0.00045945       0.00052503       0.00076378     -10.09029427
Hf       1.79347095       8.56268364      12.06563190      -0.00068489      -0.00011343      -0.00102391     -10.11749252
Hf      -0.04364204      10.31226589       0.03369540      -0.00002390      -0.00097186       0.00014535     -10.12077151
Hf       1.67230086      12.13606216       1.72273679      -0.00066119      -0.00058580       0.00130822     -10.14841065
Nb      -0.03517185      10.25621460       3.32448380      -0.00194161      -0.00101876       0.00229280      -9.84824469
Hf       1.65778236      12.00585648       5.10589555       0.00228482      -0.00166653      -0.00188122     -10.17483494
Hf      -0.13564642      10.33025222       6.92398186       0.00141728      -0.00167179      -0.00143136      -9.91837807
Hf       1.68524189      12.07803667       8.56388924       0.00130674      -0.00022853      -0.00137564     -10.14531328
Nb      -0.04067435      10.33414853      10.31039418       0.00145041      -0.00126387      -0.00114212      -9.85003538
Nb       1.73341288      12.06713067      12.07705396      -0.00035843      -0.00105797       0.00039366      -9.97088428
Nb       3.52238428       0.05132805       0.15599306      -0.00167540       0.00087494      -0.00102206      -9.68893306
Nb       5.22081954       1.79406169       1.65202664      -0.00008939       0.00146250      -0.00316484      -9.87155287
Hf       3.60864751       0.10535845       3.44067415      -0.00014139       0.00112529       0.00297006     -10.00942519
Nb       5.25204224       1.84819115       5.16499940      -0.00000653       0.00059138      -0.00030391      -9.65659746
Hf       3.40450560       0.19159830       6.80681313      -0.00263088       0.00025975       0.00109441      -9.86198031
Hf       5.20285926       1.77239664       8.64313072       0.00039224      -0.00179505       0.00245799     -10.04856378
Nb       3.35580773       0.04209386      10.22912458       0.00076913      -0.00144361      -0.00143031      -9.64188926
Hf       5.21816761       1.73145255      12.01044148      -0.00291838       0.00008770      -0.00062598     -10.20540383
Hf       3.46029891       3.45248824       0.00575499       0.00204808       0.00050965      -0.00204692      -9.98949885
Nb       5.16044072       5.15412185       1.82564925      -0.00059141      -0.00096477      -0.00150175      -9.96170149
Nb       3.59479543       3.41470753       3.52379768      -0.00226107      -0.00029637       0.00061181      -9.88430879
Nb       5.24439921       5.17060296       5.15274609      -0.00043025      -0.00022681       0.00040961     -10.06106438
Hf       3.39327051       3.44818770       6.80754025      -0.00167880       0.00061086      -0.00031683     -10.13773703
Hf       5.25184511       5.17496603       8.60650115       0.00116250       0.00080207      -0.00022101     -10.25691613
Hf       3.25835071       3.44652033      10.28718624      -0.00187265      -0.00107718      -0.00186763     -10.00654250
Hf       5.24691432       5.14197889      11.91620211      -0.00018211      -0.00024037       0.00116518     -10.15817309
Nb       3.37616364       6.70514405       0.04095936       0.00076950       0.00300184       0.00226000      -9.72086370
Hf       5.04186228       8.45563876       1.67195249       0.00264725      -0.00167346       0.00008752     -10.03125965
Nb       3.48750334       6.78059940       3.53178182       0.00043166      -0.00235805       0.00135108      -9.85130065
Nb       5.11523403       8.49082491       5.21045905       0.00026057      -0.00012322      -0.00189530      -9.92198488
Nb       3.41411843       6.73821946       6.76449399       0.00131688       0.00025031      -0.00239574      -9.82983091
Hf       5.09074772       8.46854803       8.58831207       0.00015701       0.00044647       0.00073838     -10.19052924
Nb       3.29720866       6.69709486      10.29409654       0.00289151       0.00216447       0.00136917      -9.65338931
Hf       5.07427172       8.43077388      11.97304519       0.00146169      -0.00073242      -0.00108045     -10.10851522
Nb       3.42137897      10.37024107       0.05126532       0.00172516      -0.00021641       0.00238143      -9.76408786
Nb       5.14099405      12.03967426       1.56343933       0.00127141      -0.00137147      -0.00152463      -9.75603568
Hf       3.50038549      10.31464344       3.36828716      -0.00184483       0.00091311       0.00349333      -9.88989119
Hf       5.06977799      11.97641874       5.30053080      -0.00004666       0.00001864      -0.00015397      -9.71133741
Nb       3.48476494      10.21716185       6.84490901       0.00057456      -0.00162673      -0.00223096      -9.61634922
Hf       5.09094370      12.03830856       8.57780731      -0.00013799      -0.00066595      -0.00102401     -10.00031908
Hf       3.40719776      10.39174074      10.37017420      -0.00082060       0.00094698      -0.00146316      -9.71514684
Hf       5.12207691      12.14246056      12.06045283      -0.00014521      -0.00234540       0.00033305     -10.12220958
Nb       6.93795780       0.05843764       0.10452846      -0.00042747       0.00100150      -0.00108827      -9.83427595
Nb       8.57342914       1.74025512       1.75038070       0.00315526      -0.00276509      -0.00204249      -9.89441951
Hf       6.85993916       0.03586220       3.46981733       0.00156491       0.00090029      -0.00089463     -10.18081526
Nb       8.63451484       1.83866649       5.05682478       0.00025814      -0.00000047      -0.00067202      -9.79892005
Hf       7.02238982      -0.00268609       6.80807268      -0.00045612      -0.00118632       0.00249441     -10.21612783
Nb       8.49122177       1.79403147       8.53403460      -0.00055596      -0.00073370       0.00039709      -9.59272335
Hf       7.04368005       0.02686730      10.24984692       0.00059613      -0.00000082      -0.00152279      -9.90869524
Nb       8.47638556       1.79413575      12.11305368       0.00127337      -0.00229842       0.00081179      -9.75297547
Nb       6.92285260       3.44378042       0.11169880       0.00132794       0.00076011       0.00287248      -9.86981291
Nb       8.54219851       5.06603152       1.80507188      -0.00174749       0.00100969      -0.00139817      -9.87132613
Nb       6.85405098       3.38525191       3.39219362      -0.00013167       0.00132064       0.00094884     -10.07437152
Hf       8.55225785       5.15116352       5.11632267       0.00195529       0.00169793      -0.00196921     -10.17372151
Nb       6.92433388       3.38906476       6.82962258       0.00222919      -0.00137206       0.00174523      -9.89216454
Nb       8.44934305       5.16418576       8.49689759      -0.00082917      -0.00077077      -0.00000077      -9.91327586
Nb       7.07967242       3.38171672      10.26265630      -0.00090172       0.00207798      -0.00038649      -9.71795185
Hf       8.59433080       5.16399646      12.03613763       0.00225913      -0.00226380      -0.00228608     -10.02731867
Hf       6.94529632       6.82741200       0.07763984      -0.00068029       0.00227336       0.00266850      -9.90845381
Hf       8.63705143       8.57660101       1.81415571      -0.00034875      -0.00001772      -0.00028907      -9.89287713
Nb       6.79408360       6.80464401       3.42202730       0.00156375      -0.00101535      -0.00019779      -9.78661851
Hf       8.65657012       8.47206807       5.12193098      -0.00088784      -0.00039312      -0.00103310     -10.06310873
Nb       6.89178846       6.88746702       6.82450531       0.00070914       0.00102735      -0.00097721      -9.79705197
Nb       8.58181235       8.49697908       8.46434228      -0.00203612       0.00331273       0.00091571      -9.77560952
Nb       7.07091848       6.95268486      10.26125995      -0.00413173       0.00117747      -0.00059518      -9.69045096
Nb       8.66588208       8.49523714      12.02679824      -0.00135533       0.00053333      -0.00003199      -9.79047891
Hf       6.86853888      10.21542538      -0.01404405      -0.00148466       0.00118928       0.00253074      -9.99828356
Hf       8.63682160      12.04134946       1.75315986       0.00113534       0.00021243       0.00109882      -9.98992566
Hf       6.78784147      10.31346669       3.46628834       0.00075172      -0.00027188      -0.00066714     -10.03166380
Nb       8.70712768      11.97988734       4.99391466      -0.00129763       0.00067945       0.00009519      -9.62742339
Hf       6.96535856      10.31455099       6.87180634      -0.00077012       0.00138575       0.00028926     -10.08801809
Nb       8.66955026      11.98922820       8.67309136       0.00130513       0.00139687      -0.00047248      -9.53263338
Hf       6.97444688      10.21258200      10.29148850      -0.00087611      -0.00132355      -0.00068231     -10.13492666
Hf       8.61846997      12.00246801      12.06592270       0.00136357       0.00147978       0.00371127      -9.84500515
Hf      10.40117530       0.08855022      -0.00203064       0.00058645       0.00022069       0.00138493     -10.20940216
Nb      12.09101242       1.68753623       1.83403509      -0.00146850       0.00089374      -0.00344139      -9.87100816
Nb      10.30124228       0.08708683       3.51352725      -0.00072567       0.00135024      -0.00117146     -10.07358284
Nb      12.08642192       1.75045342       5.12419715       0.00076604       0.00045600       0.00097794      -9.94393044
Hf      10.32033862      -0.00058618       6.80489265       0.00042164       0.00053579       0.00038486     -10.32255078
Hf      12.24771538       1.69508577       8.53049814       0.00138889      -0.00225251       0.00079844      -9.92011150
Hf      10.31924200       0.08482322      10.28158321       0.00025232      -0.00118170       0.00090584     -10.24353287
Nb      12.18818185       1.66397725      11.95414101      -0.00191301       0.00085399       0.00232253      -9.61363474
Hf      10.33682622       3.33732877       0.05566607       0.00068255      -0.00214670      -0.00131450     -10.14017097
Nb      12.01725450       5.05601384       1.70466383      -0.00010578      -0.00269739       0.00009532      -9.70661925
Nb      10.29829736       3.38725364       3.36935372       0.00129210      -0.00071035      -0.00227094      -9.98077615
Hf      12.02413422       5.03644330       5.17674854       0.00107553       0.00318196      -0.00007018     -10.02507967
Hf      10.26106679       3.35643215       6.92699023      -0.00068244      -0.00097296       0.00139704     -10.03874117
Nb      12.02783187       5.06774327       8.44754830      -0.00185329      -0.00070131       0.00369797      -9.63922075
Hf      10.31209212       3.37087835      10.26839122      -0.00081451      -0.00084650       0.00184039     -10.23843778
Hf      11.93656413       5.23214732      12.06768158       0.00002337       0.00185760      -0.00243496      -9.74962314
Nb      10.35400525       6.87715509       0.10043989      -0.00223347       0.00242931       0.00052290      -9.86804854
Nb      12.00385257       8.65877992       1.80559371      -0.00156352       0.00117977       0.00356721      -9.73971423
Hf      10.40443152       6.74622765       3.29635712       0.00012399      -0.00145320      -0.00054502      -9.84044288
Hf      11.98493406       8.59576666       5.11549175      -0.00201386       0.00077843      -0.00202514     -10.01775036
Nb      10.37093102       6.81244026       6.96553051      -0.00021396      -0.00012906       0.00072182      -9.82979063
Nb      12.01541388       8.65359295       8.61124892      -0.00000344      -0.00113742      -0.00126488      -9.74238395
Hf      10.30133333       6.83285660      10.10071200      -0.00024492       0.00078163       0.00316530     -10.09573075
Hf      11.98240531       8.58415719      11.91848504      -0.00036761       0.00053574       0.00237658      -9.97435258
Hf      10.40363731      10.30905545       0.02069189      -0.00043970      -0.00118653      -0.00052371     -10.01205796
Nb      12.06681033      12.04825003       1.83467654      -0.00167083      -0.00028630      -0.00066846      -9.89382463
Nb      10.35099484      10.35636005       3.43756304      -0.00032639      -0.00003973      -0.00027339      -9.79766220
Nb      12.07401580      12.00601900       5.02353312       0.00092819      -0.00056998       0.00207757      -9.86822014
Hf      10.31344540      10.40436057       6.92341315       0.00171498      -0.00172465       0.00007465     -10.20174881
Nb      12.12301140      12.05625993       8.69941547       0.00049231       0.00019153      -0.00145138      -9.81301302
Nb      10.29107707      10.30489115      10.19488758      -0.00150245       0.00058057      -0.00125633      -9.99545776
Nb      12.09813976      11.97399817      11.92906140      -0.00122152       0.00339189       0.00019967      -9.80975177
