128
Lattice="13.58635749997217 -0.02090083805028146 0.0010738944170414532 -0.020826159297275052 13.598318948800243 0.008326006540690802 0.0014060171442181102 0.00868248292253889 13.619306520682558" Properties=species:S:1:pos:R:3:forces:R:3:energies:R:1 energy=-1138.7725574421893 stress="9.313243904364388e-05 -0.00031874750048471593 0.0003426188176438191 -0.00031874750048471593 4.9037253905402784e-05 0.00020433019695993408 0.0003426188176438191 0.00020433019695993408 0.00014565790773115003" free_energy=-1138.7725574421893 pbc="T T T"
Ti      -0.03893902       0.04028148      -0.04108127       0.00264301       0.00402845      -0.00217808      -7.60978507
Hf       1.63573580       1.75466050       1.68575558      -0.00066213       0.00407158      -0.00119698     -10.30641080
Ti       0.03351637       0.03771072       3.39132180       0.00051277       0.00101497       0.00099061      -7.54850627
Hf       1.58734285       1.76473380       5.12708427      -0.00041250       0.00257679       0.00271677     -10.19663600
Ti       0.02150235      -0.06615552       6.83948197      -0.00267601      -0.00230135      -0.00047256      -7.60095065
Ti       1.59957089       1.67852738       8.44698436      -0.00127594      -0.00425442      -0.00283660      -7.65746964
Ti       0.06335615       0.13747695      10.25901509      -0.00015522       0.00265678       0.00175212      -7.63567330
Ti       1.71146854       1.67080009      11.98893628       0.00368079      -0.00168871      -0.00620298      -7.71720977
Ti       0.04794993       3.45432795      -0.13508141       0.00626066       0.00115291       0.00076688      -7.67091121
Ti       1.67498559       4.95614434       1.72170741       0.00667914       0.00070775      -0.00452278      -7.60642535
Ti      -0.03998593       3.43801222       3.40237231      -0.00297265      -0.00138528       0.00145058      -7.59485122
Hf       1.60211751       5.07445344       5.19023764       0.00007105       0.00211240       0.00107285     -10.23164049
Ti      -0.05678972       3.46675137       6.92679234      -0.00509821       0.00082358      -0.00372645      -7.61381979
Hf       1.67785224       5.22736001       8.51975353      -0.00809998       0.00274779      -0.00014975     -10.17902030
Hf       0.07667485       3.37367215      10.19299742       0.00227289       0.00204180      -0.00190724     -10.06868351
Ti       1.69127654       5.02996454      11.77002685       0.00160664       0.00309856      -0.00363919      -7.66852793
Hf       0.08540059       6.71739215      -0.04985462       0.00347648       0.00338879       0.00417443     -10.14857813
Hf       1.69475466       8.67418381       1.51556221      -0.00220832      -0.00121628       0.00336223     -10.08081563
Hf      -0.05756627       6.83198606       3.36341532       0.00366148      -0.00071238      -0.00237848     -10.23248594
Hf       1.74286547       8.37437235       5.33066893      -0.00130558      -0.00512407      -0.00003965     -10.06207615
Ti      -0.14177649       6.84032777       6.87729709      -0.00236451       0.00089463       0.00054484      -7.71547898
Ti       1.77029713       8.34691613       8.40687631      -0.00047675       0.00576138       0.00295186      -7.67008862
Ti       0.05780534       6.85696445      10.25636055      -0.00048608       0.00175550      -0.00401750      -7.74576343
Ti       1.69746045       8.59729392      12.03314879      -0.00113365      -0.00083166       0.00196088      -7.65559336
Ti      -0.16804234      10.22617424      -0.05222692       0.00039639       0.00243780       0.00286212      -7.56246586
Hf       1.59579080      11.90398824       1.62585699      -0.00245721       0.00227997       0.00395528     -10.13106971
Hf      -0.05486082      10.08859453       3.47231791       0.00098680       0.00166250       0.00520602     -10.14061292
Ti       1.56524255      11.93275922       5.11417822      -0.00118785      -0.00285816       0.00036947      -7.59118351
Hf       0.03662196      10.16089927       6.94421781       0.00140917       0.00280624      -0.00217467     -10.19857582
Ti       1.58354849      11.98381650       8.63823172       0.00323573      -0.00043361       0.00112221      -7.65290718
Ti       0.07355077      10.08585411      10.13028948       0.00514508      -0.00088356       0.00416556      -7.70982531
Hf       1.54345652      11.91502289      11.93093657      -0.00158833      -0.00012924      -0.00411215     -10.25412138
Hf       3.49772786      -0.01421299       0.01398706       0.00124388      -0.00116065      -0.00375703     -10.16682110
Ti       5.02030667       1.78390907       1.66984896       0.00523669      -0.00491359       0.00017883      -7.56177695
Hf       3.43251499      -0.04080605       3.41490585      -0.00315735       0.00045779       0.00166195     -10.20987362
Hf       5.13277113       1.79655747       5.12480976      -0.01130375       0.00287233       0.00250975     -10.05794719
Hf       3.35962745      -0.00403823       6.82559995      -0.00028143      -0.00146148       0.00374731     -10.21906219
Ti       5.10905090       1.60759571       8.61402507       0.00154133       0.00216580      -0.00411454      -7.69384901
Ti       3.25332914       0.03822496      10.20012502       0.00079839      -0.00195954      -0.00142325      -7.70431653
Hf       5.04710739       1.71639958      11.75563899       0.00556335      -0.00217872       0.00186705     -10.14219371
Ti       3.32985436       3.35004963      -0.10654749       0.00098076      -0.00141826      -0.00627927      -7.68387267
Hf       4.92869695       4.96566975       1.69243354      -0.00535364       0.00099254       0.00060817     -10.02554362
Ti       3.33732178       3.37248037       3.46886923       0.00049424      -0.00421351      -0.00376421      -7.52529434
Hf       5.16004392       5.03290943       5.08561662      -0.00335957      -0.00433146       0.00019017     -10.19639114
Hf       3.42429509       3.35857101       6.96611645       0.00424807      -0.00621917      -0.00419310     -10.11268866
Ti       5.00144767       5.12797293       8.63741562      -0.00086567       0.00163399      -0.00228172      -7.67734117
Ti       3.26499461       3.32823054      10.10347403      -0.00010707       0.00051390       0.00463051      -7.75025504
Ti       5.01839339       4.99123910      11.86115904      -0.00312957       0.00522689       0.00013328      -7.67718504
Hf       3.29599101       6.66824317      -0.05141900      -0.00015162       0.00173973       0.00061913     -10.07698742
Hf       5.12354391       8.54445673       1.72797628      -0.00134593       0.00196081      -0.00210353     -10.23520958
Hf       3.26740000       6.79610601       3.35464176      -0.00220733       0.00094425      -0.00286618     -10.06052125
Hf       5.13079919       8.44810878       5.11074588      -0.00272889       0.00251729      -0.00106725     -10.26181331
Ti       3.48527911       6.60017963       6.79775530       0.00002640       0.00283310      -0.00253926      -7.43065769
Hf       4.87323715       8.47111150       8.48442397       0.00077896      -0.00022901       0.00546434     -10.11669929
Ti       3.33417099       6.84643128      10.33925590      -0.00329454       0.00186205       0.00252155      -7.67744769
Hf       5.01888483       8.51964086      11.94614343      -0.00106292      -0.00095833       0.00137467     -10.06359923
Ti       3.47054209      10.37546447      -0.08215911      -0.00164016      -0.00001624      -0.00365570      -7.55177647
Ti       5.05006715      11.82786242       1.75585627      -0.00397330      -0.00193138       0.00045397      -7.50959563
Hf       3.33778362      10.26775606       3.51585542      -0.00162063       0.00142613       0.00223454     -10.10788369
Ti       5.07625969      11.90177447       5.20271591      -0.00510021      -0.00198033      -0.00130529      -7.54454187
Ti       3.26567998      10.35094792       6.85879804      -0.00246768      -0.00336081       0.00234055      -7.66115497
Hf       5.05171947      11.96683863       8.59652392       0.00038836       0.00398033      -0.00440569     -10.10272026
Hf       3.22903984      10.21347279      10.19077794       0.00151431      -0.00225243       0.00176575     -10.12265990
Ti       5.04404432      11.99761845      11.76715133       0.00263697      -0.00080729       0.00297365      -7.60439802
Hf       6.80666855       0.00543701      -0.02909503       0.00241967      -0.00335906       0.00098650     -10.35062986
Hf       8.68119886       1.67623349       1.77939611      -0.00212990      -0.00277159      -0.00458894     -10.06057842
Hf       6.75982972      -0.06038830       3.39448492      -0.00011387      -0.00446061      -0.00091563     -10.27522921
Hf       8.50341986       1.80083307       5.07278365       0.00101929       0.00321020       0.00301923     -10.11223426
Hf       6.83479979       0.00621137       6.83161547       0.00152929      -0.00056055      -0.00022373     -10.16617479
Ti       8.54030429       1.70257139       8.56236893       0.00037149      -0.00294849       0.00266043      -7.74664700
Ti       6.87967371       0.01385780      10.22078764      -0.00035564      -0.00318216      -0.00158328      -7.69022211
Ti       8.52330955       1.77383100      11.83058191      -0.00025137       0.00376955       0.00635220      -7.71005241
Hf       6.82065487       3.34103013      -0.05200621      -0.00419073       0.00396161      -0.00138099     -10.19225763
Ti       8.62199464       5.03156722       1.59601425       0.00547523      -0.00264556       0.00743874      -7.60079921
Hf       6.85759111       3.42003651       3.22541787       0.00139694       0.00175413      -0.00166806      -9.95421745
Hf       8.46758296       5.09781244       5.17521632      -0.00105382       0.00093629       0.00469826     -10.12826623
Ti       6.77764924       3.41228863       6.98046528       0.00039078      -0.00206290      -0.00735837      -7.68920413
Ti       8.51991936       5.04163686       8.56000924      -0.00343563      -0.00101694      -0.00085690      -7.62715233
Ti       6.78448201       3.45380291      10.20652514       0.00122852       0.00309590       0.00095799      -7.76935657
Hf       8.64981844       5.06154446      11.86922246       0.00122112      -0.00344390       0.00186199     -10.17058865
Hf       6.73910911       6.63565235      -0.02269923       0.00269810      -0.00232754      -0.00332027     -10.11173628
Hf       8.39400994       8.49740270       1.74762877       0.00025765      -0.00094506       0.00058533     -10.16911684
Ti       6.81556694       6.59926774       3.28519328      -0.00618243       0.00036125      -0.00280562      -7.48547519
Hf       8.45078178       8.40671205       5.07045777       0.00016757      -0.00109001      -0.00128575     -10.17091095
Hf       6.81860193       6.78861993       7.01383526      -0.00329338       0.00432442       0.00056950     -10.05263122
Ti       8.60647882       8.56131510       8.53591062      -0.00218667      -0.00399738       0.00119378      -7.65796784
Hf       6.77995318       6.75276398      10.19866078       0.00149211      -0.00343235       0.00339717     -10.16983365
Hf       8.56275682       8.40014243      11.92561969      -0.00288817       0.00030433      -0.00002955     -10.10117090
Hf       6.80197380      10.37555701      -0.05148842      -0.00031713      -0.00089438      -0.00099359     -10.16512177
Ti       8.54829566      11.93312099       1.72939348      -0.00098378       0.00008058       0.00471415      -7.56152417
Ti       6.79390735      10.33652037       3.47033420      -0.00308436       0.00014628      -0.00315849      -7.61576920
Ti       8.55114717      11.86792398       5.16806619       0.00396256      -0.00036042       0.00087379      -7.59937692
Hf       6.83849768      10.18802396       6.84358401       0.00160764       0.00142817      -0.00405737     -10.13464146
Hf       8.56547091      11.85453155       8.59542230       0.00212682      -0.00075977       0.00321549     -10.05838943
Hf       6.77418946      10.15351366      10.21388658       0.00616371       0.00166677       0.00282932     -10.11703570
Ti       8.48469648      11.90154252      11.78181598       0.00025756      -0.00246343      -0.00362148      -7.55705483
Hf      10.14186461      -0.03828937      -0.09682786       0.00099088       0.00196165      -0.00054411     -10.09661749
Ti      11.87426150       1.67124110       1.68790329       0.00120755      -0.00366424      -0.00008837      -7.83089603
Ti      10.19036427      -0.08748234       3.46298950      -0.00194042      -0.00153491       0.00215889      -7.57079626
Hf      11.93252598       1.69555660       5.09061052      -0.00593416      -0.00257186       0.00236452     -10.28966326
Hf      10.13132524       0.01756198       6.82073944      -0.00118522      -0.00154192      -0.00213499      -9.99633320
Hf      11.93950669       1.60819181       8.54224911       0.00666684      -0.00375878       0.00322860     -10.14220344
Ti      10.17801404       0.00390723      10.24168689       0.00389457      -0.00208945       0.00380793      -7.65457184
Hf      11.88458248       1.71868073      11.88041054       0.00197162      -0.00146017      -0.00054052     -10.20445583
Ti      10.15493007       3.26628415      -0.06053877       0.00508207      -0.00153722       0.00625572      -7.55397079
Hf      11.86412259       4.93259889       1.58998003      -0.00072559      -0.00047620       0.00388861     -10.17233629
Ti      10.20415343       3.50280569       3.47204977      -0.00205204       0.00024497       0.00013576      -7.57347683
Ti      11.90474940       5.07052331       5.12064316       0.00096742      -0.00181545      -0.00031819      -7.67922470
Hf      10.25655502       3.45411377       6.91546852      -0.00885767       0.00315111       0.00011704     -10.13136547
Ti      11.97891343       5.11789770       8.62418184      -0.00114258       0.00254664       0.00008658      -7.73750314
Ti      10.28715619       3.40545158      10.11200222       0.00037007      -0.00050550      -0.00256324      -7.65190326
Hf      11.84278107       5.10002433      11.86326482      -0.00078226       0.00269730      -0.00095596     -10.21878864
Ti      10.23513558       6.78206296       0.05996986       0.00285971       0.00052819      -0.00108647      -7.54536480
Ti      11.90757537       8.48489914       1.57003317       0.00229005      -0.00271260      -0.00265089      -7.53328112
Hf      10.30846088       6.80917552       3.36960287       0.00016616      -0.00362243       0.00039438     -10.17736905
Ti      11.83849973       8.47790060       5.25893570       0.00194522      -0.00253275      -0.00398840      -7.61376407
Ti      10.15959432       6.69560575       6.86454120       0.00063639       0.00215637       0.00123903      -7.79230125
Ti      11.80701163       8.55439066       8.61743629       0.00164168       0.00136361      -0.00135478      -7.80569779
Ti      10.15707395       6.74945688      10.08523053      -0.00265493      -0.00127046       0.00258676      -7.65987144
Hf      11.83488767       8.41898981      11.84267616      -0.00095810       0.00764867      -0.00089082     -10.23333140
Hf      10.17304262      10.29864136      -0.05076202      -0.00268586       0.00357091       0.00079245     -10.19355019
Hf      11.92509981      11.97471887       1.72614166       0.00299230       0.00558004       0.00136404     -10.12591631
Hf      10.24814904      10.13081576       3.42619070      -0.00234198      -0.00071629      -0.00422781     -10.17767225
Hf      11.91728197      11.93261779       5.14252444       0.00348443       0.00349873       0.00009827     -10.13663931
Ti      10.21292850      10.23192295       6.82422902       0.00241415      -0.00405446      -0.00429433      -7.68231779
Hf      11.90327630      11.88938780       8.64705559       0.00562193      -0.00252100       0.00158336     -10.27905202
Ti      10.18203029      10.18113085      10.30670108       0.00372573       0.00169727      -0.00273678      -7.60345833
Ti      11.93419500      11.95790056      11.85472967      -0.00076476       0.00148665      -0.00062088      -7.74725578
