128
Lattice="14.297102142376302 -0.013392469386772996 -0.003112031718241057 -0.013382423314287156 14.276132643677702 -0.008030712604227386 -0.003111338375767815 -0.008036342007008847 14.284656112060807" Properties=species:S:1:pos:R:3:forces:R:3:energies:R:1 energy=-1186.7861252690268 stress="0.00027542007156822326 -0.0002344218246730979 -1.4031018738000214e-05 -0.0002344218246730979 0.0001631500701106965 -0.0001234916277504492 -1.4031018738000214e-05 -0.0001234916277504492 0.00018917760228481112" free_energy=-1186.7861252690268 pbc="T T T"
Zr      -0.01094513      -0.01249394       0.00263507      -0.00043558       0.00054106       0.00338347      -8.57356975
Hf       1.79139371       1.78039396       1.78191935       0.00085067       0.00055170       0.00041153     -10.01848825
Zr       0.01467014      -0.01861040       3.57155973      -0.00379616      -0.00090912       0.00149467      -8.54155746
Hf       1.79623361       1.74713537       5.32855041       0.00007784      -0.00180273       0.00187761      -9.96069605
Zr      -0.00516490      -0.02093366       7.14171195       0.00155978      -0.00213171      -0.00129506      -8.57329086
Zr       1.77546610       1.75838005       8.91997318       0.00181799      -0.00270292      -0.00155553      -8.58660883
Zr       0.00895047      -0.00450314      10.71029902      -0.00156679      -0.00357296      -0.00397813      -8.55661457
Hf       1.80325971       1.79585949      12.53039585       0.00217134      -0.00016696      -0.00148490      -9.94660067
Hf       0.01068451       3.60787538      -0.04344742      -0.00133991      -0.00233382       0.00158700      -9.98153526
Hf       1.76933749       5.32832040       1.77131369       0.00248499      -0.00249029      -0.00089799      -9.95437500
Zr       0.00038896       3.60559655       3.55683430       0.00188084      -0.00067295       0.00030604      -8.56207315
Zr       1.77059091       5.34808354       5.33998328      -0.00100970       0.00140017      -0.00049603      -8.58431381
Zr      -0.00475597       3.57981515       7.15084479       0.00250168       0.00085658       0.00191971      -8.58038885
Zr       1.78627911       5.34594006       8.91405654       0.00290790       0.00057658      -0.00116164      -8.54612678
Hf      -0.00452532       3.60492879      10.76484755       0.00086140      -0.00329294      -0.00299295      -9.97622405
Zr       1.77767652       5.35393264      12.52187992       0.00776585       0.00396991       0.00120984      -8.54364322
Hf      -0.00217106       7.15146128      -0.00706443      -0.00091203       0.00118903       0.00086798      -9.97772937
Zr       1.80039340       8.93030327       1.79593970      -0.00391354       0.00454012      -0.00096735      -8.58810792
Hf      -0.03563010       7.13956411       3.58238743      -0.00117282       0.00037236      -0.00052766      -9.99484370
Hf       1.74386377       8.94359058       5.36306978      -0.00148311      -0.00026261      -0.00090925      -9.95626104
Hf      -0.00625845       7.18346714       7.12292454      -0.00024920       0.00190582       0.00030540      -9.98195130
Hf       1.79611105       8.95536174       8.92294665       0.00067052       0.00115824      -0.00098661      -9.98110512
Hf      -0.03094043       7.11341353      10.71815536      -0.00133228       0.00314211       0.00197439      -9.98349005
Hf       1.75665942       8.91284955      12.46336678      -0.00103661       0.00258064       0.00299019      -9.95525291
Hf      -0.01494937      10.66378766      -0.01474879      -0.00068901      -0.00263654       0.00031784      -9.96468550
Hf       1.79284713      12.50541560       1.81920413      -0.00014972       0.00005384       0.00085917      -9.95745800
Zr       0.00291405      10.68228350       3.56374992      -0.00197582      -0.00055485      -0.00219136      -8.58054593
Hf       1.81385428      12.48260690       5.34593620       0.00026096      -0.00077469      -0.00209428     -10.00388716
Hf      -0.01424537      10.66222777       7.12704082      -0.00110952      -0.00061647       0.00153420      -9.96855826
Hf       1.81746675      12.44556338       8.87406055      -0.00011798      -0.00125885      -0.00003553      -9.96781394
Zr       0.00191309      10.67994244      10.71244282      -0.00099160       0.00065883       0.00256295      -8.56519178
Zr       1.78777847      12.47166598      12.49158964      -0.00146154      -0.00249271       0.00095377      -8.57700465
Zr       3.57540085       0.00566469      -0.00118305      -0.00145600       0.00088063       0.00073380      -8.55667311
Zr       5.33333694       1.77115323       1.75771510       0.00161000       0.00064663       0.00056944      -8.57262690
Hf       3.60746046      -0.04092027       3.61240330      -0.00094147      -0.00038540      -0.00002749      -9.99837970
Zr       5.35295060       1.76762328       5.37635642      -0.00073227      -0.00273228       0.00225234      -8.55215811
Hf       3.60054126       0.02802774       7.11457718       0.00140746      -0.00204677      -0.00040872      -9.98214602
Hf       5.35263581       1.77237263       8.97077519      -0.00350407      -0.00291980      -0.00080066      -9.98719388
Zr       3.57239246      -0.00286832      10.69251844       0.00305569      -0.00323721      -0.00059593      -8.57634904
Hf       5.32025193       1.78217744      12.44449952      -0.00032609      -0.00089093      -0.00219422      -9.98147047
Hf       3.54242131       3.56401161      -0.04374003      -0.00258134      -0.00058007      -0.00177210      -9.97968947
Zr       5.35575876       5.36536644       1.74550746      -0.00260666      -0.00262826       0.00132235      -8.57905569
Zr       3.57812896       3.54915812       3.56789563      -0.00139612       0.00247613      -0.00154606      -8.58121652
Zr       5.37180977       5.34391134       5.38499832      -0.00015859       0.00235012      -0.00088984      -8.56294316
Hf       3.57514188       3.51326256       7.17575531      -0.00028753       0.00089855       0.00371841      -9.97243384
Hf       5.35410616       5.32362290       8.96263869      -0.00232067       0.00029780       0.00189499      -9.97160475
Hf       3.54245815       3.55536857      10.72063302       0.00068334       0.00106506      -0.00055313      -9.98499348
Hf       5.38172006       5.34199406      12.46453138      -0.00298700       0.00059855      -0.00107401      -9.97341523
Zr       3.55474617       7.12274263      -0.00796863      -0.00436778      -0.00346063      -0.00338227      -8.57564181
Hf       5.38218511       8.93618870       1.74574885       0.00151430      -0.00118460      -0.00022682      -9.94512044
Zr       3.56413952       7.13974822       3.56869388       0.00072214      -0.00075802       0.00170795      -8.58244244
Zr       5.34705609       8.93062680       5.37456017       0.00355625      -0.00319230       0.00056212      -8.56896310
Zr       3.54092329       7.11403565       7.14342224      -0.00019295       0.00200846      -0.00282979      -8.56928657
Hf       5.32255334       8.91790939       8.95671487       0.00192185       0.00240411      -0.00060927      -9.96307376
Zr       3.53407045       7.10481244      10.70360950       0.00168211      -0.00107024       0.00435225      -8.56128457
Hf       5.32928174       8.91162319      12.47172266       0.00088217       0.00080881       0.00153881      -9.96701047
Zr       3.55828446      10.70729030      -0.01531626      -0.00358557       0.00103692       0.00026395      -8.58344680
Zr       5.34783094      12.46780185       1.74483863       0.00183280       0.00176927       0.00107843      -8.56654932
Hf       3.60226489      10.74124626       3.57284937      -0.00129903       0.00129497      -0.00241379      -9.98015333
Hf       5.32788496      12.47895600       5.40226606       0.00345663      -0.00239376       0.00075602      -9.93584942
Zr       3.56503125      10.70176671       7.13383980       0.00077965       0.00215351      -0.00104604      -8.54540514
Hf       5.32303362      12.48262225       8.90972561      -0.00060265      -0.00101343      -0.00103150      -9.99215079
Hf       3.60784638      10.70157648      10.69978043       0.00126909       0.00196362       0.00349530      -9.96419752
Hf       5.38716974      12.46841066      12.45147439       0.00282476       0.00061691       0.00076491      -9.95836392
Zr       7.15218240      -0.02338827      -0.00478741       0.00209863       0.00144328       0.00111214      -8.56244303
Zr       8.92103482       1.75083416       1.77689031      -0.00041079       0.00187301      -0.00085078      -8.58016303
Hf       7.10359644      -0.07117316       3.59514531      -0.00010449       0.00157979       0.00007336      -9.97512107
Zr       8.93135231       1.77788549       5.34834671       0.00051598       0.00135061       0.00269791      -8.57414056
Hf       7.12958935      -0.05255454       7.14799890      -0.00085820      -0.00022959      -0.00144550      -9.98102791
Zr       8.91668857       1.76554817       8.93552998      -0.00163766       0.00341528      -0.00199532      -8.55911515
Hf       7.14727690      -0.05997472      10.68797631      -0.00152102      -0.00289834      -0.00019401      -9.96305581
Zr       8.90807586       1.76393736      12.49958539       0.00161542       0.00145929       0.00319558      -8.56379370
Zr       7.14282205       3.56881116      -0.02183220      -0.00094110      -0.00001379       0.00124061      -8.56930597
Zr       8.92977561       5.35897851       1.77507084      -0.00050998      -0.00341931       0.00133473      -8.59701030
Zr       7.14076106       3.55626147       3.56513739      -0.00067896       0.00197882      -0.00289495      -8.56440805
Hf       8.99010004       5.37297245       5.35092448       0.00043337       0.00061632       0.00065904      -9.98689092
Zr       7.14466545       3.54018521       7.14650764      -0.00128880       0.00012924       0.00118334      -8.57727576
Zr       8.91908537       5.33446873       8.92026025       0.00046923      -0.00207359       0.00050092      -8.58202601
Zr       7.15384730       3.55248157      10.72659614      -0.00322880       0.00255375      -0.00219309      -8.54348457
Hf       8.95913217       5.34701847      12.51051523       0.00121082      -0.00086860      -0.00036939      -9.97226477
Hf       7.15052138       7.19395317      -0.01399523       0.00188472      -0.00132536      -0.00127828      -9.97227773
Hf       8.88959366       8.97040947       1.81826282       0.00078311      -0.00152969      -0.00090294      -9.99376996
Zr       7.14078476       7.15697864       3.55843325      -0.00319751       0.00134856       0.00005830      -8.58503594
Hf       8.96050604       8.90802759       5.31315310       0.00013516      -0.00184759      -0.00152742      -9.98742907
Zr       7.15675554       7.15717807       7.13756387      -0.00296481       0.00377382      -0.00313986      -8.56763254
Zr       8.91671624       8.92725120       8.91743420      -0.00213769       0.00180770       0.00026260      -8.56026470
Zr       7.16712598       7.14571254      10.72451462      -0.00170078       0.00330207       0.00206207      -8.56907813
Zr       8.93779388       8.90994099      12.49635475       0.00006824      -0.00055789       0.00220691      -8.57305768
Hf       7.15403404      10.65450062      -0.02258894       0.00454939       0.00079458       0.00051893      -9.97512612
Hf       8.90538575      12.44554371       1.74512171       0.00155599       0.00120226       0.00119885     -10.00510276
Hf       7.08871410      10.73054022       3.56635339       0.00137012      -0.00167774      -0.00265932      -9.98765582
Zr       8.91440096      12.46137594       5.32662758       0.00175904      -0.00094161      -0.00346372      -8.56893736
Hf       7.15219469      10.71610398       7.13574874      -0.00054992      -0.00043993      -0.00043198      -9.98087863
Zr       8.89984638      12.47220695       8.92824149      -0.00023660      -0.00113178      -0.00054250      -8.54507524
Hf       7.07325260      10.71974125      10.70503951       0.00268978      -0.00203618       0.00177075      -9.98322907
Hf       8.87482485      12.46750780      12.51934120      -0.00017069       0.00003140       0.00131051      -9.98576018
Hf      10.70698366      -0.02431893      -0.03381508      -0.00260846       0.00386320      -0.00123625      -9.96452870
Zr      12.53813273       1.77635304       1.77507501       0.00254777       0.00197642      -0.00071616      -8.57496069
Zr      10.70468008      -0.01186041       3.56747544       0.00085406      -0.00016148       0.00237803      -8.57866032
Zr      12.52708752       1.78579640       5.36552464       0.00007805       0.00002484       0.00291688      -8.58754050
Hf      10.70370100       0.00461339       7.17941954      -0.00131510       0.00143969      -0.00164181      -9.96357670
Hf      12.50952327       1.77808087       8.95307563       0.00128701       0.00072822       0.00028370      -9.97614422
Hf      10.68076007       0.00960677      10.71069879       0.00076618       0.00174993      -0.00084067      -9.96366072
Zr      12.53207451       1.77235054      12.46923410      -0.00256544       0.00042470      -0.00125089      -8.56878860
Hf      10.74818941       3.53677571      -0.04982528      -0.00129219      -0.00262055      -0.00197791      -9.95391430
Zr      12.51147916       5.34331000       1.76508383       0.00288408      -0.00339888      -0.00012490      -8.57967255
Zr      10.72011877       3.56390262       3.55494087      -0.00075697       0.00102439       0.00030528      -8.57397884
Hf      12.45632721       5.38064251       5.36687175       0.00114153       0.00175716       0.00244562      -9.99120386
Hf      10.72925904       3.51671196       7.16858128       0.00068296       0.00220073       0.00312638      -9.94978617
Zr      12.50430700       5.31853066       8.92081689      -0.00181491       0.00131139      -0.00060750      -8.57634501
Hf      10.74847192       3.55583920      10.73308507      -0.00029389      -0.00064825      -0.00394185      -9.98789975
Hf      12.46686031       5.37280840      12.49958157      -0.00098714       0.00187495      -0.00199192      -9.98176875
Zr      10.71350281       7.14190071       0.00538927       0.00069724      -0.00361330      -0.00122385      -8.58547655
Zr      12.48871644       8.91826060       1.77238167       0.00392970       0.00004699      -0.00179822      -8.56228497
Hf      10.74031239       7.13828235       3.57086450       0.00129741      -0.00316952       0.00302945      -9.94884518
Hf      12.50235003       8.87598678       5.36135901       0.00111022      -0.00293594      -0.00113185      -9.98174511
Zr      10.72946316       7.13434814       7.15079889       0.00234379      -0.00329440      -0.00008547      -8.56724777
Zr      12.51339153       8.91065311       8.92666654       0.00108995      -0.00135715       0.00074197      -8.57381738
Hf      10.74697489       7.08816753      10.71838771       0.00060883      -0.00299227      -0.00039574      -9.93780608
Hf      12.52729113       8.85978166      12.49214662      -0.00048952      -0.00076875      -0.00095707      -9.98544934
Hf      10.69380924      10.72309528      -0.01992628       0.00070236       0.00094675      -0.00040380      -9.96312971
Zr      12.49212200      12.46773009       1.76712540       0.00029083       0.00263974       0.00130973      -8.57103098
Zr      10.70719083      10.69029730       3.56727869      -0.00312603       0.00153929       0.00075451      -8.55725100
Zr      12.50444784      12.46581754       5.35783107      -0.00175809       0.00304141      -0.00131685      -8.56541867
Hf      10.70555760      10.71371822       7.12466922      -0.00172530      -0.00200862       0.00029250      -9.94122927
Zr      12.50690580      12.48474390       8.92293200      -0.00127680       0.00155430       0.00221487      -8.57844002
Zr      10.69565284      10.69909604      10.71196821       0.00131458       0.00168425       0.00159244      -8.57781285
Zr      12.48602468      12.46262024      12.47937887      -0.00153918      -0.00012824      -0.00383711      -8.56359119
