128
Lattice="14.28451365058043 0.0032179955759895373 0.010610389884236496 0.00321778589973967 14.294834006966024 -0.0018680531161780016 0.01060411570529708 -0.001866090741612991 14.282002322707191" Properties=species:S:1:pos:R:3:forces:R:3:energies:R:1 energy=-1186.7769069650874 stress="0.00017166225927569976 3.3999766582716383e-06 0.00024286056789835084 3.3999766582716383e-06 0.00039646735649447127 -9.367575779393073e-05 0.00024286056789835084 -9.367575779393073e-05 0.00024219017423024992" free_energy=-1186.7769069650874 pbc="T T T"
Zr      -0.01333942       0.00528479      -0.00564151       0.00046987       0.00210715       0.00343705      -8.56817509
Hf       1.80246630       1.73485894       1.83326243      -0.00152803       0.00247791       0.00104941      -9.94692796
Zr       0.01854101      -0.02796153       3.58404861       0.00077899       0.00143872      -0.00170130      -8.54847320
Hf       1.82457990       1.79799086       5.31926177      -0.00228485       0.00346589      -0.00343899      -9.96350868
Zr       0.02916876      -0.01329464       7.13416762      -0.00010689       0.00142465       0.00008043      -8.55779155
Zr       1.79408478       1.78640853       8.91131257      -0.00234786       0.00298526      -0.00154512      -8.56996466
Zr       0.01400627      -0.00407367      10.70751029      -0.00203611      -0.00018456       0.00218598      -8.57364509
Zr       1.79649553       1.76643918      12.51137066       0.00014736      -0.00055430       0.00166412      -8.59424723
Zr       0.00336958       3.57677030      -0.01552985      -0.00286241      -0.00600591       0.00091847      -8.57901119
Zr       1.78585074       5.35145967       1.80249334      -0.00100065      -0.00075057      -0.00128251      -8.56933332
Zr       0.00498010       3.59568100       3.58212080      -0.00129360      -0.00133579      -0.00408734      -8.57000537
Hf       1.82968609       5.37406296       5.38166054      -0.00139666      -0.00427230      -0.00056638      -9.97839935
Zr       0.01083212       3.56137390       7.15793954      -0.00505174      -0.00218189      -0.00010776      -8.59061628
Hf       1.80150174       5.35798113       8.87758682      -0.00214076      -0.00347655       0.00007053      -9.95443194
Hf      -0.00033910       3.58725836      10.70095466      -0.00389837      -0.00628514       0.00171609      -9.99467376
Zr       1.78613992       5.36884709      12.50477479      -0.00020150      -0.00014727       0.00147517      -8.56379190
Hf       0.02467191       7.15553558       0.04124849       0.00121208      -0.00087897      -0.00038835      -9.97437184
Hf       1.81957024       8.97562288       1.83251910       0.00198153       0.00194921      -0.00011198      -9.96260656
Hf       0.02225636       7.17266442       3.53396309       0.00180925      -0.00178630      -0.00190428     -10.00778811
Hf       1.82132905       8.90834113       5.29416138       0.00014427      -0.00205021       0.00351476      -9.96226791
Zr       0.01093911       7.16730359       7.11800592      -0.00191706      -0.00347911      -0.00173789      -8.56492127
Zr       1.81787154       8.94061904       8.90804260       0.00062595      -0.00103418      -0.00081958      -8.57677219
Zr       0.01988764       7.14270356      10.72578200      -0.00032072      -0.00099684       0.00172057      -8.59494075
Zr       1.81204517       8.94782689      12.52402070       0.00010622       0.00039900      -0.00243258      -8.57784605
Zr      -0.02394914      10.69555929      -0.00454903       0.00555333       0.00014803       0.00056287      -8.55964916
Hf       1.76015500      12.49904803       1.76428102       0.00100903       0.00070728      -0.00049440     -10.00668786
Hf       0.00163013      10.69283195       3.60956219       0.00389786       0.00012670      -0.00050744     -10.00173480
Zr       1.78600250      12.50905974       5.34566955      -0.00217020       0.00370560       0.00014714      -8.55724049
Hf      -0.00752966      10.72485891       7.09318133       0.00100768      -0.00094296      -0.00088350      -9.96638737
Zr       1.79994460      12.49475962       8.91848251      -0.00094141       0.00616513      -0.00141377      -8.58700433
Zr       0.01021672      10.70877638      10.70413300       0.00312587       0.00075918       0.00036943      -8.60065735
Hf       1.81396535      12.50223726      12.53563501       0.00068632       0.00535788       0.00009964      -9.94112121
Hf       3.59430824      -0.00373726       0.04617789       0.00560338       0.00257854       0.00228256      -9.96128359
Zr       5.34361455       1.80379234       1.79150540       0.00227181      -0.00147143       0.00005214      -8.56504703
Hf       3.59402463      -0.03278184       3.56957242       0.00259524       0.00078708       0.00148906      -9.98615860
Hf       5.36302314       1.81298320       5.34923789       0.00282637       0.00178377      -0.00123202      -9.96046908
Hf       3.62776071       0.02953339       7.09825271       0.00080675       0.00332758      -0.00149112      -9.98141384
Zr       5.37089855       1.76536701       8.92912332       0.00361901       0.00533303      -0.00462229      -8.57403412
Zr       3.58929374      -0.02619105      10.71657621       0.00109762       0.00100479      -0.00071794      -8.58744670
Hf       5.37737708       1.79025772      12.53168908       0.00087624       0.00164741       0.00096755      -9.95128662
Zr       3.58309163       3.56756449       0.01412028       0.00520310      -0.00243879      -0.00083033      -8.57806165
Hf       5.35595713       5.40665779       1.81192335       0.00062250       0.00171421      -0.00109274      -9.94606408
Zr       3.58226390       3.58351069       3.58946777       0.00190223       0.00066185       0.00009185      -8.56266663
Hf       5.35833568       5.37790035       5.33244840      -0.00010701      -0.00169720      -0.00107003      -9.99084844
Hf       3.58267024       3.53862821       7.11689673       0.00145101      -0.00296520       0.00285528      -9.96792948
Zr       5.33957197       5.37999198       8.91976456       0.00193807      -0.00232373       0.00311527      -8.57741516
Zr       3.55744747       3.57497011      10.70115441       0.00134095      -0.00017781      -0.00114372      -8.58135416
Zr       5.37340082       5.36334023      12.50974719       0.00018219       0.00009153      -0.00085394      -8.58283582
Hf       3.58991007       7.16330598       0.05470854       0.00120460      -0.00205789      -0.00215776      -9.97967046
Hf       5.36524507       8.91419900       1.77733953      -0.00456904       0.00082617      -0.00132429      -9.99327567
Hf       3.55343418       7.18296011       3.53529708      -0.00158611      -0.00392666       0.00061221      -9.97809253
Hf       5.37902534       8.90759554       5.34534076      -0.00532695       0.00061982       0.00522038      -9.97830082
Zr       3.61105942       7.15702935       7.12417931      -0.00405406      -0.00307545       0.00167846      -8.55373100
Hf       5.38718884       8.98340127       8.93272441      -0.00541902      -0.00051105      -0.00022363      -9.96768367
Zr       3.59264447       7.17021467      10.72978227      -0.00084615      -0.00496094      -0.00149246      -8.58859047
Hf       5.41052806       8.93347113      12.51859188      -0.00330054       0.00041927      -0.00400040      -9.96887124
Zr       3.59709293      10.72457801       0.00527374       0.00144193      -0.00089746      -0.00077333      -8.56795805
Zr       5.35950828      12.47435084       1.78457983      -0.00316292      -0.00098149      -0.00028538      -8.55196056
Hf       3.54982030      10.70898272       3.56943972       0.00015427      -0.00061484       0.00318255      -9.96235272
Zr       5.37219262      12.48983827       5.36701026      -0.00167080       0.00017810       0.00238966      -8.54540043
Zr       3.58672143      10.73562233       7.12400428      -0.00007679      -0.00125957      -0.00068934      -8.58560897
Hf       5.40833738      12.46515212       8.92193323      -0.00102961       0.00277095      -0.00168477      -9.99524119
Hf       3.62372871      10.72447526      10.71953013      -0.00263038      -0.00134917      -0.00034089      -9.96291073
Zr       5.36420582      12.50251429      12.49507075      -0.00132480       0.00297610      -0.00300243      -8.58581342
Hf       7.14689641       0.02453221       0.03851622      -0.00105884      -0.00272300       0.00214013      -9.97260553
Hf       8.91396641       1.78158182       1.82953693      -0.00230221      -0.00059341       0.00147623      -9.94436039
Hf       7.10680687       0.04675674       3.57790310       0.00059103      -0.00080586       0.00265790      -9.95357587
Hf       8.90167718       1.82308223       5.32209092      -0.00015190      -0.00031275      -0.00296672      -9.97950183
Hf       7.13843851      -0.02127915       7.10583490       0.00128816      -0.00200817       0.00038679      -9.98280347
Zr       8.91889744       1.76514071       8.92349268      -0.00002091       0.00204560      -0.00123772      -8.55935032
Zr       7.14026618      -0.01222303      10.73444023       0.00400183      -0.00438606       0.00140464      -8.55848974
Zr       8.93051348       1.81147069      12.51858840      -0.00110976      -0.00030959       0.00028016      -8.58646497
Hf       7.14462854       3.57943543       0.03716900       0.00334450       0.00324486       0.00029958      -9.98623277
Zr       8.93460320       5.37132443       1.80054353      -0.00287765       0.00590638      -0.00126375      -8.59365530
Hf       7.13192279       3.56419460       3.54864465       0.00536946       0.00242877       0.00019600      -9.96044870
Hf       8.90287823       5.35881796       5.35463392       0.00046274       0.00287550      -0.00170883      -9.97714247
Zr       7.14137140       3.58254996       7.14456031       0.00328525      -0.00190266       0.00329468      -8.58718489
Zr       8.93430755       5.36834037       8.92358412       0.00015428      -0.00074735       0.00392373      -8.56949632
Zr       7.14762185       3.60178769      10.72770535       0.00623615       0.00010135      -0.00272718      -8.56817366
Hf       8.94910037       5.39701684      12.51634585      -0.00056524       0.00421439       0.00245502      -9.96558735
Hf       7.11322580       7.14995302      -0.01715757       0.00108075      -0.00017146      -0.00107359      -9.97337110
Hf       8.89988555       8.93785774       1.78581396      -0.00284056       0.00294306       0.00011687      -9.97040926
Zr       7.14326332       7.13670138       3.56388977       0.00159543       0.00208533      -0.00089164      -8.53927716
Hf       8.89686480       8.89890692       5.31934166      -0.00074174       0.00199279       0.00103556      -9.96833305
Hf       7.13900213       7.17353802       7.15099736       0.00242269       0.00158763       0.00304928      -9.96783276
Zr       8.91515906       8.95189072       8.92502542      -0.00061811       0.00198871      -0.00092404      -8.56082308
Hf       7.14989053       7.19295807      10.73898537      -0.00126770       0.00193085      -0.00161346      -9.99113684
Hf       8.92387707       8.89888666      12.55102049       0.00043863       0.00238398      -0.00037713      -9.99013023
Hf       7.19043114      10.70286176      -0.02032569      -0.00283486      -0.00122965       0.00029237      -9.95153250
Zr       8.94048568      12.51099613       1.81441755      -0.00326348      -0.00320650       0.00061199      -8.56669453
Zr       7.14631255      10.72082364       3.57067972      -0.00276819      -0.00491003       0.00313759      -8.54973065
Zr       8.94704242      12.50654338       5.35475874      -0.00263737      -0.00437260      -0.00117606      -8.57944504
Hf       7.16032552      10.71354491       7.16198083      -0.00258907      -0.00103511       0.00070698      -9.95719008
Hf       8.91783686      12.51105241       8.91664602      -0.00022618      -0.00124867      -0.00075175      -9.98892872
Hf       7.13474487      10.67519948      10.72124672      -0.00196581      -0.00220751      -0.00058699      -9.99225867
Zr       8.94395467      12.50064615      12.48798592      -0.00009157      -0.00062091      -0.00408109      -8.55012600
Hf      10.68795600      -0.01169479       0.02309876      -0.00174110      -0.00508743       0.00266712      -9.98316895
Zr      12.50659587       1.77508776       1.80521265      -0.00206847       0.00106756      -0.00001416      -8.59241124
Zr      10.70937915      -0.00972431       3.58197891      -0.00241761      -0.00489787       0.00026135      -8.57261781
Hf      12.49505837       1.75778119       5.40908144      -0.00301016       0.00171574      -0.00337443      -9.94314524
Hf      10.66329844       0.04952812       7.13214488      -0.00105199      -0.00384598      -0.00190002      -9.97591306
Hf      12.49711001       1.74336976       8.91531763      -0.00133670      -0.00122270       0.00266787      -9.97231872
Zr      10.71198917       0.00582773      10.71901890       0.00055522      -0.00556823       0.00276444      -8.56566662
Hf      12.50218525       1.81914315      12.47726157      -0.00138140      -0.00133158       0.00113712      -9.93976961
Zr      10.69542510       3.55511458       0.02326888      -0.00336868       0.00159984      -0.00057453      -8.57235884
Hf      12.52267819       5.37807193       1.76639907      -0.00079960       0.00186011      -0.00058342      -9.92666973
Zr      10.72529496       3.59212515       3.59922464      -0.00281571       0.00172485      -0.00111674      -8.58492745
Zr      12.50894450       5.34492133       5.36773879      -0.00139628       0.00410012       0.00203353      -8.57826311
Hf      10.70665260       3.51353534       7.13552687       0.00020892       0.00032900      -0.00039554      -9.98629071
Zr      12.52112957       5.35508785       8.93927353       0.00032031      -0.00042918       0.00180691      -8.58019989
Zr      10.73742071       3.57361288      10.69235684      -0.00210534      -0.00268797       0.00206376      -8.58693280
Hf      12.49202576       5.36644816      12.53549006      -0.00141708       0.00060535       0.00231916      -9.99569922
Zr      10.71007480       7.15895411       0.04708899      -0.00082275       0.00179109      -0.00103737      -8.54865803
Zr      12.50053155       8.94679028       1.76529769       0.00269496       0.00237172       0.00037622      -8.56164314
Hf      10.73927536       7.17044310       3.57020887       0.00256335       0.00226658      -0.00187052      -9.97312957
Zr      12.49266409       8.93633425       5.35962678       0.00343318      -0.00092099       0.00308905      -8.53599461
Zr      10.69341513       7.13681208       7.11935493       0.00564396       0.00319441      -0.00220249      -8.57443093
Zr      12.49941123       8.95288154       8.93801371       0.00362859      -0.00123230      -0.00329927      -8.56375802
Zr      10.70522989       7.15184378      10.72004158       0.00232487       0.00250970       0.00146571      -8.55302784
Hf      12.47049018       8.89967344      12.53335990       0.00137080       0.00396612       0.00036076      -9.94792729
Hf      10.67738435      10.74712017       0.04209269       0.00015912      -0.00073639       0.00272039      -9.98115290
Hf      12.52390060      12.49558220       1.81477790       0.00259037      -0.00045740       0.00085458      -9.95929841
Hf      10.74935256      10.69039476       3.55060339       0.00151903      -0.00025430       0.00087050      -9.97645412
Hf      12.49255258      12.53729621       5.38543717       0.00174321      -0.00140959      -0.00441074      -9.97445599
Zr      10.70652144      10.73000341       7.12179538       0.00313700      -0.00201210      -0.00146089      -8.58207029
Hf      12.47499721      12.54532618       8.87967153       0.00040628       0.00324002       0.00042096      -9.98949972
Zr      10.71103156      10.71977926      10.72212811       0.00246343       0.00180831       0.00231071      -8.58368575
Zr      12.50990307      12.50773717      12.49701722      -0.00045931       0.00213929      -0.00453219      -8.58830336
