128
Lattice="14.14314522403308 2.576672861031913e-17 -2.5317712436273782e-17 5.90384106788532e-17 14.143145224032951 -4.347515983284526e-14 -4.3226465115734946e-17 -2.937803030512584e-14 14.143145224032956" Properties=species:S:1:pos:R:3:forces:R:3:energies:R:1 energy=-1272.917253387023 stress="0.00026525402348279804 1.1711510875238909e-17 -1.2014188801145547e-17 1.1711510875238909e-17 0.00026525402348074955 -1.4139849134236181e-15 -1.2014188801145547e-17 -1.4139849134236181e-15 0.0002652540234809798" free_energy=-1272.917253387023 pbc="T T T"
Hf       0.00000000      -0.00000000      -0.00000000       0.00000000      -0.00000000       0.00000000      -9.94466604
Hf       1.76789315       1.76789315       1.76789315       0.00000000       0.00000000       0.00000000      -9.94466604
Hf       0.00000000      -0.00000000       3.53578631      -0.00000000       0.00000000       0.00000000      -9.94466604
Hf       1.76789315       1.76789315       5.30367946       0.00000000      -0.00000000      -0.00000000      -9.94466604
Hf       0.00000000      -0.00000000       7.07157261       0.00000000       0.00000000      -0.00000000      -9.94466604
Hf       1.76789315       1.76789315       8.83946577       0.00000000       0.00000000      -0.00000000      -9.94466604
Hf       0.00000000      -0.00000000      10.60735892       0.00000000      -0.00000000      -0.00000000      -9.94466604
Hf       1.76789315       1.76789315      12.37525207      -0.00000000       0.00000000      -0.00000000      -9.94466604
Hf       0.00000000       3.53578631      -0.00000000       0.00000000       0.00000000       0.00000000      -9.94466604
Hf       1.76789315       5.30367946       1.76789315       0.00000000       0.00000000       0.00000000      -9.94466604
Hf       0.00000000       3.53578631       3.53578631      -0.00000000       0.00000000       0.00000000      -9.94466604
Hf       1.76789315       5.30367946       5.30367946      -0.00000000      -0.00000000       0.00000000      -9.94466604
Hf       0.00000000       3.53578631       7.07157261       0.00000000      -0.00000000       0.00000000      -9.94466604
Hf       1.76789315       5.30367946       8.83946577       0.00000000       0.00000000      -0.00000000      -9.94466604
Hf       0.00000000       3.53578631      10.60735892       0.00000000       0.00000000       0.00000000      -9.94466604
Hf       1.76789315       5.30367946      12.37525207       0.00000000      -0.00000000      -0.00000000      -9.94466604
Hf       0.00000000       7.07157261      -0.00000000       0.00000000       0.00000000       0.00000000      -9.94466604
Hf       1.76789315       8.83946577       1.76789315      -0.00000000      -0.00000000       0.00000000      -9.94466604
Hf       0.00000000       7.07157261       3.53578631      -0.00000000       0.00000000       0.00000000      -9.94466604
Hf       1.76789315       8.83946577       5.30367946       0.00000000      -0.00000000      -0.00000000      -9.94466604
Hf      -0.00000000       7.07157261       7.07157261       0.00000000       0.00000000      -0.00000000      -9.94466604
Hf       1.76789315       8.83946577       8.83946577      -0.00000000      -0.00000000      -0.00000000      -9.94466604
Hf       0.00000000       7.07157261      10.60735892       0.00000000       0.00000000      -0.00000000      -9.94466604
Hf       1.76789315       8.83946577      12.37525207      -0.00000000      -0.00000000      -0.00000000      -9.94466604
Hf       0.00000000      10.60735892      -0.00000000       0.00000000      -0.00000000      -0.00000000      -9.94466604
Hf       1.76789315      12.37525207       1.76789315       0.00000000       0.00000000       0.00000000      -9.94466604
Hf      -0.00000000      10.60735892       3.53578631       0.00000000      -0.00000000       0.00000000      -9.94466604
Hf       1.76789315      12.37525207       5.30367946      -0.00000000       0.00000000      -0.00000000      -9.94466604
Hf      -0.00000000      10.60735892       7.07157261       0.00000000      -0.00000000       0.00000000      -9.94466604
Hf       1.76789315      12.37525207       8.83946577      -0.00000000       0.00000000       0.00000000      -9.94466604
Hf       0.00000000      10.60735892      10.60735892       0.00000000       0.00000000       0.00000000      -9.94466604
Hf       1.76789315      12.37525207      12.37525207       0.00000000       0.00000000       0.00000000      -9.94466604
Hf       3.53578631      -0.00000000      -0.00000000       0.00000000      -0.00000000       0.00000000      -9.94466604
Hf       5.30367946       1.76789315       1.76789315      -0.00000000      -0.00000000       0.00000000      -9.94466604
Hf       3.53578631      -0.00000000       3.53578631      -0.00000000      -0.00000000       0.00000000      -9.94466604
Hf       5.30367946       1.76789315       5.30367946       0.00000000       0.00000000      -0.00000000      -9.94466604
Hf       3.53578631      -0.00000000       7.07157261      -0.00000000       0.00000000       0.00000000      -9.94466604
Hf       5.30367946       1.76789315       8.83946577      -0.00000000      -0.00000000      -0.00000000      -9.94466604
Hf       3.53578631      -0.00000000      10.60735892      -0.00000000      -0.00000000       0.00000000      -9.94466604
Hf       5.30367946       1.76789315      12.37525207      -0.00000000       0.00000000      -0.00000000      -9.94466604
Hf       3.53578631       3.53578631      -0.00000000      -0.00000000       0.00000000      -0.00000000      -9.94466604
Hf       5.30367946       5.30367946       1.76789315       0.00000000      -0.00000000       0.00000000      -9.94466604
Hf       3.53578631       3.53578631       3.53578631      -0.00000000      -0.00000000      -0.00000000      -9.94466604
Hf       5.30367946       5.30367946       5.30367946      -0.00000000      -0.00000000       0.00000000      -9.94466604
Hf       3.53578631       3.53578631       7.07157261      -0.00000000       0.00000000       0.00000000      -9.94466604
Hf       5.30367946       5.30367946       8.83946577      -0.00000000       0.00000000      -0.00000000      -9.94466604
Hf       3.53578631       3.53578631      10.60735892      -0.00000000      -0.00000000      -0.00000000      -9.94466604
Hf       5.30367946       5.30367946      12.37525207       0.00000000      -0.00000000       0.00000000      -9.94466604
Hf       3.53578631       7.07157261      -0.00000000      -0.00000000       0.00000000       0.00000000      -9.94466604
Hf       5.30367946       8.83946577       1.76789315       0.00000000      -0.00000000       0.00000000      -9.94466604
Hf       3.53578631       7.07157261       3.53578631       0.00000000       0.00000000       0.00000000      -9.94466604
Hf       5.30367946       8.83946577       5.30367946      -0.00000000      -0.00000000      -0.00000000      -9.94466604
Hf       3.53578631       7.07157261       7.07157261      -0.00000000       0.00000000       0.00000000      -9.94466604
Hf       5.30367946       8.83946577       8.83946577      -0.00000000      -0.00000000      -0.00000000      -9.94466604
Hf       3.53578631       7.07157261      10.60735892      -0.00000000       0.00000000       0.00000000      -9.94466604
Hf       5.30367946       8.83946577      12.37525207      -0.00000000      -0.00000000      -0.00000000      -9.94466604
Hf       3.53578631      10.60735892      -0.00000000       0.00000000       0.00000000       0.00000000      -9.94466604
Hf       5.30367946      12.37525207       1.76789315      -0.00000000       0.00000000      -0.00000000      -9.94466604
Hf       3.53578631      10.60735892       3.53578631      -0.00000000      -0.00000000       0.00000000      -9.94466604
Hf       5.30367946      12.37525207       5.30367946      -0.00000000      -0.00000000      -0.00000000      -9.94466604
Hf       3.53578631      10.60735892       7.07157261       0.00000000      -0.00000000      -0.00000000      -9.94466604
Hf       5.30367946      12.37525207       8.83946577      -0.00000000       0.00000000       0.00000000      -9.94466604
Hf       3.53578631      10.60735892      10.60735892      -0.00000000       0.00000000       0.00000000      -9.94466604
Hf       5.30367946      12.37525207      12.37525207       0.00000000       0.00000000       0.00000000      -9.94466604
Hf       7.07157261      -0.00000000      -0.00000000      -0.00000000      -0.00000000       0.00000000      -9.94466604
Hf       8.83946577       1.76789315       1.76789315       0.00000000       0.00000000       0.00000000      -9.94466604
Hf       7.07157261      -0.00000000       3.53578631       0.00000000       0.00000000       0.00000000      -9.94466604
Hf       8.83946577       1.76789315       5.30367946       0.00000000       0.00000000       0.00000000      -9.94466604
Hf       7.07157261      -0.00000000       7.07157261      -0.00000000      -0.00000000      -0.00000000      -9.94466604
Hf       8.83946577       1.76789315       8.83946577      -0.00000000       0.00000000      -0.00000000      -9.94466604
Hf       7.07157261      -0.00000000      10.60735892      -0.00000000       0.00000000       0.00000000      -9.94466604
Hf       8.83946577       1.76789315      12.37525207      -0.00000000      -0.00000000      -0.00000000      -9.94466604
Hf       7.07157261       3.53578631      -0.00000000      -0.00000000       0.00000000       0.00000000      -9.94466604
Hf       8.83946577       5.30367946       1.76789315      -0.00000000      -0.00000000       0.00000000      -9.94466604
Hf       7.07157261       3.53578631       3.53578631      -0.00000000       0.00000000      -0.00000000      -9.94466604
Hf       8.83946577       5.30367946       5.30367946       0.00000000      -0.00000000      -0.00000000      -9.94466604
Hf       7.07157261       3.53578631       7.07157261       0.00000000       0.00000000       0.00000000      -9.94466604
Hf       8.83946577       5.30367946       8.83946577       0.00000000       0.00000000      -0.00000000      -9.94466604
Hf       7.07157261       3.53578631      10.60735892      -0.00000000       0.00000000       0.00000000      -9.94466604
Hf       8.83946577       5.30367946      12.37525207       0.00000000      -0.00000000      -0.00000000      -9.94466604
Hf       7.07157261       7.07157261      -0.00000000       0.00000000      -0.00000000       0.00000000      -9.94466604
Hf       8.83946577       8.83946577       1.76789315       0.00000000      -0.00000000      -0.00000000      -9.94466604
Hf       7.07157261       7.07157261       3.53578631       0.00000000       0.00000000       0.00000000      -9.94466604
Hf       8.83946577       8.83946577       5.30367946      -0.00000000      -0.00000000       0.00000000      -9.94466604
Hf       7.07157261       7.07157261       7.07157261       0.00000000       0.00000000      -0.00000000      -9.94466604
Hf       8.83946577       8.83946577       8.83946577      -0.00000000      -0.00000000      -0.00000000      -9.94466604
Hf       7.07157261       7.07157261      10.60735892       0.00000000       0.00000000      -0.00000000      -9.94466604
Hf       8.83946577       8.83946577      12.37525207       0.00000000      -0.00000000      -0.00000000      -9.94466604
Hf       7.07157261      10.60735892      -0.00000000      -0.00000000      -0.00000000       0.00000000      -9.94466604
Hf       8.83946577      12.37525207       1.76789315       0.00000000       0.00000000      -0.00000000      -9.94466604
Hf       7.07157261      10.60735892       3.53578631      -0.00000000      -0.00000000       0.00000000      -9.94466604
Hf       8.83946577      12.37525207       5.30367946       0.00000000      -0.00000000       0.00000000      -9.94466604
Hf       7.07157261      10.60735892       7.07157261      -0.00000000      -0.00000000       0.00000000      -9.94466604
Hf       8.83946577      12.37525207       8.83946577       0.00000000       0.00000000      -0.00000000      -9.94466604
Hf       7.07157261      10.60735892      10.60735892       0.00000000       0.00000000       0.00000000      -9.94466604
Hf       8.83946577      12.37525207      12.37525207       0.00000000      -0.00000000      -0.00000000      -9.94466604
Hf      10.60735892      -0.00000000      -0.00000000       0.00000000      -0.00000000      -0.00000000      -9.94466604
Hf      12.37525207       1.76789315       1.76789315      -0.00000000       0.00000000       0.00000000      -9.94466604
Hf      10.60735892      -0.00000000       3.53578631       0.00000000      -0.00000000      -0.00000000      -9.94466604
Hf      12.37525207       1.76789315       5.30367946       0.00000000       0.00000000       0.00000000      -9.94466604
Hf      10.60735892      -0.00000000       7.07157261      -0.00000000       0.00000000      -0.00000000      -9.94466604
Hf      12.37525207       1.76789315       8.83946577      -0.00000000       0.00000000      -0.00000000      -9.94466604
Hf      10.60735892      -0.00000000      10.60735892       0.00000000      -0.00000000      -0.00000000      -9.94466604
Hf      12.37525207       1.76789315      12.37525207      -0.00000000       0.00000000      -0.00000000      -9.94466604
Hf      10.60735892       3.53578631      -0.00000000       0.00000000       0.00000000       0.00000000      -9.94466604
Hf      12.37525207       5.30367946       1.76789315       0.00000000      -0.00000000       0.00000000      -9.94466604
Hf      10.60735892       3.53578631       3.53578631      -0.00000000       0.00000000       0.00000000      -9.94466604
Hf      12.37525207       5.30367946       5.30367946      -0.00000000      -0.00000000       0.00000000      -9.94466604
Hf      10.60735892       3.53578631       7.07157261       0.00000000       0.00000000       0.00000000      -9.94466604
Hf      12.37525207       5.30367946       8.83946577      -0.00000000      -0.00000000      -0.00000000      -9.94466604
Hf      10.60735892       3.53578631      10.60735892       0.00000000      -0.00000000       0.00000000      -9.94466604
Hf      12.37525207       5.30367946      12.37525207      -0.00000000      -0.00000000      -0.00000000      -9.94466604
Hf      10.60735892       7.07157261      -0.00000000      -0.00000000       0.00000000      -0.00000000      -9.94466604
Hf      12.37525207       8.83946577       1.76789315      -0.00000000      -0.00000000       0.00000000      -9.94466604
Hf      10.60735892       7.07157261       3.53578631       0.00000000      -0.00000000       0.00000000      -9.94466604
Hf      12.37525207       8.83946577       5.30367946      -0.00000000      -0.00000000       0.00000000      -9.94466604
Hf      10.60735892       7.07157261       7.07157261       0.00000000       0.00000000      -0.00000000      -9.94466604
Hf      12.37525207       8.83946577       8.83946577      -0.00000000      -0.00000000      -0.00000000      -9.94466604
Hf      10.60735892       7.07157261      10.60735892       0.00000000       0.00000000      -0.00000000      -9.94466604
Hf      12.37525207       8.83946577      12.37525207      -0.00000000      -0.00000000      -0.00000000      -9.94466604
Hf      10.60735892      10.60735892      -0.00000000      -0.00000000      -0.00000000      -0.00000000      -9.94466604
Hf      12.37525207      12.37525207       1.76789315      -0.00000000       0.00000000       0.00000000      -9.94466604
Hf      10.60735892      10.60735892       3.53578631       0.00000000      -0.00000000      -0.00000000      -9.94466604
Hf      12.37525207      12.37525207       5.30367946       0.00000000       0.00000000       0.00000000      -9.94466604
Hf      10.60735892      10.60735892       7.07157261       0.00000000      -0.00000000       0.00000000      -9.94466604
Hf      12.37525207      12.37525207       8.83946577      -0.00000000       0.00000000       0.00000000      -9.94466604
Hf      10.60735892      10.60735892      10.60735892       0.00000000       0.00000000      -0.00000000      -9.94466604
Hf      12.37525207      12.37525207      12.37525207      -0.00000000       0.00000000       0.00000000      -9.94466604
