128
Lattice="13.597898821436534 0.013848629767645816 0.015680379228896892 0.014144946801397022 13.587763467597265 -0.0026054828451595605 0.015458392824023136 -0.0028080980237149876 13.652335944008744" Properties=species:S:1:pos:R:3:forces:R:3:energies:R:1 energy=-1229.8425262763644 stress="-0.00011547784561387744 6.140712883974465e-05 1.6880007352290286e-05 6.140712883974465e-05 -0.00019351618125646705 2.10745506107795e-05 1.6880007352290286e-05 2.10745506107795e-05 0.0004937508387011033" free_energy=-1229.8425262763644 pbc="T T T"
Zr      -0.02536663       0.03629009      -0.01238957      -0.00073245       0.00102382       0.00059007      -9.01338335
Ti       1.73354898       1.69970092       1.62645932       0.00078102       0.00006409      -0.00055945      -7.53064377
Ti      -0.03717009      -0.00871322       3.38646372       0.00042972      -0.00023824      -0.00025492      -7.74444619
Nb       1.77553883       1.69469032       5.15577450       0.00040172      -0.00125516       0.00090095      -9.80621618
Zr      -0.04670580      -0.00753949       6.75296372      -0.00022848       0.00076481       0.00091277      -8.87307336
Ti       1.73534821       1.66793429       8.51534364      -0.00281505       0.00123740      -0.00029845      -7.42824417
Hf       0.00384174       0.00273902      10.32891645      -0.00167121       0.00009589      -0.00109197     -10.17607045
Nb       1.74441718       1.78643052      12.01189794      -0.00087769       0.00025935      -0.00102420      -9.98103087
Ti      -0.01069243       3.23106268      -0.03851362      -0.00027198       0.00103220      -0.00184835      -7.49650178
Hf       1.65876820       5.06182535       1.69916431       0.00086928      -0.00052170       0.00068326     -10.16531030
Hf       0.04709837       3.19809667       3.43761889      -0.00097710       0.00011155      -0.00006350     -10.15994634
Ti       1.72618281       5.13392132       5.00043970      -0.00059045       0.00032950       0.00076395      -7.55481229
Hf       0.11886334       3.41197543       6.81847262      -0.00146703      -0.00041892       0.00023639     -10.17103016
Ti       1.66012990       5.05359820       8.65284941      -0.00071035      -0.00089920      -0.00019435      -7.46016614
Ta       0.00406490       3.30010782      10.29856411      -0.00026966      -0.00011056      -0.00107779     -11.70466208
Zr       1.66761422       5.00934698      11.98026734      -0.00067054       0.00001575       0.00141835      -8.79989408
Nb      -0.08333969       6.90799779       0.03104283       0.00015334       0.00106409      -0.00020846      -9.92607227
Ta       1.78224851       8.53658458       1.74328607       0.00081162       0.00039250      -0.00026216     -11.69205245
Ta       0.08008006       6.88978358       3.36362129       0.00060023      -0.00011533       0.00062646     -11.62597269
Ta       1.80256738       8.51025028       5.04856876      -0.00057328       0.00031276       0.00035040     -11.66173172
Hf       0.07548864       6.77848931       6.89095736       0.00162586      -0.00023026       0.00155684     -10.19550126
Ti       1.79428000       8.57195629       8.46728697      -0.00115636      -0.00271681       0.00061547      -7.36036206
Zr      -0.03632398       6.84526184      10.19908470      -0.00018998       0.00122828       0.00021743      -8.81208490
Hf       1.74943403       8.48372463      12.03564270      -0.00010779       0.00066467       0.00050512      -9.86485258
Zr      -0.02729629      10.24404699       0.02775620       0.00178054      -0.00048770      -0.00022382      -8.80189123
Ta       1.76770138      11.87083326       1.67606757      -0.00284407      -0.00133976       0.00086673     -11.43070097
Zr      -0.00684222      10.25814276       3.38415871       0.00215084       0.00090382      -0.00188896      -8.86849637
Nb       1.78552578      11.84951340       5.15014518       0.00022188       0.00023871      -0.00035027      -9.84138169
Zr      -0.02533926      10.20231984       6.82521987       0.00108221       0.00203333      -0.00060681      -8.74844888
Hf       1.80120484      11.89067461       8.44689547       0.00058538       0.00113235       0.00190786      -9.83897683
Zr      -0.05107491      10.22700936      10.23767724      -0.00054303      -0.00083088       0.00256160      -8.82479212
Nb       1.77300579      11.90927743      11.98287814       0.00017912      -0.00022592      -0.00031617      -9.79138821
Ta       3.35976745       0.04863085      -0.04771279       0.00086223       0.00092542      -0.00197647     -11.67513179
Zr       5.06006245       1.67323904       1.72940343      -0.00045196      -0.00016466      -0.00042316      -8.62785880
Zr       3.30027903      -0.04158671       3.42527669      -0.00086503       0.00061301       0.00216782      -8.69043790
Hf       5.06579144       1.68726818       5.10862843      -0.00127963      -0.00083090      -0.00036117      -9.93420843
Nb       3.42865936       0.03421858       6.80912739       0.00020850       0.00030281      -0.00115764     -10.00773234
Nb       5.12396547       1.67782033       8.62337935      -0.00136287       0.00021566      -0.00024746      -9.90407958
Zr       3.38894883       0.05447983      10.26382915      -0.00134597      -0.00008334       0.00056890      -8.77196355
Ta       5.13334257       1.72644956      11.86383406       0.00010360       0.00040558       0.00095076     -11.62008514
Ta       3.45902160       3.36013760       0.00365390      -0.00026149      -0.00118694       0.00000965     -11.63166335
Nb       5.08074552       5.10313116       1.83822195      -0.00106311       0.00016635      -0.00222231      -9.90944320
Ti       3.27385531       3.37157654       3.39935055       0.00037646       0.00094314       0.00071729      -7.48802925
Hf       5.03867061       5.12631594       5.02259226      -0.00029029      -0.00120852      -0.00166092     -10.02557964
Hf       3.34642837       3.43288537       6.93479752      -0.00012018      -0.00110672       0.00109893     -10.24392864
Ti       5.16437187       5.02360007       8.64942041      -0.00053161       0.00099711      -0.00044930      -7.48232645
Ti       3.37436221       3.30700453      10.20111865       0.00102745       0.00026447      -0.00086523      -7.59582744
Zr       5.13809467       5.02609004      11.77964386       0.00117687      -0.00153805      -0.00073114      -8.60181060
Hf       3.48647933       6.74853889       0.07516732       0.00003289      -0.00055014      -0.00045162      -9.93249346
Ta       5.08009411       8.56707240       1.78386500      -0.00100728      -0.00009397      -0.00277172     -11.74915303
Nb       3.35517628       6.79963006       3.36054649       0.00017964       0.00071828      -0.00147901      -9.97996283
Zr       5.11492849       8.48616543       5.10475284       0.00132182      -0.00109859      -0.00013351      -8.78743446
Hf       3.37983170       6.73621488       6.93483477      -0.00056928       0.00060185       0.00067527     -10.15929836
Ti       5.15401633       8.58818490       8.50353653      -0.00040795       0.00150039       0.00058925      -7.56764125
Hf       3.44937279       6.84628785      10.12034310      -0.00096975      -0.00034797      -0.00057260     -10.03189172
Hf       5.18988744       8.57251198      11.98643909       0.00118704      -0.00074016       0.00137049     -10.02351889
Ti       3.38898779      10.22067946       0.00990954      -0.00003578      -0.00154851      -0.00076676      -7.50647137
Hf       5.12435889      11.84385020       1.66408906       0.00040275       0.00063002      -0.00169668     -10.11389310
Nb       3.39796648      10.25464597       3.42779035      -0.00086042       0.00102816       0.00086845     -10.06386922
Nb       5.14510815      11.85004866       5.15660977      -0.00073047      -0.00094058      -0.00053879     -10.09896569
Nb       3.48666560      10.14954668       6.83738663      -0.00006403       0.00127068      -0.00038650     -10.00650318
Ta       5.14354834      11.88183246       8.49339604       0.00110114       0.00081491      -0.00010308     -11.72395436
Hf       3.44551157      10.14197382      10.19624735       0.00011999       0.00202562      -0.00124693      -9.96817477
Zr       5.16907330      11.85590940      11.94843161      -0.00051956      -0.00016050      -0.00043720      -8.65755623
Hf       6.90533660      -0.01425147      -0.11121398       0.00229712       0.00161779       0.00102331      -9.97501314
Zr       8.57340506       1.61679252       1.67572508       0.00017615      -0.00306162      -0.00224880      -8.48845583
Nb       6.82208718      -0.08124046       3.44695938       0.00054087       0.00125887      -0.00015234      -9.97425259
Ta       8.44953907       1.61223106       5.10574477       0.00068664      -0.00211755       0.00024288     -11.33224948
Hf       6.86190130      -0.04847722       6.91604650      -0.00036811       0.00026824       0.00097830     -10.19777652
Nb       8.50800909       1.64379277       8.64358572       0.00019357       0.00071388       0.00132694      -9.84537770
Nb       6.88830883      -0.02136270      10.21682205      -0.00010544       0.00040393       0.00036882     -10.13301005
Nb       8.58870984       1.72071733      11.92701212       0.00071075      -0.00047144       0.00018736      -9.97011399
Hf       6.82582310       3.40555109      -0.03308338      -0.00176126      -0.00016890      -0.00184572     -10.11503580
Ta       8.53274142       5.14355479       1.70508201       0.00107536       0.00099336       0.00054422     -11.34326607
Zr       6.87968128       3.41604837       3.37388927      -0.00103971       0.00033832       0.00129837      -8.59935630
Ta       8.47291646       5.18000103       5.09676696       0.00081717       0.00018771      -0.00015457     -11.34053450
Zr       6.82461188       3.41747521       6.90611626       0.00025094      -0.00113168       0.00205457      -8.84518293
Nb       8.50742143       5.08362392       8.65881724       0.00231918      -0.00013828       0.00113462      -9.79555116
Ti       6.94668282       3.30515588      10.24560106       0.00274018      -0.00039389       0.00178750      -7.66867442
Ta       8.55749793       5.04814840      11.87196976       0.00000132      -0.00045592      -0.00063335     -11.49701403
Zr       6.81883849       6.77910671       0.00282102       0.00047740      -0.00031767      -0.00045068      -8.71065058
Zr       8.48156100       8.63974396       1.72230091      -0.00210762       0.00040478      -0.00147736      -8.64118054
Nb       6.80913960       6.82047054       3.38951781       0.00047369       0.00099560       0.00043586     -10.04090290
Ta       8.48373047       8.58937919       5.11304610       0.00041669       0.00016267      -0.00059684     -11.70540994
Hf       6.83627941       6.80497536       6.97928878      -0.00033123      -0.00084254       0.00053614     -10.18957202
Ti       8.49774591       8.61233421       8.55041622      -0.00135902      -0.00037811       0.00017690      -7.60610985
Ta       6.88337490       6.87783548      10.17684526      -0.00101000      -0.00063072      -0.00098901     -11.73832233
Nb       8.46035013       8.60295399      11.95695562       0.00119431       0.00034998       0.00230890      -9.99794039
Ti       6.90182588      10.27107330      -0.02279126      -0.00021887       0.00004634       0.00024034      -7.44890103
Ta       8.53660926      11.85904762       1.75510863       0.00028522       0.00020230      -0.00119867     -11.70092984
Ta       6.81815478      10.26115797       3.47342743      -0.00148951       0.00142100       0.00254006     -11.61836538
Ta       8.51873185      11.84841062       5.09009989       0.00065937      -0.00044771      -0.00057868     -11.71157806
Ta       6.84208612      10.24113931       6.82981645       0.00018746      -0.00144608       0.00174297     -11.76814802
Ti       8.51101840      11.85935636       8.58041374       0.00103220       0.00101927      -0.00027832      -7.67672241
Ta       6.90884865      10.20783094      10.17288714       0.00101354       0.00143722       0.00183737     -11.67948833
Ti       8.56491326      11.88279884      11.89351943      -0.00129221      -0.00176442      -0.00032087      -7.68628240
Nb      10.19053630      -0.00654146      -0.04362247      -0.00047016       0.00156056       0.00047568     -10.09462263
Nb      11.89101411       1.70040086       1.65080115       0.00064211      -0.00025862       0.00051560      -9.85327161
Hf      10.31757587      -0.00075695       3.46342621       0.00052138      -0.00163247      -0.00060756     -10.20754472
Ti      11.91963821       1.72960610       5.14201227       0.00065978       0.00101509       0.00023844      -7.30668265
Hf      10.18602573      -0.04638045       6.85850131       0.00041019       0.00023412      -0.00134078     -10.21029085
Zr      11.86978426       1.70040285       8.62936493       0.00229762      -0.00124383      -0.00073268      -8.56770115
Ta      10.13131236      -0.06427580      10.28659781       0.00023809       0.00045387      -0.00064768     -11.75298043
Ti      11.78283117       1.71796081      11.92384878       0.00044885       0.00031797      -0.00011631      -7.63123173
Ti      10.17252500       3.33599332      -0.07827361      -0.00091839       0.00039519       0.00002920      -7.61994614
Zr      11.99294262       5.02589816       1.62183395      -0.00100172       0.00052809       0.00204499      -8.70533542
Hf      10.27073114       3.34171832       3.45456165       0.00220367       0.00205838      -0.00049948     -10.10835530
Hf      11.97391706       5.12721251       5.14282377      -0.00192532      -0.00122045      -0.00122005      -9.86468979
Hf      10.14111206       3.39441435       6.86242939       0.00098941      -0.00022997      -0.00113740     -10.25201529
Ta      11.91229089       5.00926563       8.66626998       0.00081289       0.00029283       0.00102713     -11.50430568
Nb      10.16943176       3.35550118      10.27657497      -0.00041129      -0.00004235       0.00061953     -10.11722176
Ta      11.90131660       5.00142204      11.95563513       0.00249355      -0.00363010      -0.00070599     -11.64975277
Zr      10.20321597       6.85785280      -0.04171912      -0.00139515       0.00109084      -0.00068859      -8.76304764
Ti      11.89141164       8.57514813       1.68031566      -0.00024986      -0.00005190      -0.00044273      -7.38173885
Zr      10.19202017       6.82457635       3.39334903       0.00142379      -0.00304777       0.00064386      -8.59464492
Zr      11.82271802       8.53422801       5.15022963      -0.00115722      -0.00125541       0.00075056      -8.53201616
Hf      10.14047500       6.81710165       6.95928294      -0.00047880       0.00073922       0.00013916     -10.15513585
Ti      11.81341122       8.60015964       8.54111244      -0.00206973       0.00006351      -0.00178208      -7.38499660
Zr      10.19634236       6.88627556      10.24673101      -0.00174259      -0.00260589       0.00083778      -8.90906365
Nb      11.88860854       8.55479779      12.00150929       0.00195057      -0.00012954      -0.00232128      -9.82568357
Ti      10.16131129      10.25095776      -0.04245701      -0.00024417      -0.00027443       0.00067915      -7.68493248
Nb      11.83901100      11.93411750       1.68055159      -0.00054744      -0.00087009       0.00207504      -9.86764741
Nb      10.24133916      10.26506637       3.40831044      -0.00072404       0.00157618      -0.00173582     -10.06033544
Nb      11.83672640      11.84860099       5.11617746      -0.00215885       0.00101950       0.00067145      -9.76559308
Ti      10.14238391      10.26790966       6.85158674       0.00209118       0.00098493      -0.00133986      -7.70375544
Ti      11.82887069      11.89091270       8.60022863       0.00061245      -0.00031399       0.00020503      -7.50053467
Ta      10.15275826      10.22564658      10.28434829      -0.00030512      -0.00000060       0.00096723     -11.78278121
Ta      11.76447580      11.89076932      11.97865902       0.00119824       0.00108412       0.00077662     -11.51227713
