128
Lattice="13.647649263748507 -0.017008545359678464 -0.005229915634341121 -0.016727573089904062 13.601646590789754 0.005926681327503213 -0.005475064748162875 0.005905607875697702 13.595482971509718" Properties=species:S:1:pos:R:3:forces:R:3:energies:R:1 energy=-1229.5876193053357 stress="2.8642544125544282e-05 -0.00015847783115164883 0.00031522645761603664 -0.00015847783115164883 0.00010071044776280728 -0.0003061107543903931 0.00031522645761603664 -0.0003061107543903931 4.596203169533249e-05" free_energy=-1229.5876193053357 pbc="T T T"
Zr      -0.06386972      -0.03576416      -0.04662055       0.00262251       0.00444221      -0.00253197      -8.77637856
Ta       1.61329293       1.69216875       1.71801206      -0.00080200      -0.00134762       0.00318834     -11.47836491
Ti       0.02498385      -0.04145595       3.46874058       0.00007835      -0.00164557      -0.00303696      -7.66035106
Nb       1.63456906       1.64508389       5.06549690       0.00310249      -0.00012009       0.00010459      -9.85735162
Zr      -0.00058868      -0.03685953       6.75636382      -0.00163773      -0.00126274      -0.00117371      -8.78252946
Zr       1.75210599       1.63588806       8.54102355      -0.00191459       0.00048618      -0.00197080      -8.66664532
Ta      -0.13010526       0.01641224      10.21708276       0.00088941      -0.00041205      -0.00167982     -11.58870417
Ta       1.75348433       1.64513057      11.86899993       0.00217889      -0.00045230      -0.00218871     -11.66918931
Ta      -0.00924538       3.31285360      -0.08442987      -0.00273793       0.00164792       0.00111197     -11.67825921
Zr       1.74558026       4.92252886       1.61314617      -0.00282213       0.00226471      -0.00041144      -8.59402171
Ti       0.01399244       3.36668910       3.48604074      -0.00166292       0.00130449      -0.00501569      -7.50843398
Nb       1.62352018       5.12510537       5.21292055      -0.00258576      -0.00081835       0.00080140      -9.88080932
Ta       0.00452254       3.34406812       6.73138846      -0.00080739      -0.00037874       0.00026974     -11.61567723
Hf       1.72045181       5.07551051       8.37639702       0.00334378      -0.00135302       0.00109069     -10.00079581
Hf       0.02457966       3.38051312      10.26622047       0.00237018      -0.00427582       0.00030135     -10.00672505
Ti       1.73976188       4.99721044      11.96652181       0.00141593      -0.00088889       0.00055765      -7.52365352
Hf      -0.02164864       6.76605103       0.03034582       0.00388215      -0.00101771      -0.00204827     -10.03385026
Nb       1.60237294       8.59125539       1.67759747       0.00232059      -0.00085336      -0.00062668      -9.81481104
Hf       0.03387088       6.73983182       3.36294590      -0.00040133       0.00310476       0.00329978     -10.01076292
Hf       1.67192599       8.59796524       5.24752218      -0.00061546      -0.00162601      -0.00234458     -10.13016580
Ti      -0.01393161       6.70721659       6.74974025       0.00049905      -0.00003927       0.00016544      -7.34868787
Zr       1.64286759       8.54341211       8.39627805       0.00129951       0.00111833       0.00168437      -8.74271395
Zr       0.00424098       6.73846234      10.23991350      -0.00249531      -0.00146249      -0.00198351      -8.54867167
Zr       1.60765992       8.65046999      11.88880149       0.00565235       0.00156200       0.00022462      -8.65491346
Ti      -0.09518592      10.33221867       0.08599602       0.00012400       0.00089880      -0.00146094      -7.55482953
Nb       1.56808551      11.98258673       1.76916749      -0.00029793       0.00158745       0.00127482      -9.76919461
Nb       0.06496411      10.30979226       3.37773257      -0.00215893      -0.00080478       0.00044793      -9.96430043
Ti       1.61232340      11.83861162       5.11159262      -0.00043370       0.00378453      -0.00127812      -7.57328767
Nb      -0.04063774      10.37285260       6.86110677       0.00032667      -0.00484896       0.00155964      -9.85009753
Ti       1.63610771      11.95133105       8.51424624       0.00049407       0.00023784       0.00124929      -7.59701804
Ti      -0.15405152      10.32648661      10.13009161       0.00666559       0.00328980      -0.00148495      -7.52624382
Hf       1.62107832      11.92823818      11.77992660      -0.00077260      -0.00371821       0.00259601     -10.01245001
Hf       3.41130511       0.04258705       0.10888728      -0.00226727       0.00128065      -0.00053590     -10.12270984
Ti       5.24491152       1.62647172       1.69137540       0.00139820       0.00037895      -0.00046476      -7.56429864
Hf       3.43725574      -0.02230902       3.45478983      -0.00165470      -0.00129993      -0.00097744     -10.39588868
Nb       5.22636497       1.71321675       5.07639036       0.00007424       0.00384315       0.00100664      -9.89621797
Ta       3.46564732      -0.00132626       6.74842543      -0.00437746       0.00397858      -0.00014132     -11.81760005
Ti       5.11043008       1.69998560       8.60829540      -0.00163987       0.00046797      -0.00069844      -7.62016687
Ti       3.47824784      -0.08867932      10.08411126      -0.00143697       0.00474826      -0.00076397      -7.51910629
Hf       5.08919345       1.71484541      11.77485733      -0.00209708      -0.00498905      -0.00121479     -10.15709619
Ti       3.40291513       3.22856409      -0.03630252       0.00086088      -0.00392147      -0.00040791      -7.54249661
Hf       5.08308037       5.12862393       1.64717085       0.00299939       0.00252938       0.00021711     -10.13284023
Zr       3.42197972       3.29308134       3.45839065      -0.00313109      -0.00162205      -0.00484979      -8.78622507
Hf       5.24633927       5.08419941       5.15190647      -0.00002082      -0.00239040       0.00277049     -10.06877864
Hf       3.47644399       3.29241784       6.75750238       0.00159042      -0.00221696      -0.00102214     -10.13893968
Ta       5.18637131       5.12750282       8.50209856       0.00081662      -0.00088895      -0.00038424     -11.76378647
Ti       3.35086898       3.39417218      10.16357363      -0.00342968       0.00041392       0.00412586      -7.54968097
Zr       5.09696570       5.02832554      11.87125066       0.00213961      -0.00075600      -0.00222806      -8.78532427
Nb       3.26606675       6.86393140       0.07036620       0.00018463      -0.00123675       0.00008621      -9.79358309
Hf       5.17468711       8.44331076       1.65054083      -0.00114742       0.00131930       0.00111553     -10.02461873
Hf       3.28093109       6.82316834       3.42790422       0.00292829       0.00083746      -0.00228929     -10.03189106
Hf       5.09813369       8.48448003       5.19660045       0.00242451      -0.00039161      -0.00019706     -10.17664287
Ti       3.43024149       6.69830481       6.73061883       0.00225744      -0.00102386      -0.00050778      -7.47965092
Ta       5.15653679       8.40672258       8.38146716       0.00005707      -0.00407694      -0.00260951     -11.65724256
Zr       3.37849484       6.79947982      10.17268357       0.00074417       0.00213380      -0.00087312      -8.60080702
Hf       5.14479389       8.45314614      11.97713559       0.00235964      -0.00020023      -0.00214981     -10.01005239
Zr       3.34141406      10.29647496       0.08383265      -0.00084255       0.00055548      -0.00158383      -8.63517558
Ta       5.25930781      11.95110065       1.67093113      -0.00011502       0.00091901       0.00156175     -11.49944872
Hf       3.35064632      10.30008756       3.40418331       0.00053275      -0.00279918       0.00253348     -10.14901171
Ti       5.16745871      11.90540567       5.16478401       0.00079607       0.00223972       0.00016664      -7.47158465
Ti       3.44544743      10.36257382       6.86497512       0.00178868       0.00199830      -0.00007285      -7.63415723
Nb       5.11064093      11.92377340       8.45611045       0.00037082       0.00006061       0.00004374      -9.90601963
Hf       3.45205716      10.30031625      10.06239929      -0.00200657       0.00102760      -0.00104876      -9.97999162
Zr       5.17260249      11.96265922      11.93991177       0.00049640       0.00074877       0.00166260      -8.65853798
Nb       6.86042638       0.07743959       0.04120095      -0.00208830       0.00091645       0.00058910      -9.92227424
Nb       8.50761059       1.55325738       1.72125439      -0.00104715      -0.00216522       0.00016032      -9.97604654
Nb       6.75996480       0.03038941       3.39629765       0.00184183       0.00156428      -0.00130127      -9.97496362
Hf       8.49857079       1.70915129       5.12244908      -0.00018174      -0.00195593       0.00279515     -10.18219992
Hf       6.70092290       0.06979896       6.86124389      -0.00010878      -0.00010261      -0.00295805     -10.06768333
Ta       8.55617511       1.68963762       8.51445778       0.00383274      -0.00050027       0.00094902     -11.83691475
Ta       6.86061807       0.02555884      10.10936793      -0.00229279       0.00044515       0.00212123     -11.66441179
Ta       8.54837975       1.62588981      11.84302765      -0.00255529      -0.00073994      -0.00109639     -11.77637593
Hf       6.92583826       3.37295165       0.01603204      -0.00124785       0.00370212      -0.00032583     -10.12592247
Ti       8.51023153       5.12260118       1.84254506       0.00114547       0.00301719      -0.00305386      -7.37633572
Ta       6.83897859       3.31710197       3.28776410      -0.00128832      -0.00219446       0.00032290     -11.54056101
Hf       8.46951036       5.03761570       5.18484743      -0.00291836       0.00275489       0.00330450     -10.18734345
Ti       6.76575074       3.31315410       6.93535276       0.00162211       0.00062624      -0.00007444      -7.56302080
Ti       8.49370083       5.04999303       8.46228272      -0.00307223      -0.00020570       0.00164566      -7.74022253
Ti       6.90554121       3.36780591      10.15721727      -0.00037091      -0.00024644       0.00088386      -7.68945036
Nb       8.54784726       5.06767916      11.69211828      -0.00233719      -0.00077174      -0.00162572      -9.80310527
Hf       7.05382774       6.72421313      -0.04275467      -0.00322699       0.00001044       0.00007658      -9.96151503
Ta       8.57171111       8.54711955       1.75899008      -0.00117396       0.00037503      -0.00082241     -11.65771267
Ta       6.94734874       6.79913015       3.40843925      -0.00026463       0.00020831      -0.00064945     -11.51021924
Ta       8.50392437       8.51195719       5.11304552       0.00066166       0.00225680       0.00012738     -11.82671500
Nb       6.85197939       6.75102417       6.81545065       0.00031042      -0.00038599       0.00320437      -9.90388613
Zr       8.53468720       8.43086772       8.51166940      -0.00314827       0.00168179       0.00037696      -8.70023484
Nb       6.87195130       6.76043224      10.21140919      -0.00144100       0.00049818       0.00235506      -9.97508117
Nb       8.58850118       8.54670655      11.80980069      -0.00215653      -0.00018622      -0.00125074      -9.95296527
Nb       6.95139963      10.17065324       0.01065932      -0.00071174       0.00160460      -0.00319103      -9.91353976
Ti       8.55086128      11.96458482       1.65551228       0.00098129       0.00032668       0.00115139      -7.64343988
Zr       6.84512859      10.22999993       3.37851020       0.00074543      -0.00149677       0.00179713      -8.62044798
Zr       8.50011993      11.98201381       5.08476960      -0.00053437      -0.00174826       0.00101860      -8.66106650
Nb       6.76319203      10.25328152       6.85473284       0.00030448      -0.00185381       0.00210997     -10.02772833
Ta       8.52567376      11.99671205       8.49779075      -0.00308582       0.00159883       0.00012946     -11.67400062
Hf       6.82251206      10.18660346      10.14144150      -0.00237687       0.00144884      -0.00131839     -10.00629904
Zr       8.54629260      11.94376400      11.92873034       0.00232766      -0.00041781      -0.00214270      -8.80385373
Nb      10.26586925      -0.02605319       0.02746073       0.00289179      -0.00422751      -0.00194330      -9.99838062
Zr      11.97430267       1.62773324       1.77053329       0.00120014      -0.00115850      -0.00311432      -8.62363117
Ti      10.27081252      -0.05989935       3.36398512       0.00343563      -0.00412819      -0.00058946      -7.50774208
Nb      11.92099000       1.67920561       5.06518418      -0.00027023      -0.00020309       0.00112687     -10.03057530
Ta      10.26306733      -0.00432881       6.81059152      -0.00265295       0.00059010       0.00090280     -11.67070615
Hf      11.86415435       1.70910173       8.48692223       0.00094246      -0.00173682       0.00201804     -10.07142479
Ta      10.24151522      -0.00780787      10.19232805       0.00091767       0.00067091       0.00145094     -11.76201273
Nb      11.87787580       1.64775596      11.87360242       0.00018954       0.00170333       0.00377017     -10.04918212
Zr      10.15724953       3.35707138       0.01414343       0.00267900      -0.00345269      -0.00191285      -8.75360427
Nb      11.97295321       5.02402901       1.68746229       0.00130083      -0.00068302      -0.00176158      -9.88452302
Zr      10.20771286       3.38169556       3.36638370       0.00006012      -0.00035099       0.00100982      -8.55079310
Zr      11.90063505       5.04918629       5.15821302      -0.00147897       0.00203866       0.00062487      -8.72660831
Nb      10.18951873       3.37156781       6.85172056       0.00020091       0.00115657       0.00009569      -9.91176090
Ta      11.88498945       5.02748435       8.47181896       0.00164187      -0.00166770       0.00189643     -11.81350924
Ta      10.15148054       3.36680282      10.15508432       0.00338379      -0.00070902       0.00381975     -11.69016973
Hf      11.84404336       5.06290002      11.84311987       0.00221052       0.00052214       0.00101720      -9.84136715
Zr      10.20744028       6.80234177       0.02278574      -0.00015434       0.00225995      -0.00141513      -8.77803783
Zr      11.91446690       8.62156907       1.75521399       0.00202305       0.00093522       0.00039183      -8.63887634
Ta      10.17705201       6.80594365       3.41914902      -0.00345089      -0.00337393      -0.00011172     -11.60922438
Zr      11.94022319       8.56088833       5.09685374      -0.00042778       0.00215080       0.00130573      -8.81079238
Ta      10.18580773       6.74943814       6.81852858      -0.00084496       0.00330536      -0.00027897     -11.44106436
Zr      11.91712976       8.47958165       8.51449307      -0.00097636      -0.00169857       0.00089746      -8.76663089
Ti      10.13536168       6.72523618      10.18202653      -0.00186617       0.00022464      -0.00155936      -7.54523790
Ta      11.86726474       8.57139587      11.84795129      -0.00018273       0.00065557       0.00120818     -11.63912740
Ta      10.22245144      10.22609561      -0.00641590       0.00081572       0.00259412       0.00133698     -11.70775889
Nb      11.88179335      11.90354927       1.75333950      -0.00407684      -0.00211539       0.00175007     -10.08644063
Nb      10.16687241      10.28573147       3.36982047      -0.00259127      -0.00381085       0.00383230      -9.95214138
Ta      11.92231117      11.88436903       5.01290524      -0.00074145       0.00340110      -0.00014832     -11.67382344
Zr      10.20151577      10.27380660       6.83409026       0.00340242       0.00127730       0.00122379      -8.53084808
Nb      11.89718623      11.90605483       8.53207792       0.00128775      -0.00200504      -0.00287424     -10.04573586
Ti      10.22107331      10.26812834      10.20910809      -0.00205361      -0.00148652      -0.00213795      -7.54519611
Ti      11.85585428      11.91230135      11.86245160       0.00126819       0.00118685       0.00189920      -7.67569475
