128
Lattice="13.182729217668877 0.0007650086324613283 0.0031394460655476894 0.0010040745168995648 13.159759179184363 0.0036784401409294355 0.003249770830051421 0.0036303662132805645 13.162060690759757" Properties=species:S:1:pos:R:3:forces:R:3:energies:R:1 energy=-1146.404674536191 stress="0.0004793542596428697 -5.509720437292472e-05 4.056241378488903e-05 -5.509720437292472e-05 0.00013299179616830213 -6.509265054476672e-05 4.056241378488903e-05 -6.509265054476672e-05 0.0001154215076554035" free_energy=-1146.404674536191 pbc="T T T"
Ti       0.02985094       0.00651845       0.02920663      -0.00384771       0.00008783      -0.00581234      -7.78142773
Nb       1.65989131       1.62943448       1.65591478       0.00094230       0.00167158      -0.00288919     -10.06836458
Ti       0.07048834      -0.00305993       3.28216130      -0.00069194       0.00014870      -0.00294048      -7.89523465
Nb       1.63424568       1.66245883       4.91774357      -0.00269395       0.00133141      -0.00023661     -10.07854283
Ti       0.01967135      -0.01624346       6.57585506      -0.00146411       0.00105849       0.00135030      -7.75500874
Ti       1.66106745       1.66697639       8.21874624      -0.00227513       0.00303274      -0.00462660      -7.76331488
Ti       0.00054213       0.03405241       9.85156699      -0.00543108       0.00045843       0.00182390      -7.79434720
Nb       1.63372297       1.63973180      11.52189948       0.00067642      -0.00037532       0.00562391     -10.11428848
Nb      -0.00310243       3.28761464       0.01281307      -0.00143057       0.00500150      -0.00076761     -10.11684741
Nb       1.65833941       4.93346156       1.66967511       0.00174976       0.00168809      -0.00000911     -10.11644483
Ti       0.05258581       3.29536088       3.25990781      -0.00223400       0.00249935       0.00199741      -7.78364461
Ti       1.59796225       4.95882637       4.91584758      -0.00030241      -0.00092951      -0.00024347      -7.77677420
Ti      -0.00907143       3.30682847       6.58125508       0.00168557       0.00290898       0.00064547      -7.73532249
Ti       1.64358506       4.93535435       8.22926991      -0.00002020       0.00004443      -0.00327685      -7.77384578
Nb       0.02935096       3.28947819       9.84864003      -0.00257360      -0.00099934       0.00432183     -10.04772421
Ti       1.60913608       4.90389185      11.53144100      -0.00124949      -0.00023916      -0.00304576      -7.80603156
Nb      -0.03249431       6.58418193       0.01753200       0.00043333      -0.00637907       0.00223375     -10.11826404
Ti       1.64596659       8.21578612       1.65353041       0.00048508      -0.00176107       0.00073321      -7.74832149
Nb       0.03608195       6.58689700       3.27459497       0.00238619       0.00291184       0.00059687     -10.12023246
Nb       1.64520048       8.21742598       4.91537840       0.00344943      -0.00306287      -0.00267766     -10.11596839
Nb      -0.01157235       6.55913590       6.57779637       0.00829522       0.00212039      -0.00028086     -10.13159088
Nb       1.64548597       8.22217257       8.22672730      -0.00362160      -0.00370752      -0.00196786     -10.09749870
Nb       0.00983787       6.60873106       9.86655104       0.00474176      -0.00368015      -0.00307676     -10.10431796
Nb       1.65378777       8.25554875      11.52781619       0.00143839      -0.00008745      -0.00176317     -10.10202305
Nb      -0.00460877       9.88760744       0.00106605      -0.00069799      -0.00252528      -0.00346463     -10.08691299
Nb       1.63047588      11.53634724       1.64840334       0.00292653      -0.00125056       0.00063393     -10.08408962
Ti       0.05202345       9.86115995       3.31869597       0.00337698      -0.00248598      -0.00053156      -7.81028548
Nb       1.61632744      11.52550797       4.92366506      -0.00001590      -0.00053038      -0.00296071     -10.09226113
Nb      -0.01773440       9.89366177       6.58435371      -0.00070916      -0.00337452       0.00234441     -10.12595878
Nb       1.63698914      11.54781839       8.23483340      -0.00069021       0.00093802       0.00234854     -10.03216171
Ti       0.06984977       9.83150960       9.88266038       0.00156707      -0.00156915       0.00171221      -7.82535162
Ti       1.66700003      11.51210195      11.54018520       0.00058608      -0.00119101       0.00097779      -7.74062266
Ti       3.27446637       0.03288090       0.01989078       0.00103056       0.00320692       0.00135298      -7.81177264
Ti       4.92500760       1.64980284       1.64849617      -0.00666713       0.00065564       0.00073054      -7.79257784
Nb       3.29801460       0.03098837       3.28940797       0.00210056       0.00317167      -0.00267977     -10.14576537
Ti       4.93624240       1.62511398       4.96977423      -0.00233498      -0.00398978       0.00118133      -7.79708559
Nb       3.29665600       0.01122861       6.58316227       0.00434873       0.00363559       0.00096525     -10.16722755
Nb       4.93127190       1.66023743       8.22136884      -0.00102783      -0.00327882       0.00562279     -10.14762349
Ti       3.34118522       0.01244752       9.87141685       0.00173830       0.00190847       0.00419817      -7.76398962
Nb       4.97142993       1.66475333      11.52691857       0.00086693       0.00116508      -0.00513368     -10.08102449
Nb       3.31085760       3.28463407       0.02172060      -0.00238258       0.00125530      -0.00013658     -10.16562467
Ti       4.93745818       4.93659062       1.60190327      -0.00602960       0.00038167       0.00049314      -7.79264954
Ti       3.23255253       3.25791287       3.27972340      -0.00003037      -0.00016056      -0.00031774      -7.83213979
Ti       4.98319515       4.90318540       4.99982877      -0.00462364       0.00476541       0.00272261      -7.82244300
Nb       3.29136235       3.32014608       6.57722378      -0.00029819      -0.00173329      -0.00011301     -10.11783736
Nb       4.95615102       4.95365395       8.19283572      -0.00034647       0.00205658       0.00127240     -10.04861431
Nb       3.29454414       3.28893494       9.86649828       0.00619432       0.00191365       0.00123062     -10.17652237
Nb       4.96738629       4.92951501      11.54601750       0.00061082      -0.00016596      -0.00015468     -10.07837042
Ti       3.32362133       6.58126388       0.00269164      -0.00201503       0.00191948       0.00205097      -7.75879374
Nb       4.90144602       8.21153531       1.64461559      -0.00153140      -0.00492818      -0.00158596     -10.09622801
Ti       3.27479593       6.60315975       3.28568086       0.00010255       0.00280260       0.00300752      -7.80197095
Ti       4.95763545       8.28705694       4.93375529      -0.00156059      -0.00258745      -0.00164649      -7.78055140
Ti       3.30507692       6.56827592       6.60345154       0.00575863       0.00073360       0.00192138      -7.79994773
Nb       4.94265692       8.20425314       8.23224984      -0.00034959       0.00372864      -0.00518205     -10.07180973
Ti       3.33193395       6.60120065       9.85407143      -0.00097221      -0.00355882       0.00278794      -7.81492195
Nb       4.94590354       8.20477010      11.51065113       0.00231483       0.00257935       0.00166053     -10.11739015
Ti       3.30696789       9.85342767      -0.01643118      -0.00099763      -0.00165226       0.00049334      -7.75935166
Ti       4.96853251      11.49790804       1.71259642      -0.00019089       0.00289766      -0.00199213      -7.78634526
Nb       3.28699825       9.85310782       3.29551122       0.00062242      -0.00304070       0.00439918     -10.11080099
Nb       4.95873440      11.51556351       4.93453987      -0.00272885      -0.00035591      -0.00247010     -10.21818676
Ti       3.26374179       9.91304383       6.61610536       0.00325317      -0.00168277      -0.00183035      -7.76871588
Nb       4.96054101      11.52536362       8.24895171      -0.00013774      -0.00042730      -0.00110070     -10.17150684
Nb       3.27200678       9.88598569       9.89580462       0.00190400      -0.00576985       0.00104583     -10.21128069
Nb       4.94336964      11.52556503      11.52904547       0.00078945       0.00272811       0.00219626     -10.07903569
Ti       6.62269472      -0.04628350      -0.00658592       0.00148635      -0.00412989      -0.00358908      -7.78140470
Ti       8.26780940       1.61401471       1.65022128      -0.00131968      -0.00229332       0.00075883      -7.84423778
Nb       6.61099455       0.00966652       3.29786568       0.00002543      -0.00075204      -0.00341075     -10.03463960
Ti       8.25877738       1.65097074       4.95152394       0.00031166      -0.00478496      -0.00059212      -7.80147127
Nb       6.60903336       0.01326696       6.57322092       0.00538165      -0.00074316      -0.00374004     -10.08047983
Ti       8.28537794       1.62154795       8.21657433       0.00136915       0.00030430      -0.00457350      -7.84677832
Nb       6.59981242       0.00547505       9.89001298      -0.00106156       0.00113628       0.00186776     -10.13173051
Ti       8.29283655       1.62839788      11.51438538       0.00091622       0.00020142       0.00274937      -7.80602137
Ti       6.56368553       3.33706629      -0.04988237       0.00000993       0.00207632      -0.00451767      -7.82081700
Ti       8.23902899       4.96031549       1.65246409       0.00262595       0.00133548      -0.00054255      -7.76030354
Ti       6.62343403       3.29237273       3.33357736       0.00108747      -0.00285570      -0.00372550      -7.81561658
Nb       8.22251269       4.90555846       4.91559785      -0.00376127       0.00215261       0.00123088     -10.05565435
Ti       6.58389670       3.30152293       6.59241193       0.00312308       0.00043548       0.00255457      -7.77026614
Ti       8.26719701       4.91699178       8.23497319      -0.00072206       0.00031833       0.00432676      -7.80240439
Ti       6.54200310       3.30584908       9.89835026      -0.00480796       0.00442300       0.00273641      -7.81716169
Nb       8.22584663       4.93792663      11.52137647      -0.00158281       0.00281378      -0.00086931     -10.12230573
Nb       6.58528534       6.54822409       0.02938935       0.00144628       0.00131072      -0.00175609     -10.14877631
Nb       8.25348953       8.19103892       1.64504636      -0.00224059       0.00030754      -0.00150630     -10.11050325
Ti       6.62784456       6.62148024       3.27969551      -0.00255378      -0.00264504       0.00219577      -7.83658224
Nb       8.24048398       8.22468466       4.93356728       0.00213327       0.00004060       0.00383817     -10.09299200
Ti       6.59369932       6.58804075       6.58219918      -0.00397480       0.00132488       0.00188788      -7.80759894
Ti       8.22515111       8.25853860       8.19326373      -0.00611131       0.00049997      -0.00263011      -7.79863928
Ti       6.55564855       6.58406949       9.87599052      -0.00010617      -0.00161435       0.00074763      -7.80460451
Ti       8.23426890       8.24596532      11.55415706      -0.00394665       0.00311105       0.00171122      -7.72657405
Nb       6.58503995       9.87827592       0.01752207       0.00306342      -0.00072962      -0.00028699     -10.21552349
Nb       8.24752226      11.54448358       1.68082212       0.00029246      -0.00082891      -0.00170175     -10.15061465
Nb       6.58224718       9.83491968       3.29883066       0.00233070       0.00045658      -0.00042524     -10.11277103
Ti       8.20369498      11.50778772       4.93859856       0.00330354      -0.00141153       0.00024786      -7.81708673
Nb       6.59093260       9.85892831       6.58568697      -0.00423393      -0.00429057       0.00602157     -10.08746183
Ti       8.24274116      11.53791159       8.22179804      -0.00188161       0.00084959      -0.00165950      -7.80451638
Nb       6.62761551       9.84659308       9.87795591      -0.00020523       0.00091921       0.00078943     -10.14556033
Nb       8.27893214      11.51354047      11.52655270      -0.00000329       0.00281639      -0.00005921     -10.19528319
Nb       9.88609381       0.02474739       0.04538263       0.00028558      -0.00223583      -0.00362360     -10.02575264
Ti      11.51605517       1.66897410       1.59726566       0.00231479      -0.00263664       0.00293942      -7.83315123
Ti       9.84280530      -0.00434383       3.26505610      -0.00131049      -0.00113992       0.00316778      -7.80746873
Ti      11.50921989       1.69106062       5.00271817      -0.00153190       0.00228064      -0.00281775      -7.86519708
Nb       9.90082265       0.00829014       6.58106687       0.00137537      -0.00225568       0.00063406     -10.03308845
Nb      11.57390225       1.63400690       8.20009497       0.00239737       0.00393921      -0.00144965     -10.17223601
Nb       9.89111903       0.01648348       9.85598673      -0.00080785      -0.00396556       0.00444965     -10.05940895
Ti      11.52258439       1.69584209      11.51459524       0.00387471      -0.00235057       0.00561486      -7.83336333
Nb       9.90796017       3.27288229      -0.01253738       0.00089770      -0.00304651      -0.00072291     -10.05359434
Ti      11.56073209       4.94003800       1.63096185      -0.00200563      -0.00057603       0.00083696      -7.79752470
Ti       9.86247242       3.34096969       3.33501951       0.00610705      -0.00246224      -0.00006360      -7.82549209
Nb      11.54390897       4.90426929       4.92781952      -0.00121438       0.00244385      -0.00037169     -10.11708646
Nb       9.90499695       3.27696335       6.56906657       0.00551501      -0.00097586      -0.00497928     -10.10535251
Ti      11.52250548       4.92060682       8.26679842       0.00079337      -0.00096000      -0.00214521      -7.80369056
Nb       9.89233135       3.28161646       9.85688221      -0.00138065       0.00205599      -0.00027913     -10.09632035
Nb      11.52770143       4.93200565      11.50250868       0.00322059       0.00585719      -0.00111692     -10.23800113
Ti       9.89300021       6.56325401      -0.02321109       0.00168333      -0.00213072      -0.00023578      -7.72589715
Ti      11.54815340       8.20828888       1.62466804      -0.00023477       0.00074106      -0.00028641      -7.78938015
Nb       9.86830161       6.55516930       3.29276828       0.00087136       0.00553764       0.00275344     -10.16144587
Nb      11.52258386       8.21292735       4.95848781      -0.00449396      -0.00161029       0.00194170     -10.16658343
Ti       9.89273082       6.55874537       6.50824271      -0.00328486       0.00364940      -0.00525882      -7.82205702
Ti      11.56782554       8.21251674       8.22083788       0.00077723       0.00012960       0.00039291      -7.81125277
Nb       9.86597468       6.57278670       9.86917369       0.00138146      -0.00540355       0.00410056     -10.07919819
Nb      11.51807495       8.23910453      11.51371425      -0.00193465      -0.00201019       0.00019775     -10.16002150
Nb       9.90718229       9.87501683      -0.00640924       0.00307081      -0.00215917      -0.00385320     -10.08350035
Ti      11.50301918      11.50373699       1.57962627       0.00155129       0.00086217       0.00116763      -7.83179015
Ti       9.83888686       9.81424586       3.28619746      -0.00211943       0.00117210       0.00214663      -7.80084972
Ti      11.52322257      11.46992207       5.01746525      -0.00638264       0.00103860       0.00130085      -7.84287564
Nb       9.89929379       9.88204593       6.58531921      -0.00479136       0.00237439      -0.00280509     -10.03173878
Ti      11.51603129      11.53604034       8.18756133      -0.00131020       0.00409576       0.00112281      -7.83903798
Ti       9.85375143       9.87878587       9.90342725       0.00377682      -0.00118728      -0.00034986      -7.74118213
Ti      11.47564363      11.49672797      11.57827085       0.00031350       0.00124678      -0.00224832      -7.87362354
