128
Lattice="13.148623924049009 0.0011020070855140122 -0.0009617741013715112 0.0011739745029838138 13.192938585891548 -0.007908901026710071 -0.000979151597878954 -0.007846223745430854 13.153049713210146" Properties=species:S:1:pos:R:3:forces:R:3:energies:R:1 energy=-1146.3784800559233 stress="-0.0003262876740135945 2.7163505722417564e-05 1.3232129935493898e-05 2.7163505722417564e-05 0.0005204339367644969 -0.00015949184450432383 1.3232129935493898e-05 -0.00015949184450432383 -0.00021433056358827364" free_energy=-1146.3784800559233 pbc="T T T"
Ti       0.01533900       0.00257939      -0.02596454      -0.00045125      -0.00128637      -0.00053823      -7.81270585
Ti       1.65729818       1.67725937       1.59897110       0.00084040      -0.00082082       0.00137981      -7.79987482
Ti      -0.01977783      -0.01255738       3.27373447      -0.00050565       0.00094378       0.00052525      -7.80766193
Nb       1.63460210       1.63786629       4.94196056       0.00102393      -0.00217602       0.00083136     -10.11444298
Ti       0.02806978      -0.01803771       6.56025870      -0.00041449      -0.00211894      -0.00078704      -7.77212193
Ti       1.63557206       1.66315191       8.23922120      -0.00010140      -0.00155519      -0.00084436      -7.78450773
Nb      -0.02341889      -0.02177099       9.87917569       0.00202390      -0.00386197      -0.00003912     -10.09857895
Nb       1.64333363       1.64826672      11.50611260      -0.00047091      -0.00057872      -0.00169589     -10.15577586
Ti       0.04672446       3.30267911       0.00466822      -0.00166549       0.00085244       0.00078310      -7.74676045
Nb       1.62396813       4.93106379       1.62971563       0.00145699      -0.00177648      -0.00019431     -10.18087936
Nb       0.00088892       3.29837208       3.25850484      -0.00012151      -0.00012291       0.00124849     -10.04946595
Ti       1.61775589       4.98108647       4.94835147       0.00028596      -0.00128212       0.00000752      -7.79293107
Nb      -0.00383820       3.30266101       6.57966960       0.00045008       0.00063329       0.00130506     -10.09827493
Ti       1.63114735       4.94442028       8.20314400      -0.00094380       0.00021778       0.00066539      -7.81250463
Nb       0.00795762       3.32246760       9.87948517      -0.00031566       0.00279225      -0.00231185     -10.06706683
Ti       1.66781811       4.96895582      11.53454673      -0.00147722       0.00029695      -0.00083141      -7.78671581
Nb      -0.01195601       6.58821806      -0.01496370      -0.00242155      -0.00051086      -0.00271083     -10.10560069
Ti       1.65188937       8.17137932       1.63534755      -0.00060424      -0.00034828      -0.00059987      -7.81944974
Nb      -0.02575976       6.61467879       3.26383366      -0.00257191      -0.00050086      -0.00039229     -10.03086279
Nb       1.63393555       8.24916892       4.93752676       0.00199092       0.00116385       0.00221265     -10.19809974
Nb      -0.00752136       6.60011182       6.59506782       0.00099694      -0.00011839       0.00246871     -10.07410614
Ti       1.70037346       8.23807018       8.22233393      -0.00031937       0.00044199       0.00180661      -7.81564204
Ti      -0.01577663       6.59993427       9.88515929      -0.00066489       0.00103278       0.00123605      -7.77738434
Nb       1.63249740       8.24415906      11.49260755      -0.00064978       0.00092143      -0.00214467     -10.14599234
Ti      -0.00016399       9.86976871      -0.05971715       0.00062642       0.00042941      -0.00025541      -7.81947791
Ti       1.66669701      11.53184064       1.61541716       0.00008953       0.00113265      -0.00023052      -7.77125755
Ti       0.00143325       9.89800864       3.30589974       0.00006268      -0.00050351      -0.00120396      -7.80522428
Nb       1.61103617      11.52934055       4.91537974      -0.00165487       0.00204534       0.00014563     -10.08151545
Ti       0.03528026       9.91789294       6.53856414      -0.00074608      -0.00024082       0.00081253      -7.78826510
Nb       1.62627335      11.55234728       8.21493645      -0.00242900       0.00305322       0.00221929     -10.10427388
Ti       0.01265566       9.90749802       9.90634358       0.00084289      -0.00056928       0.00032836      -7.85864045
Nb       1.61738060      11.51589437      11.51291140      -0.00054830       0.00003645      -0.00199962     -10.07587658
Nb       3.29531100      -0.00903063      -0.00866124       0.00071544      -0.00046484      -0.00097229     -10.09211089
Ti       4.94567513       1.64264713       1.58676084       0.00033880       0.00039063      -0.00149653      -7.79908914
Ti       3.31382653      -0.05016427       3.30357342       0.00019342       0.00005974       0.00056000      -7.79559062
Nb       4.92880715       1.65913906       4.91689066       0.00188731       0.00101930      -0.00179816     -10.10171177
Nb       3.27439738      -0.00717998       6.58169272      -0.00569656       0.00079841      -0.00141310     -10.18110787
Nb       4.90106609       1.64465276       8.24461418      -0.00155279       0.00139928       0.00157144     -10.11854095
Ti       3.23519494      -0.04324379       9.88493982      -0.00026866      -0.00033903      -0.00064293      -7.78466529
Ti       4.92985136       1.61958899      11.54626637      -0.00028958       0.00021157      -0.00044329      -7.83071181
Nb       3.26559108       3.28830969       0.00058321       0.00158267       0.00250111       0.00066455     -10.08681862
Nb       4.97421936       4.94111346       1.62929367      -0.00044620      -0.00065346      -0.00336495     -10.16650737
Ti       3.29523135       3.32644179       3.28525732       0.00082997       0.00120396       0.00118289      -7.77202668
Nb       4.92898143       4.93047254       4.92389859       0.00180494      -0.00047292      -0.00180613     -10.14773700
Nb       3.26796233       3.29896549       6.58525294       0.00012081      -0.00023480       0.00016154     -10.09615251
Ti       4.91800231       4.97435291       8.19678721      -0.00054488      -0.00142142       0.00168545      -7.82991156
Ti       3.24813920       3.28405856       9.88019677      -0.00072615       0.00018853      -0.00032221      -7.76127274
Ti       4.91552760       4.96372858      11.54517522       0.00042847      -0.00104357       0.00133966      -7.82693754
Nb       3.32302017       6.59436457      -0.00050065       0.00170133      -0.00132869      -0.00095501     -10.14177948
Ti       4.90213566       8.20343587       1.65766838      -0.00026329       0.00067728       0.00018296      -7.78817464
Nb       3.29710087       6.59185486       3.27267174       0.00087287      -0.00063012       0.00070734     -10.10071711
Ti       4.89746076       8.20438895       4.91374100      -0.00136741       0.00117924       0.00037113      -7.81325773
Nb       3.30248827       6.60002062       6.60142478      -0.00094072       0.00366527      -0.00038377     -10.04848341
Ti       4.90800133       8.20744021       8.23268492       0.00050271      -0.00104793      -0.00001479      -7.82742668
Nb       3.29895746       6.59593143       9.84404466      -0.00049782       0.00029182       0.00102712     -10.07275130
Nb       4.94659465       8.25344694      11.51149057       0.00094961      -0.00027327      -0.00031436     -10.11089468
Ti       3.27178815       9.88092888      -0.02877275      -0.00052352       0.00003469       0.00078357      -7.78056344
Nb       4.90325146      11.53101630       1.62398423      -0.00131213       0.00024398       0.00052989     -10.10617305
Nb       3.26260825       9.88681162       3.25911164       0.00211547       0.00079339       0.00066649     -10.11813377
Nb       4.92890058      11.52237691       4.92078187       0.00116524      -0.00114761      -0.00168150     -10.12977292
Nb       3.26693971       9.88221387       6.58018328      -0.00070436      -0.00347007      -0.00127375     -10.11236462
Ti       4.91436576      11.55656934       8.18762449       0.00184886      -0.00107894       0.00035602      -7.79416622
Nb       3.28719187       9.90125296       9.86783951      -0.00151815      -0.00144857       0.00243029     -10.13858069
Ti       4.92528274      11.53898064      11.54554829       0.00171807       0.00050845      -0.00074984      -7.76028162
Nb       6.55542361      -0.02121206      -0.01734405      -0.00194667      -0.00016768      -0.00167637     -10.10103160
Ti       8.21824912       1.60605029       1.60892124       0.00068673      -0.00019415      -0.00100527      -7.76728613
Nb       6.56259322      -0.02009485       3.26939243      -0.00121944      -0.00121436       0.00147521     -10.17914158
Nb       8.21242351       1.64891400       4.93162038      -0.00319715       0.00209094       0.00002603     -10.15377419
Nb       6.56094480      -0.00497685       6.60255457       0.00338084      -0.00099410      -0.00241429     -10.16083046
Nb       8.22838279       1.62216885       8.25355658      -0.00091530       0.00172976      -0.00215242     -10.13363799
Nb       6.58060256      -0.01295318       9.88084823      -0.00283668      -0.00061086       0.00224585     -10.07461899
Nb       8.23276041       1.63471622      11.50317180      -0.00030969       0.00271669       0.00376317     -10.11302431
Nb       6.60364367       3.30387580       0.00469171      -0.00029962       0.00155906      -0.00100463     -10.07374327
Ti       8.18285854       4.93795615       1.61756040       0.00004861       0.00012129       0.00067042      -7.79525022
Ti       6.56532008       3.30146977       3.28425751      -0.00012771       0.00041057       0.00080966      -7.74956320
Ti       8.22478772       4.97844011       4.95545134      -0.00022076      -0.00118839       0.00118876      -7.78042485
Ti       6.56218022       3.25437070       6.57863859      -0.00062713      -0.00017948      -0.00043984      -7.73964272
Nb       8.20427581       4.95803447       8.21714501      -0.00030384       0.00082013      -0.00142034     -10.15404407
Ti       6.64958527       3.28626248       9.88178043       0.00068057       0.00005913       0.00101702      -7.83220091
Nb       8.23237310       4.95129300      11.52949695      -0.00044341      -0.00268242       0.00067032     -10.05398735
Ti       6.57685616       6.59440154      -0.02495339      -0.00067745      -0.00020454      -0.00049147      -7.78551850
Ti       8.24330916       8.27757908       1.65619471       0.00227402       0.00022626       0.00117285      -7.78024415
Nb       6.60199951       6.58849234       3.26777641       0.00186608       0.00092364       0.00225438     -10.09789283
Nb       8.22795841       8.25562102       4.92520265       0.00061085       0.00094809      -0.00152976     -10.10109171
Nb       6.55841266       6.58685747       6.58935330      -0.00012665       0.00046751      -0.00217813     -10.04910286
Ti       8.18953760       8.17915671       8.20594266      -0.00012468       0.00115725      -0.00099130      -7.82415410
Nb       6.58396606       6.62102438       9.86506797      -0.00157027       0.00117558       0.00229335     -10.13143564
Nb       8.23232529       8.26425231      11.49114643      -0.00156098       0.00050292      -0.00128099     -10.01932781
Ti       6.57852589       9.90834162      -0.00784119       0.00066986       0.00042687       0.00130437      -7.80415744
Nb       8.22658688      11.52558003       1.61702641       0.00078744      -0.00098668       0.00145863     -10.14715476
Ti       6.60142031       9.91890841       3.29540034       0.00044168       0.00034448       0.00106742      -7.77866633
Nb       8.21949672      11.51274691       4.94779343       0.00086292      -0.00207936      -0.00154962     -10.11587142
Ti       6.58220150       9.91748755       6.50226768       0.00092892       0.00018854      -0.00018208      -7.76688271
Ti       8.20007419      11.60956914       8.18315407       0.00115045      -0.00053316       0.00019672      -7.82863589
Ti       6.56595835       9.85066406       9.93349950      -0.00026462      -0.00085909      -0.00049781      -7.85019271
Ti       8.20640146      11.56950663      11.54305936      -0.00069346      -0.00071715      -0.00033669      -7.79897067
Nb       9.87236940       0.00175226      -0.02222348       0.00262248      -0.00244278       0.00355835     -10.12078974
Nb      11.52140409       1.66544405       1.63215507      -0.00168897      -0.00327931       0.00023988     -10.11860335
Nb       9.88921378      -0.00829120       3.27358988       0.00066406      -0.00130035      -0.00190720     -10.19853920
Ti      11.48212557       1.69346049       4.90419023       0.00028804       0.00011230      -0.00038657      -7.77083147
Nb       9.85904850      -0.02168440       6.60121615       0.00296193      -0.00432235      -0.00102975     -10.11332912
Ti      11.50683225       1.69464831       8.24510277       0.00161741      -0.00022164      -0.00161374      -7.80708386
Ti       9.85004599       0.04002821       9.86852550       0.00104248      -0.00254170       0.00140573      -7.77232451
Ti      11.52236573       1.65383033      11.47745303       0.00131637       0.00231505       0.00132444      -7.78239711
Ti       9.82477097       3.27479726      -0.04014229      -0.00026574      -0.00054633       0.00045624      -7.81890341
Ti      11.55099051       4.93187333       1.68957318      -0.00007691      -0.00041257       0.00100736      -7.88297173
Nb       9.85934982       3.29428135       3.28407777       0.00001356       0.00109522       0.00059955     -10.05083394
Nb      11.48718304       4.97338036       4.89982264      -0.00220945      -0.00199844      -0.00122033     -10.23108205
Nb       9.86777482       3.30282437       6.57408745       0.00003206       0.00209697      -0.00257397     -10.14727033
Nb      11.50963179       4.96808033       8.25278084       0.00354986      -0.00061017       0.00055333     -10.20344523
Nb       9.87008065       3.28336382       9.88404166       0.00140340       0.00080312       0.00252966     -10.12868122
Ti      11.50335627       4.94401118      11.46947789       0.00082800       0.00116752      -0.00030188      -7.79188018
Ti       9.86869867       6.63935053      -0.06549473      -0.00000135      -0.00006237      -0.00053878      -7.87263052
Ti      11.51401023       8.23813940       1.62737119       0.00040203      -0.00046204      -0.00067102      -7.77908784
Ti       9.84691136       6.63043821       3.31850275      -0.00028532       0.00030616       0.00055729      -7.75789089
Ti      11.51262976       8.21131133       4.93733173      -0.00011663       0.00063590       0.00145868      -7.75670930
Nb       9.85004222       6.61223409       6.56483476      -0.00074402       0.00022433      -0.00287052     -10.08990012
Ti      11.49159448       8.18019911       8.20015199      -0.00053077      -0.00017023      -0.00095988      -7.82534525
Ti       9.82888490       6.60039492       9.89001578       0.00151359       0.00103662       0.00184489      -7.78267452
Nb      11.48987805       8.24229486      11.50243906       0.00148463      -0.00046729      -0.00091042     -10.01187939
Ti       9.89106271       9.89486081      -0.01419449       0.00097290       0.00095802      -0.00000512      -7.81337146
Nb      11.53278690      11.52975937       1.61145910      -0.00214708       0.00327106      -0.00163183     -10.10340891
Nb       9.87647413       9.86640046       3.28012697      -0.00310125       0.00028709       0.00175675     -10.16927311
Nb      11.54612696      11.53624400       4.93313651       0.00028010       0.00191650       0.00298325     -10.06218022
Ti       9.84590169       9.90686778       6.50840643       0.00054307       0.00089351      -0.00166905      -7.82206830
Ti      11.52761087      11.57874074       8.19158912      -0.00066394       0.00102772       0.00095446      -7.80743974
Ti       9.87047452       9.84284486       9.91196937      -0.00073643       0.00064491      -0.00196074      -7.91171550
Ti      11.52719804      11.54883844      11.52056779       0.00037137      -0.00094522      -0.00122641      -7.74608539
