128
Lattice="13.160828714302903 -0.01086455521020777 0.010254855080123105 -0.011049323812325589 13.16486454794818 0.004287327947759672 0.01054785794461063 0.004440275972510047 13.171255070064051" Properties=species:S:1:pos:R:3:forces:R:3:energies:R:1 energy=-1146.3715445937814 stress="-1.3935066107235029e-05 -0.0002439683617335448 0.00025130188076292684 -0.0002439683617335448 3.642594859138469e-05 0.00018260271152629806 0.00025130188076292684 0.00018260271152629806 0.00029439491610541664" free_energy=-1146.3715445937814 pbc="T T T"
Ti       0.01626660      -0.01175572       0.00050109       0.00017264       0.00185940      -0.00243223      -7.79371150
Nb       1.63343163       1.63640073       1.61860755       0.00105811      -0.00067588      -0.00044947     -10.07773091
Ti       0.00790605       0.00737623       3.27162177       0.00090103      -0.00116448       0.00080743      -7.81178572
Nb       1.62213040       1.66211284       4.95258491       0.00174661      -0.00270378      -0.00038721     -10.08389018
Ti      -0.04629926       0.01404623       6.58437877      -0.00087074      -0.00046939      -0.00035756      -7.84903096
Ti       1.66165957       1.67147728       8.20514529       0.00112659       0.00023260       0.00018391      -7.79471091
Ti      -0.03100847       0.02528075       9.89059263      -0.00112533       0.00143920       0.00096209      -7.85230455
Ti       1.67213815       1.63208565      11.54812504      -0.00153112      -0.00128792       0.00193509      -7.80236284
Ti      -0.05402736       3.30791275      -0.03997156       0.00190908       0.00064033      -0.00050496      -7.84421494
Ti       1.62676738       4.99416195       1.64460359      -0.00180375       0.00270961      -0.00036378      -7.79267938
Ti      -0.00650339       3.29094670       3.29010522      -0.00153771       0.00232699       0.00149914      -7.80887067
Nb       1.63589298       4.93685717       4.93153674       0.00153332       0.00181146       0.00090038     -10.08103061
Ti       0.01419898       3.28348846       6.59074880      -0.00065361       0.00054921       0.00142002      -7.80923473
Nb       1.64052973       4.92111440       8.24294818       0.00065002       0.00101918      -0.00197013     -10.06251751
Nb       0.00732399       3.31249570       9.87033789       0.00002416       0.00071756      -0.00053375     -10.14744289
Ti       1.60859394       4.95224092      11.50794890      -0.00012635      -0.00161329       0.00023044      -7.79493122
Nb      -0.00012868       6.55462288      -0.02772753      -0.00032377      -0.00001285       0.00229857     -10.12174961
Nb       1.63811706       8.22726364       1.62427529      -0.00061571       0.00100860       0.00013630     -10.17110826
Nb      -0.01618621       6.57793972       3.29354778       0.00193135       0.00192584      -0.00016968     -10.11718789
Nb       1.64854564       8.22612896       4.98050171      -0.00048708      -0.00147652       0.00179226     -10.13461296
Ti       0.05451284       6.59087443       6.55739129       0.00252446       0.00073860      -0.00046959      -7.83380081
Ti       1.64324227       8.25884314       8.20896215       0.00014046       0.00013958       0.00056929      -7.75874767
Ti      -0.01153582       6.57068683       9.92642410      -0.00007198       0.00092054      -0.00180561      -7.84093176
Ti       1.65031224       8.20822095      11.57530735       0.00119684      -0.00088259       0.00147330      -7.77366851
Ti      -0.00438571       9.89905910       0.01933944      -0.00077614       0.00020764      -0.00047252      -7.78207960
Nb       1.63707007      11.52600776       1.66211490       0.00029437      -0.00180634      -0.00031097     -10.11821292
Nb      -0.01873707       9.87076815       3.29278343       0.00147411      -0.00004511      -0.00089957     -10.14983158
Ti       1.63378737      11.50112598       4.91875309      -0.00122929       0.00001926      -0.00035217      -7.78583502
Nb       0.00642131       9.85426624       6.64694175       0.00070198       0.00002361      -0.00098366     -10.07637490
Ti       1.63771836      11.48182857       8.27513237       0.00119655      -0.00181979      -0.00073119      -7.78897874
Ti       0.01251368       9.87302001       9.88015080      -0.00282295       0.00149913      -0.00212884      -7.79193024
Nb       1.62192090      11.53064878      11.51671937       0.00020617      -0.00033113       0.00124798     -10.06567235
Nb       3.29019923       0.01012256      -0.01384720      -0.00014180       0.00002356      -0.00166670     -10.13999610
Ti       4.97667675       1.61169501       1.64348220      -0.00007257       0.00185330      -0.00147938      -7.79199996
Nb       3.27545536      -0.00044100       3.30649260      -0.00150326       0.00174957       0.00010179     -10.12072991
Nb       4.93710986       1.65157459       4.95410697       0.00133867       0.00145493       0.00111050     -10.16924234
Nb       3.29870016      -0.00939567       6.59475329      -0.00118693       0.00046092       0.00109682     -10.10386760
Ti       4.89982721       1.59017083       8.21186104       0.00234742       0.00120580      -0.00272831      -7.81633699
Ti       3.28876583      -0.02852151       9.89739288      -0.00190975      -0.00055720       0.00118952      -7.76176709
Nb       4.93221973       1.65052102      11.50754585      -0.00170436       0.00222937       0.00011651     -10.09932817
Ti       3.31177445       3.25941728      -0.00122805       0.00140667      -0.00189096      -0.00097494      -7.78211353
Nb       4.93418100       4.91317207       1.63241924       0.00190997      -0.00104822       0.00225621     -10.12923688
Ti       3.27691703       3.28842780       3.34191975       0.00109939      -0.00074288       0.00067496      -7.80029776
Nb       4.93151970       4.92392476       4.97574724      -0.00002558       0.00081768       0.00181332     -10.06420453
Nb       3.27290769       3.27633961       6.61571871       0.00243220       0.00106599       0.00110491     -10.14257160
Ti       4.93470622       4.97016869       8.22790140       0.00081990      -0.00241255      -0.00022170      -7.78223931
Ti       3.24181042       3.29895262       9.83716186       0.00060766       0.00120144      -0.00089228      -7.82875847
Ti       4.98130881       4.94073181      11.54808944      -0.00004836       0.00172195      -0.00037829      -7.77417273
Nb       3.26770731       6.58090454      -0.00967001       0.00047264       0.00042100       0.00221186     -10.07412207
Nb       4.93773089       8.24928439       1.66531182      -0.00015908       0.00153162       0.00124568     -10.14736799
Nb       3.27600541       6.57318646       3.29660652       0.00192526      -0.00008769      -0.00204077     -10.20644485
Nb       4.94778217       8.21979653       4.94257701       0.00106429      -0.00043784       0.00064194     -10.13508899
Ti       3.27178962       6.56588697       6.56303069       0.00086227      -0.00052555      -0.00131190      -7.77320321
Nb       4.93176139       8.21428538       8.23810691      -0.00072597      -0.00012518       0.00034280     -10.15802155
Ti       3.30262039       6.62443801       9.88613376       0.00136008       0.00010044      -0.00028388      -7.80134741
Nb       4.91867377       8.22117730      11.53238087      -0.00010831       0.00102094      -0.00111733     -10.18702828
Ti       3.25706824       9.87638330       0.01251256      -0.00047786      -0.00073847       0.00065711      -7.74557925
Ti       4.91955185      11.54448658       1.65413607       0.00170320      -0.00111917      -0.00201645      -7.78544209
Nb       3.28275705       9.89301657       3.31105260       0.00056806      -0.00202148      -0.00040689     -10.12530309
Ti       4.93247191      11.56387083       4.96645218       0.00132521      -0.00197096      -0.00085186      -7.77741827
Ti       3.30213017       9.86936699       6.61425594      -0.00079526      -0.00001236       0.00067383      -7.75170064
Nb       4.90478480      11.55191076       8.28046079       0.00038615      -0.00034201      -0.00029535     -10.15024716
Nb       3.23652374       9.86502860       9.87116728       0.00031748      -0.00110241       0.00025188     -10.12932647
Ti       4.92908203      11.50916792      11.51436350      -0.00121121      -0.00024303       0.00064362      -7.76828335
Nb       6.58540203      -0.01035996      -0.00441551      -0.00102078      -0.00302878       0.00186503     -10.06744422
Nb       8.23133344       1.64723117       1.63199538       0.00009995       0.00074537      -0.00193322     -10.16715288
Nb       6.58867351      -0.00944730       3.29059196       0.00045946       0.00042709       0.00127569     -10.06941844
Nb       8.24114250       1.64682194       4.96380996      -0.00074048       0.00055370      -0.00181388     -10.16279878
Nb       6.58823563       0.00892332       6.60793206      -0.00065906       0.00010672      -0.00080020     -10.09892038
Ti       8.27899322       1.59649095       8.16604508      -0.00178098       0.00127321       0.00139556      -7.84337004
Ti       6.56030522      -0.05031853       9.85628809      -0.00107810       0.00135668      -0.00115064      -7.79228992
Ti       8.20667623       1.63867294      11.59363621       0.00170669       0.00188724      -0.00042021      -7.84501246
Nb       6.56992109       3.27476043      -0.04044854      -0.00143574      -0.00130262       0.00228696     -10.05370349
Ti       8.19418869       4.90661039       1.63686669       0.00033553       0.00022006       0.00071292      -7.77550618
Nb       6.59309235       3.29658400       3.30660215      -0.00197375       0.00048043      -0.00107471     -10.15536864
Nb       8.25057411       4.93357425       4.94657286       0.00135567       0.00006799      -0.00038717     -10.04876978
Ti       6.59018886       3.29113289       6.52458642      -0.00236140       0.00023112       0.00273114      -7.79104088
Ti       8.21542244       4.94951760       8.23849409       0.00006586       0.00035986      -0.00059996      -7.77698283
Ti       6.59071522       3.31941755       9.93502214       0.00001637      -0.00032776      -0.00057526      -7.84087149
Nb       8.23433546       4.90540483      11.53287424      -0.00213608       0.00072319      -0.00149968     -10.07244740
Nb       6.57701324       6.55652633       0.00583296      -0.00101277      -0.00143615      -0.00162129     -10.16469481
Nb       8.21360881       8.23219657       1.67374131       0.00019570       0.00080196       0.00073447     -10.16112217
Ti       6.56208771       6.59149530       3.31407514      -0.00017231      -0.00019838      -0.00017812      -7.74100229
Nb       8.20753621       8.22123477       4.94625648      -0.00045049       0.00045318      -0.00043615     -10.12379607
Nb       6.60682447       6.55292036       6.62303755      -0.00097923      -0.00060941      -0.00140001     -10.11078372
Ti       8.14364066       8.23007571       8.23728868      -0.00317778       0.00126388       0.00115316      -7.80654192
Nb       6.56923010       6.54694353       9.87875709       0.00038347      -0.00108976       0.00007482     -10.10098216
Nb       8.24259697       8.22508918      11.52739963      -0.00101997       0.00091736       0.00095783     -10.13633815
Nb       6.57525986       9.89133104       0.00186658      -0.00055319       0.00012150       0.00351619     -10.09142835
Ti       8.24149888      11.51448599       1.61090125       0.00016404       0.00024455      -0.00042154      -7.81975065
Ti       6.58597530       9.82055942       3.31883759      -0.00174188       0.00069605      -0.00234164      -7.75599517
Ti       8.22448346      11.54773259       4.98489893      -0.00012916      -0.00021065       0.00184467      -7.74928677
Nb       6.57946732       9.88085499       6.61242514       0.00147436      -0.00101959      -0.00102154     -10.15516871
Nb       8.23962080      11.52440287       8.23496930      -0.00065219      -0.00106045      -0.00046227     -10.10402834
Nb       6.58266648       9.88041322       9.88165514       0.00062347       0.00031576      -0.00100802     -10.15816551
Ti       8.22684934      11.49909513      11.56783200       0.00109666      -0.00090896       0.00070754      -7.79258876
Nb       9.86976979       0.00213374       0.01657615       0.00008640       0.00025036       0.00035383     -10.06646210
Ti      11.50271187       1.61835712       1.61509108      -0.00116631       0.00050369      -0.00082470      -7.77419737
Ti       9.89908326       0.01296256       3.30858305       0.00030987      -0.00138528      -0.00126536      -7.78740123
Nb      11.52796941       1.65095782       4.93302061      -0.00179135      -0.00030069       0.00020301     -10.07605333
Nb       9.89599465      -0.01905218       6.60262747       0.00049056      -0.00061433       0.00094305     -10.17172482
Nb      11.51488142       1.64974274       8.25497424      -0.00062569      -0.00141560      -0.00079339     -10.08436766
Ti       9.94875068      -0.00081599       9.86633599       0.00134226       0.00025376       0.00015630      -7.84838221
Nb      11.51950671       1.63867663      11.54325991      -0.00067468      -0.00314263       0.00061844     -10.07232932
Ti       9.89891716       3.26513669      -0.02210473       0.00002485      -0.00147885       0.00107575      -7.78674149
Nb      11.51675125       4.90883513       1.65661970       0.00030273      -0.00014496      -0.00148770     -10.08828664
Ti       9.87103386       3.27127270       3.31351470      -0.00060629       0.00096797       0.00274339      -7.77541996
Ti      11.49865130       4.93710735       4.91138229       0.00052007      -0.00269437      -0.00257890      -7.77022883
Nb       9.87285583       3.30784956       6.59501601      -0.00006873       0.00025271      -0.00072453     -10.12924222
Ti      11.56098921       4.87870692       8.29388286      -0.00147392      -0.00038953       0.00053652      -7.81849255
Ti       9.94346603       3.26381878       9.90104749      -0.00036316      -0.00039601      -0.00069691      -7.85277848
Nb      11.52851850       4.92996286      11.48023116       0.00011381       0.00155756       0.00015659     -10.04322591
Ti       9.87383981       6.57683612      -0.05109016       0.00040026      -0.00058022       0.00222228      -7.82130660
Ti      11.50357466       8.22932748       1.69980202       0.00202721      -0.00088017      -0.00048803      -7.77726277
Nb       9.89496628       6.56780359       3.32319779      -0.00385176       0.00038609       0.00078720     -10.09069294
Ti      11.51716949       8.24785286       4.91129883       0.00053063       0.00186884      -0.00121468      -7.78855210
Ti       9.81099731       6.53511679       6.54558102      -0.00115407      -0.00222760       0.00077823      -7.86894267
Ti      11.56033496       8.28215836       8.26371382       0.00056777       0.00104078       0.00192844      -7.83572591
Ti       9.88397442       6.58066625       9.95064204       0.00160081      -0.00258537      -0.00101570      -7.84648638
Nb      11.48915368       8.20254616      11.52160378       0.00209972       0.00205436       0.00108064     -10.04467583
Nb       9.87191107       9.89112216      -0.01837268      -0.00260293       0.00113894      -0.00085834     -10.10330149
Nb      11.51887468      11.52656250       1.63076934      -0.00076237       0.00046048       0.00068595     -10.12326515
Nb       9.89199955       9.87066004       3.32722410      -0.00014064       0.00048080       0.00143741     -10.12353702
Nb      11.52135425      11.51122082       4.97275610      -0.00041140      -0.00184159      -0.00208613     -10.09822354
Ti       9.90007488       9.94296091       6.61499044       0.00077463       0.00242325      -0.00170576      -7.80474991
Nb      11.53357558      11.49466413       8.28877567       0.00048927      -0.00164894       0.00109749     -10.04739402
Ti       9.88531870       9.86182227       9.91530187       0.00042864       0.00040191      -0.00027079      -7.80027319
Ti      11.50908670      11.51870995      11.55333838       0.00199341      -0.00134954      -0.00050455      -7.77908960
