128
Lattice="12.638425186130211 -0.03488539012404894 -0.009142365757030913 -0.03497223781633364 12.631019219753734 0.020828127267706786 -0.009211918295960402 0.0203570783665128 12.643981100966787" Properties=species:S:1:pos:R:3:forces:R:3:energies:R:1 energy=-1219.8629722791918 stress="0.0004143900241789104 6.991233152888211e-05 -5.774004371827304e-05 6.991233152888211e-05 0.0004398076108476804 -0.0002960396693623784 -5.774004371827304e-05 -0.0002960396693623784 0.0004449460598240265" free_energy=-1219.8629722791918 pbc="T T T"
V       -0.09948215      -0.01575444      -0.00663267       0.00028676      -0.00125317       0.00011881      -9.03169055
Nb       1.50463788       1.55197642       1.64377202       0.00116487      -0.00136316       0.00068922     -10.02850466
V       -0.13301346       0.03973196       3.14682402       0.00129920      -0.00003870       0.00174093      -8.86675726
Nb       1.39045286       1.69120465       4.69320735       0.00187215      -0.00018453       0.00043413     -10.00977145
V       -0.07173524       0.00356568       6.25226686       0.00061072      -0.00147372      -0.00062224      -9.09152802
V        1.51152160       1.58022463       7.87435656      -0.00269470      -0.00159940       0.00218295      -9.18137401
V       -0.07245348      -0.00682686       9.54624377       0.00039155      -0.00089975       0.00015653      -8.83096544
Nb       1.56228048       1.38180779      11.08282841       0.00100033      -0.00107128       0.00117226     -10.02489233
Nb      -0.09960904       3.09537275       0.04962032      -0.00193521       0.00156039      -0.00078493     -10.04810688
Nb       1.66581719       4.74598781       1.71906535      -0.00179362       0.00028385       0.00006998      -9.95618150
V       -0.08454265       3.15718265       3.14539680       0.00030606       0.00101479       0.00001419      -8.97748581
V        1.55884138       4.74642448       4.70130408      -0.00282705       0.00217076       0.00373904      -9.10775693
V        0.00741006       3.22013047       6.34319363       0.00039299       0.00087987       0.00073492      -8.97961545
V        1.61204817       4.79361945       7.86844410      -0.00000480      -0.00067624      -0.00155037      -9.07428462
Nb       0.03986402       3.22708950       9.44197608       0.00067104      -0.00026191       0.00260173      -9.94762829
V        1.61691522       4.81303365      11.10531208      -0.00203243       0.00020995      -0.00207356      -9.11943961
Nb      -0.05297272       6.32776178       0.09866163      -0.00235584       0.00116342       0.00303607     -10.00059070
V        1.59291897       7.89889778       1.56795251      -0.00033366      -0.00105465      -0.00056517      -9.20949846
Nb       0.00114612       6.33879778       3.12826845       0.00185254       0.00062981      -0.00144927      -9.94961175
Nb       1.65553853       7.87473903       4.71596517      -0.00158686       0.00068686       0.00256379     -10.01006292
Nb      -0.04963899       6.22767880       6.38494894       0.00081775       0.00064202      -0.00036953     -10.03074927
Nb       1.60733980       7.92580977       7.87750169      -0.00331684       0.00063966       0.00231760      -9.97644759
Nb      -0.01576111       6.28762729       9.41870499      -0.00179483       0.00138010      -0.00093607      -9.97352488
Nb       1.57151113       7.95271326      11.12458738       0.00312939       0.00039211       0.00161614      -9.97833128
Nb      -0.05521748       9.57149297       0.03828919       0.00318897      -0.00100562       0.00084102      -9.92898100
Nb       1.48190363      11.15351552       1.54827447       0.00060507      -0.00191510       0.00054963      -9.97867474
V       -0.10478094       9.50738682       3.13393819      -0.00267494       0.00226826       0.00293037      -9.09606118
Nb       1.34767879      11.13718469       4.67742745      -0.00035937      -0.00027291      -0.00120400     -10.08448589
Nb      -0.15453193       9.56309397       6.34868458      -0.00071848       0.00334198       0.00327178      -9.97690721
Nb       1.41657157      11.21038764       8.00076242       0.00166072      -0.00218709       0.00058078      -9.93328047
V       -0.07135263       9.56189787       9.51592655      -0.00134632      -0.00359950       0.00018889      -9.11053205
V        1.51683798      11.15858970      11.09892931      -0.00264472      -0.00057326       0.00106921      -9.05700468
V        3.20581338       0.03536011       0.07508142       0.00216363       0.00128848      -0.00048962      -9.08650612
V        4.84087219       1.66404573       1.57237970      -0.00126649      -0.00151445      -0.00249501      -8.95556364
Nb       3.31799299       0.18231828       3.10524026      -0.00092530       0.00144177      -0.00163730     -10.03782726
V        4.81333122       1.70565378       4.72930008       0.00328547      -0.00027988      -0.00012939      -9.01596501
Nb       3.12967425       0.11101129       6.30589898      -0.00141095       0.00039841       0.00033712     -10.05182847
Nb       4.78113454       1.65713475       7.89734166       0.00121414       0.00256179      -0.00192162     -10.01970755
V        3.12374331       0.03191554       9.48761715      -0.00079857      -0.00093419      -0.00143429      -9.13073415
Nb       4.83384076       1.60190713      11.13703952       0.00387529      -0.00014246       0.00022042     -10.03853821
Nb       3.27175938       3.17574145       0.13586901       0.00204199       0.00172853       0.00260772     -10.05852332
V        4.72334221       4.71301377       1.71891461       0.00125418      -0.00028866      -0.00159555      -8.95867778
V        3.25233635       3.19602079       3.21014512       0.00015854      -0.00166657       0.00077328      -9.04385824
V        4.80224586       4.71967259       4.72298118      -0.00097456       0.00046448      -0.00033948      -8.93278271
Nb       3.14404929       3.26761844       6.21302908      -0.00021711       0.00154227      -0.00205781     -10.00300060
Nb       4.82009925       4.80137376       7.85326573      -0.00260536      -0.00079350      -0.00097423      -9.97739339
Nb       3.03548538       3.19926860       9.43973186      -0.00075207      -0.00065332       0.00059063     -10.00059071
Nb       4.75238796       4.74489544      11.01918917       0.00037318      -0.00305029       0.00161010      -9.98429105
V        3.12184991       6.23824860       0.00575403      -0.00232773       0.00083350      -0.00181768      -9.04897423
Nb       4.57524151       7.74045017       1.64313329       0.00085698       0.00201243      -0.00239802      -9.97623198
V        3.15819171       6.24881802       3.27009016      -0.00115380      -0.00111456       0.00098107      -8.93013459
V        4.66233255       7.81003006       4.77067123      -0.00450637       0.00215356       0.00200905      -9.10982592
V        3.13166658       6.25158711       6.24404560       0.00211464      -0.00021296      -0.00280753      -9.03395558
Nb       4.67445814       7.76611747       7.82181953      -0.00177925       0.00140323       0.00212167      -9.99860489
V        3.08824549       6.27457487       9.48253645      -0.00011969      -0.00217715      -0.00444764      -9.14125356
Nb       4.65659070       7.77460436      11.04179789      -0.00150076      -0.00103044       0.00020517     -10.05994651
V        3.10359536       9.49797595       0.03601745      -0.00089884       0.00054894       0.00250478      -9.12681931
V        4.69287195      11.10751845       1.51357190      -0.00147359      -0.00046489       0.00128395      -9.05165888
Nb       3.10548353       9.46912747       3.11091460       0.00023118      -0.00033674      -0.00057416      -9.91097091
Nb       4.67241971      11.02240627       4.75949662       0.00052875       0.00027489      -0.00138574     -10.02771051
V        3.11451315       9.50621558       6.31272481      -0.00050203      -0.00398180      -0.00417267      -9.25264847
Nb       4.64757724      11.06731403       7.92969741       0.00001687       0.00107806       0.00205937     -10.08048008
Nb       3.05052204       9.55334578       9.55191193      -0.00040060       0.00234590       0.00048260     -10.02254711
Nb       4.60496936      11.14484656      11.19347097      -0.00037999      -0.00156142       0.00080902      -9.99410687
V        6.38311354       0.05365144       0.06433196      -0.00029588      -0.00061683      -0.00333830      -9.08254643
V        7.90872340       1.58407110       1.64591045      -0.00079210       0.00142987      -0.00030981      -9.07053838
Nb       6.38611268       0.11803568       3.15100716       0.00216070       0.00206413       0.00046866      -9.93554613
V        7.94538081       1.63213075       4.66469874       0.00179977      -0.00217804      -0.00022386      -9.08602976
Nb       6.50448234       0.08237517       6.23939644      -0.00249936       0.00109828      -0.00013600     -10.04505467
V        7.88711699       1.59901495       7.86179552       0.00127698       0.00171492      -0.00184709      -9.10295275
Nb       6.44948052       0.05701709       9.45673830      -0.00069289      -0.00042110       0.00022854      -9.95174149
V        7.84993142       1.58442883      11.10135711       0.00103889       0.00196684      -0.00104506      -9.13000668
V        6.33917380       3.13252122       0.12907063      -0.00015105      -0.00186850       0.00045401      -9.04194124
V        7.84988586       4.60765554       1.63673757       0.00107348      -0.00080550       0.00261969      -8.97805083
V        6.30675099       3.09018699       3.14686667      -0.00199919       0.00253159      -0.00074915      -8.90363097
Nb       7.75228803       4.65144657       4.72407305      -0.00064289      -0.00026252      -0.00175377      -9.99945139
V        6.32425505       3.12927229       6.28239414      -0.00052208       0.00008741      -0.00182605      -9.08221869
V        7.79885522       4.70885096       7.84058823      -0.00073080      -0.00030486       0.00200198      -8.97104387
V        6.40450851       3.13017822       9.44038241       0.00227967       0.00056981      -0.00060137      -9.04820020
Nb       7.79833721       4.66860689      11.08077006       0.00050293       0.00194794      -0.00120018      -9.97962276
Nb       6.32299433       6.16002470       0.12209918      -0.00049251       0.00227210      -0.00113481      -9.97870516
Nb       7.92631871       7.80185757       1.61851928      -0.00114621       0.00134592      -0.00262647      -9.93373159
V        6.24461419       6.20040662       3.16154940      -0.00144929      -0.00125295       0.00156528      -9.09238553
Nb       7.82538215       7.75710182       4.76482588      -0.00056058       0.00103966      -0.00218602     -10.00151693
V        6.26825154       6.26821149       6.27740990       0.00085065      -0.00022855       0.00050779      -9.10104984
V        7.84817177       7.80273108       7.83291545      -0.00029973      -0.00133221      -0.00353457      -8.99141361
V        6.37137746       6.31738958       9.45390796      -0.00179305       0.00090467      -0.00096791      -9.05894500
V        7.89072948       7.83496374      11.07836083       0.00234369      -0.00053361      -0.00220009      -9.12215129
Nb       6.23184383       9.46700392       0.03672392       0.00191478       0.00031875       0.00285267     -10.12841875
Nb       7.94383288      11.11248727       1.68535040       0.00255878       0.00124174      -0.00114635     -10.01122006
Nb       6.25749841       9.44645921       3.19572853      -0.00012010       0.00023344      -0.00286679     -10.01538935
V        7.94354947      11.03359475       4.67548932      -0.00078697       0.00315029      -0.00101227      -9.18118797
Nb       6.33289857       9.43320418       6.32509718       0.00102023      -0.00238922       0.00107347      -9.96483888
V        7.92117724      11.02746054       7.93498960       0.00018977      -0.00109937      -0.00113942      -9.15170280
Nb       6.47903299       9.36459851       9.45211367       0.00154100      -0.00466226      -0.00244307     -10.09277467
Nb       7.92660690      11.02226555      11.08914711       0.00085459      -0.00255416       0.00175243     -10.03709969
Nb       9.60166730       0.04763055       0.06937133       0.00247966       0.00046052       0.00127049     -10.01032162
V       11.08144778       1.52282319       1.66241931       0.00129099      -0.00028199       0.00243276      -8.95622645
V        9.52578971       0.01853748       3.18200882      -0.00147617      -0.00312684       0.00149186      -9.00150806
V       11.08109313       1.56689023       4.68711971      -0.00062939       0.00176006      -0.00164218      -9.03349327
Nb       9.49831603      -0.05683365       6.19912327       0.00070927       0.00050947      -0.00001628     -10.03191648
Nb      11.22192768       1.50093617       7.83582091       0.00150747       0.00028826      -0.00252773      -9.99556506
Nb       9.53761449      -0.04263609       9.46176050       0.00132085      -0.00332783       0.00198944      -9.94815402
V       11.10063147       1.52573051      11.05593101       0.00532725      -0.00147067       0.00009292      -9.14523074
Nb       9.44647266       3.05138529       0.12343849       0.00056906      -0.00147655       0.00060714      -9.95500741
V       11.02798591       4.61597590       1.62403027      -0.00154403      -0.00064263      -0.00055649      -9.12700064
V        9.43866822       3.06802083       3.12006532       0.00040173       0.00253555      -0.00054928      -9.02989728
Nb      11.05403724       4.54487132       4.72906665      -0.00078219       0.00043531       0.00029874      -9.99657081
Nb       9.42685538       3.07702797       6.31772892      -0.00214984       0.00225985      -0.00010283      -9.95186831
V       11.00927441       4.68521748       7.85946332       0.00130860      -0.00135843       0.00045961      -9.13595934
Nb       9.38738302       3.05848274       9.44633497      -0.00179270       0.00052524      -0.00177414     -10.05224046
Nb      10.99988950       4.72380862      11.08902720      -0.00115849       0.00152943       0.00044730     -10.07250166
V        9.46246253       6.25500610       0.06648590      -0.00098189      -0.00265178      -0.00097560      -9.18507391
V       11.01512359       7.90565799       1.63283756       0.00179369      -0.00089223       0.00220604      -9.11100041
Nb       9.45481510       6.16082082       3.04731995       0.00084319       0.00254380       0.00009210      -9.95246135
Nb      10.95934235       7.91485574       4.70392720      -0.00283770      -0.00140073       0.00024600     -10.06660716
V        9.43150596       6.23781011       6.39304027       0.00058266       0.00090865       0.00265003      -9.04159890
V       10.99588556       7.90501777       7.91947053      -0.00168507       0.00110087       0.00237968      -9.17123149
Nb       9.38226218       6.33081081       9.33562239      -0.00157638       0.00076159      -0.00001848      -9.94629286
Nb      10.93601106       7.94036999      10.99481022       0.00393423      -0.00171807       0.00169142      -9.99138038
Nb       9.54076664       9.44398994       0.03737138      -0.00106117      -0.00024634      -0.00116303      -9.92232524
V       11.04450844      11.07771642       1.66406742      -0.00080949       0.00138694      -0.00155008      -9.00532440
V        9.48852351       9.48029582       3.16646468      -0.00247938      -0.00129808      -0.00072658      -9.03644575
V       11.02947347      11.04187667       4.65969279       0.00658107      -0.00125003       0.00111277      -8.96031554
Nb       9.43235645       9.50081058       6.44006704       0.00287695      -0.00063313       0.00083523      -9.94669254
V       11.07429841      11.06043812       7.96545522      -0.00083491       0.00220554       0.00308013      -9.06431841
V        9.41310210       9.44954487       9.41628291       0.00196148       0.00274195      -0.00161906      -9.01576622
V       11.05054930      11.02891889      11.04469270      -0.00307283      -0.00129219      -0.00038102      -9.09918423
