128
Lattice="13.820867717532014 -0.011100361166058458 -0.012117357976561001 -0.011134143839591475 13.767884312763321 0.00322402862616649 -0.012107017809720004 0.0032305677060917473 13.807622666206864" Properties=species:S:1:pos:R:3:forces:R:3:energies:R:1 energy=-1181.3281698213682 stress="9.723293107340266e-05 0.0002700341504566795 3.49986264657258e-05 0.0002700341504566795 -0.00032241611621051236 0.00023048429825104532 3.49986264657258e-05 0.00023048429825104532 -0.00027896737139356236" free_energy=-1181.3281698213682 pbc="T T T"
Zr       0.07331340      -0.10597213       0.10086796      -0.00033389       0.00086018       0.00107449      -8.70152860
Nb       1.82791737       1.60913609       1.72948521       0.00091215       0.00146123      -0.00019330      -9.70312199
Zr      -0.01481253      -0.02293618       3.46042807      -0.00048894       0.00188505       0.00013045      -8.78493749
Nb       1.86557281       1.65854151       5.22094412      -0.00053268       0.00010691       0.00042799      -9.75433401
Zr      -0.09063617       0.01172031       6.84995737      -0.00253226       0.00131092      -0.00007779      -8.75793165
Zr       1.77123883       1.77475834       8.57581820      -0.00120025      -0.00295349      -0.00055298      -8.56332747
Zr      -0.14065195       0.01694063      10.33435013      -0.00096556      -0.00056355       0.00053776      -8.69336682
Zr       1.71239381       1.69677161      12.08193787      -0.00031430      -0.00174209      -0.00010120      -8.49705973
Zr      -0.04611793       3.45840021       0.04064815      -0.00189414       0.00012481      -0.00035177      -8.62220202
Zr       1.76578948       5.31251174       1.70942584       0.00055961      -0.00129187       0.00050933      -8.62592959
Zr       0.06244714       3.36371714       3.43133635       0.00041059      -0.00067372       0.00095577      -8.72122034
Nb       1.77899243       5.22307959       5.06622412      -0.00203069      -0.00066132       0.00043522      -9.71656646
Zr       0.04397769       3.43848013       6.76055565       0.00025252      -0.00191013       0.00036944      -8.71071127
Nb       1.76496986       5.06146179       8.59329899      -0.00024513      -0.00051126      -0.00033828      -9.78471065
Nb      -0.09118353       3.37652256      10.36443831       0.00057119      -0.00179232       0.00076944      -9.93321337
Zr       1.70073505       5.22099122      12.10715173       0.00068389      -0.00129943      -0.00060569      -8.53732642
Nb      -0.11039960       6.88305390      -0.00386378       0.00194668       0.00091102      -0.00020215      -9.87195588
Nb       1.73366579       8.52782668       1.80933664      -0.00015772       0.00017415       0.00048562      -9.96007534
Nb       0.11020765       6.90902990       3.46452572      -0.00132819      -0.00154177      -0.00049490      -9.76519513
Nb       1.73025968       8.67351524       5.05328245      -0.00043244      -0.00113092      -0.00020867      -9.92728642
Zr       0.12532650       6.86397465       6.83187355       0.00227155       0.00203426      -0.00137545      -8.57288123
Zr       1.66644940       8.72117130       8.66002877       0.00166045      -0.00037719      -0.00070252      -8.39041960
Zr      -0.06834686       6.85685217      10.35672432       0.00241605       0.00123028       0.00146355      -8.55560103
Zr       1.71829908       8.57262101      12.13432628       0.00075312       0.00079236      -0.00018452      -8.53423558
Zr       0.05536569      10.36207216       0.12741758       0.00245175      -0.00081296       0.00122250      -8.65782167
Nb       1.86457430      12.01789570       1.86767247       0.00056969      -0.00074229       0.00014537      -9.81974975
Nb       0.06902548      10.38272693       3.39289123      -0.00000889       0.00109246      -0.00014162      -9.90096452
Zr       1.78278839      11.98297790       5.14951003       0.00080608       0.00067871      -0.00028126      -8.69123688
Nb      -0.04058152      10.39526631       6.84769732      -0.00037840      -0.00010932       0.00030829      -9.80847575
Zr       1.75436359      12.01913584       8.62009922      -0.00040075       0.00029247      -0.00051224      -8.56962219
Zr      -0.07118497      10.44743047      10.48002033      -0.00126555       0.00149288       0.00009223      -8.57699233
Nb       1.84811663      12.04503266      12.12554897      -0.00094758       0.00084670       0.00146412      -9.73438384
Nb       3.37950993      -0.03322635       0.00435024      -0.00053436       0.00031650      -0.00018082      -9.89143317
Zr       5.24371931       1.67037162       1.76087310       0.00093523       0.00026350       0.00072766      -8.75768155
Nb       3.37037408       0.08959884       3.47813068       0.00013151       0.00210817       0.00014000      -9.80855010
Nb       5.18068176       1.62313255       5.15606231       0.00131723       0.00134651       0.00024595      -9.99199052
Nb       3.44955300       0.02386181       6.84729673       0.00073788      -0.00007224       0.00006716      -9.75157217
Zr       5.13109497       1.72909994       8.46908935       0.00348038       0.00017469       0.00065032      -8.54168872
Zr       3.52787522      -0.05401807      10.37984265      -0.00046585      -0.00084697       0.00139281      -8.55143928
Nb       5.23515267       1.64237718      12.20073719       0.00079843      -0.00215649       0.00028158      -9.83966002
Zr       3.50105905       3.41730071       0.04606187      -0.00033350      -0.00010826       0.00032556      -8.51578551
Nb       5.21051081       5.19443502       1.69558898      -0.00053060       0.00039668      -0.00104396      -9.92033921
Zr       3.49503022       3.44792064       3.47806226      -0.00156476      -0.00043019      -0.00055335      -8.78541949
Nb       5.16951055       5.18271907       5.12751276       0.00084110      -0.00037531       0.00073964      -9.74690922
Nb       3.40848063       3.53385565       6.75060529      -0.00057949      -0.00165158       0.00013265      -9.95936528
Zr       5.26662613       5.22468608       8.54572575       0.00096590      -0.00201912       0.00124484      -8.54669301
Zr       3.50692016       3.48539725      10.36523068      -0.00035558      -0.00137269      -0.00112091      -8.48453747
Zr       5.22556924       5.27589177      12.21532918       0.00129154       0.00135727      -0.00121010      -8.63432413
Nb       3.54271202       7.00060990       0.10070222      -0.00073698      -0.00150355      -0.00048655      -9.78247862
Nb       5.14040298       8.55463430       1.71786361      -0.00087133      -0.00107214       0.00026372      -9.87287160
Nb       3.51220830       6.91445845       3.49156047      -0.00219128      -0.00068922       0.00032860     -10.07602123
Nb       5.16799813       8.60464373       5.16163100      -0.00048011      -0.00022546       0.00142538      -9.79057422
Zr       3.43364058       6.91137570       6.83041341      -0.00201573       0.00262039       0.00065900      -8.76316671
Nb       5.30634940       8.62146104       8.64531227      -0.00004982       0.00003540      -0.00094217      -9.89038816
Zr       3.51562044       6.96837591      10.30575256       0.00095534      -0.00116688      -0.00104668      -8.56614247
Nb       5.22117129       8.63982168      12.10906420      -0.00036459      -0.00124875      -0.00052262      -9.99988033
Zr       3.43625499      10.26708985       0.09600694      -0.00158150       0.00018457       0.00130126      -8.64068186
Zr       5.17932128      12.10923233       1.78741563      -0.00036017       0.00059035       0.00049158      -8.73794623
Nb       3.46214778      10.20295285       3.41455816      -0.00115866      -0.00020092       0.00063875      -9.90148422
Zr       5.16674662      12.11107613       5.12845658       0.00043324       0.00027483       0.00095487      -8.75304669
Zr       3.55300474      10.23666352       6.90789427       0.00116367      -0.00093230       0.00033611      -8.54049530
Nb       5.21021332      12.00367363       8.57550041       0.00045692      -0.00169311      -0.00048665      -9.93959499
Nb       3.53794692      10.29708533      10.34989842      -0.00063639       0.00071203      -0.00049711      -9.90515211
Zr       5.22261104      11.97738483      12.17099481      -0.00061091       0.00074248       0.00003127      -8.69338505
Nb       6.91178186       0.03269489       0.03988900      -0.00022669      -0.00300796       0.00153150      -9.60584881
Nb       8.53037318       1.69001844       1.68226843      -0.00080006      -0.00022524       0.00069451      -9.94866303
Nb       6.98403767       0.12692978       3.50485911      -0.00132905       0.00103419      -0.00044641      -9.71090774
Nb       8.61035528       1.62577968       5.19879665       0.00002452       0.00090566      -0.00085857      -9.90483422
Nb       6.88224782      -0.00428810       6.88909466       0.00101975       0.00041949       0.00024057      -9.80216141
Zr       8.68604233       1.71004328       8.45605078      -0.00032901       0.00033440       0.00153096      -8.59172386
Zr       6.88601241      -0.05059203      10.26560224       0.00072621       0.00146203      -0.00135738      -8.56397390
Zr       8.60419665       1.63009050      12.19111229       0.00088365      -0.00125622      -0.00007033      -8.57621765
Nb       6.89013282       3.42635146       0.02982515      -0.00050093       0.00081849      -0.00060073      -9.81083611
Zr       8.52745965       5.14712920       1.69780636      -0.00032719       0.00142358      -0.00171957      -8.55567366
Nb       6.89996168       3.45050654       3.51546775      -0.00020309       0.00043314       0.00017586      -9.98188422
Nb       8.60747212       5.17719117       5.08265633       0.00221159       0.00218519       0.00034604      -9.75854237
Zr       6.90331721       3.45184771       6.68471138       0.00002231       0.00138504      -0.00051689      -8.58573079
Zr       8.54084100       5.18239729       8.61493214       0.00164926       0.00180887      -0.00028463      -8.57897428
Zr       6.87336525       3.40252215      10.45073702      -0.00054003      -0.00136936      -0.00157379      -8.53401325
Nb       8.44725302       5.20655706      12.15539068      -0.00032729       0.00070479      -0.00059094      -9.75842791
Nb       6.92384307       6.99107248       0.05702626      -0.00035413       0.00072096      -0.00120870      -9.97177144
Nb       8.67141302       8.63638210       1.70324070      -0.00052318       0.00068574      -0.00128084      -9.90170745
Zr       6.86585037       6.91780111       3.45530834      -0.00006680       0.00183060      -0.00037682      -8.81602343
Nb       8.62210013       8.62637744       5.16969241      -0.00019317      -0.00058891      -0.00136164      -9.84267573
Nb       6.86457943       6.91107371       6.72122991       0.00142582       0.00057678       0.00068117      -9.90723340
Zr       8.46829197       8.57529623       8.60620846      -0.00068960      -0.00036763      -0.00013326      -8.60792959
Nb       6.88090432       6.97558137      10.47752334      -0.00064110      -0.00039635      -0.00042871      -9.82081514
Nb       8.49730079       8.66287133      12.13068701      -0.00046665      -0.00004804      -0.00061427      -9.91756158
Nb       6.86538188      10.15540329       0.05997615      -0.00002545      -0.00004593       0.00055320      -9.79554351
Zr       8.60295174      12.01696811       1.68900791      -0.00101588      -0.00315903      -0.00056112      -8.81330667
Zr       6.88756647      10.20483521       3.44280085      -0.00158747      -0.00055914      -0.00018813      -8.50813998
Zr       8.54694663      12.07165640       5.21318855       0.00011151      -0.00147741      -0.00001354      -8.61832891
Nb       6.81624005      10.31266634       6.91501635      -0.00020992      -0.00117421       0.00057429      -9.91582685
Nb       8.50901841      12.05457803       8.52766310       0.00172928      -0.00073746      -0.00159160      -9.87540250
Nb       6.83811404      10.31387339      10.32665542       0.00084152      -0.00108492      -0.00155272      -9.92890538
Zr       8.56009221      11.97970859      12.19343684       0.00045040      -0.00040374       0.00232659      -8.67444453
Nb      10.37817872       0.01953068       0.07891668      -0.00142733      -0.00016906       0.00152066      -9.72870093
Zr      12.03983466       1.67516919       1.67814306      -0.00140640       0.00061361      -0.00028750      -8.23859591
Zr      10.37404632      -0.01383306       3.48808377      -0.00108510       0.00154732       0.00032545      -8.66938596
Nb      11.97450631       1.72585155       5.22597279      -0.00021740       0.00067141      -0.00019853      -9.66672680
Nb      10.47367893      -0.05588902       6.87655168      -0.00109983       0.00107209      -0.00146442      -9.99663963
Nb      11.99429063       1.79817223       8.50142058       0.00102617       0.00003072       0.00196214      -9.79896742
Zr      10.40281293      -0.04734755      10.24233226      -0.00029557       0.00073100       0.00112871      -8.67937679
Nb      12.06761825       1.69057479      12.10974595      -0.00125398       0.00062574       0.00012030      -9.75459808
Zr      10.39735279       3.51439265      -0.03924679      -0.00071112       0.00079685      -0.00014254      -8.64097790
Nb      12.14055438       5.28327962       1.77805201      -0.00025397       0.00012441      -0.00087864      -9.82018936
Zr      10.26078163       3.38658439       3.43635533      -0.00026197       0.00029184       0.00025052      -8.68015367
Zr      12.06383369       5.21447077       5.01063584       0.00058031      -0.00180476       0.00188898      -8.55037139
Nb      10.35846891       3.41312119       6.74563321       0.00271489       0.00117570       0.00061669      -9.86811578
Zr      12.05760494       5.06260280       8.56873993       0.00070640      -0.00037036       0.00101490      -8.51764133
Zr      10.37471107       3.42727300      10.45765174       0.00058298       0.00043623       0.00089294      -8.66872540
Nb      12.19368233       5.16524529      12.07367247      -0.00081778       0.00070791       0.00138342      -9.66728285
Zr      10.34216177       6.87254720      -0.05867135      -0.00201862       0.00112636      -0.00041341      -8.79233803
Zr      12.07383919       8.56362362       1.82417693       0.00119522       0.00012869      -0.00316503      -8.78633677
Nb      10.21358086       6.88258497       3.44653790       0.00182248      -0.00094320      -0.00131489      -9.82915253
Zr      12.12414367       8.64289128       5.06954348       0.00206521      -0.00113573       0.00075783      -8.70340089
Zr      10.26187314       6.87121294       6.79512377       0.00040190       0.00011810      -0.00040609      -8.49797119
Zr      12.13125947       8.64469176       8.56478595       0.00083178       0.00242137       0.00030379      -8.44320218
Zr      10.32328474       6.90109121      10.47595834       0.00096149      -0.00028308       0.00061193      -8.69565333
Nb      12.08544525       8.63222899      12.18961120       0.00187129      -0.00054722       0.00078938      -9.72823135
Nb      10.32235315      10.17248385       0.02502632      -0.00058490      -0.00127259      -0.00084727      -9.81646101
Nb      11.95590521      11.92644200       1.76785967      -0.00055941       0.00018185      -0.00043821      -9.86621020
Nb      10.30159674      10.33471511       3.45035115      -0.00118373       0.00121939      -0.00049019      -9.83072606
Nb      12.09977941      11.91316781       5.11431191      -0.00216695       0.00083212       0.00080083      -9.85409749
Zr      10.31962990      10.35838990       6.88887193       0.00018837       0.00044865      -0.00091826      -8.59180761
Nb      12.06163832      11.99709624       8.50763665      -0.00252058      -0.00035129      -0.00199013      -9.66547233
Zr      10.29476399      10.30890897      10.36496492       0.00341661      -0.00049137      -0.00141684      -8.65903330
Zr      11.93653879      12.03956427      12.26474888      -0.00013425       0.00070094       0.00032437      -8.41251340
