128
Lattice="13.181358232034407 -0.010460304964260127 -0.002200986725808438 -0.009738573853584802 13.122224285003728 -0.0024555212482895526 -0.0018288953097633967 -0.0034024958393540387 13.154146481410844" Properties=species:S:1:pos:R:3:forces:R:3:energies:R:1 energy=-1261.6171765603435 stress="0.0003159419195054623 6.139338584045765e-06 1.3332274096051715e-05 6.139338584045765e-06 -1.2901990722317975e-05 2.094761143850055e-05 1.3332274096051715e-05 2.094761143850055e-05 0.0003693301097567254" free_energy=-1261.6171765603435 pbc="T T T"
Ti      -0.06852241      -0.02924389      -0.00244118      -0.00201933      -0.00082955       0.00009951      -7.80397351
Ta       1.63872285       1.62562266       1.65042828      -0.00170468       0.00028085      -0.00053480     -11.90890761
Ti      -0.02639438      -0.00846444       3.29730159      -0.00002743      -0.00043463       0.00138862      -7.81284962
Ta       1.60400791       1.64142050       4.89405724       0.00087328      -0.00015397      -0.00062965     -11.87792302
Ti      -0.04381356      -0.04099491       6.54831257      -0.00009576       0.00041956      -0.00055239      -7.80238558
Ti       1.61036110       1.58642028       8.20644880      -0.00136582       0.00182442      -0.00048005      -7.79843105
Ti      -0.00306828      -0.01754399       9.89098557      -0.00179957       0.00002154      -0.00051312      -7.76969669
Ta       1.64274227       1.59558623      11.54283735      -0.00251304      -0.00048834       0.00105961     -11.91642316
Ta       0.00551781       3.30407664      -0.01329836       0.00006172      -0.00060986       0.00224955     -11.89933340
Ta       1.66750628       4.89525270       1.68069158       0.00090627       0.00051455      -0.00039827     -11.87290142
Ti      -0.02358084       3.32496376       3.26089258       0.00173537      -0.00093528       0.00029545      -7.78520298
Ti       1.60494733       4.90058479       4.89071219       0.00358140       0.00062325      -0.00129029      -7.81031509
Ti       0.01974832       3.31350264       6.60489004       0.00065303       0.00068502      -0.00140961      -7.76819599
Ti       1.65370955       4.94084414       8.18352275       0.00137559       0.00152783       0.00017100      -7.78409860
Ta       0.02970882       3.31858670       9.88486901      -0.00119843       0.00081794      -0.00126273     -11.86517122
Ti       1.63947938       4.93014589      11.54200014      -0.00040907      -0.00007286      -0.00035298      -7.77127797
Ta      -0.01152258       6.57319750       0.03928649       0.00027019      -0.00065675       0.00055382     -11.92088687
Ti       1.67949434       8.20058399       1.65556195      -0.00146588       0.00031789       0.00041251      -7.79434301
Ta      -0.01044796       6.57300261       3.27659199       0.00137464       0.00080796       0.00146591     -11.91331417
Ta       1.62679557       8.21743427       4.92850127       0.00101660       0.00015434       0.00061215     -11.89024023
Ta      -0.01889384       6.56796320       6.57436418      -0.00000323      -0.00044935      -0.00152728     -11.91176593
Ta       1.65942965       8.21908068       8.19884816       0.00176635       0.00118912       0.00100804     -11.88498297
Ta       0.00155365       6.55302622       9.85576428       0.00004090      -0.00076237      -0.00034124     -11.90098836
Ta       1.64164772       8.19186407      11.52189029      -0.00098744       0.00114136      -0.00112619     -11.86137222
Ta      -0.01649261       9.83185901       0.00941829      -0.00047786      -0.00014780       0.00059664     -11.89553000
Ta       1.63270475      11.51864202       1.65489186      -0.00111492      -0.00181882       0.00067010     -11.85961444
Ti       0.00651435       9.80223710       3.25872049      -0.00111600      -0.00043938       0.00206252      -7.81902255
Ta       1.62678946      11.48281625       4.90699748       0.00118831      -0.00157391       0.00121992     -11.92510506
Ta      -0.04417542       9.84458068       6.57286391       0.00052835      -0.00088168       0.00113858     -11.93398832
Ta       1.64184151      11.49015221       8.17930208       0.00040863      -0.00005103       0.00093399     -11.84311048
Ti       0.02441820       9.82140197       9.87585792      -0.00268377       0.00044354       0.00028025      -7.82692568
Ti       1.65127159      11.49822753      11.53792845      -0.00220134       0.00053893       0.00027662      -7.79406390
Ti       3.31571284       0.00166422       0.02465086      -0.00168562      -0.00202557      -0.00024371      -7.80665193
Ti       4.91724208       1.64528320       1.59729526      -0.00125230      -0.00102758      -0.00226583      -7.79550785
Ta       3.34032645       0.01864990       3.30115913       0.00068382      -0.00243802       0.00147975     -11.96119348
Ti       4.95719957       1.66979304       4.96977413       0.00048985      -0.00094005      -0.00148257      -7.79578385
Ta       3.29535273       0.03787253       6.55238657       0.00069561       0.00134504      -0.00008147     -11.96149736
Ta       4.94061684       1.64260230       8.23370511      -0.00201528       0.00203088      -0.00070820     -11.93452878
Ti       3.30149382       0.00834808       9.83528750      -0.00062629      -0.00034130       0.00163814      -7.79319981
Ta       4.94870876       1.65091292      11.47595766      -0.00057593       0.00023263       0.00065299     -11.89975681
Ta       3.28549976       3.28759840      -0.02421792      -0.00117755      -0.00114478      -0.00163193     -11.94216538
Ti       4.94159233       4.92007932       1.61905157      -0.00149911       0.00021641      -0.00264177      -7.80532531
Ti       3.33456910       3.25589535       3.30186426       0.00074312      -0.00168558      -0.00078725      -7.83801429
Ti       5.00716801       4.91692224       4.97173675       0.00023909      -0.00054215      -0.00016753      -7.82778504
Ta       3.26954348       3.26446040       6.58878579       0.00136705      -0.00015285      -0.00030920     -11.88471861
Ta       4.96678966       4.91496412       8.24664356      -0.00084088      -0.00047955       0.00023219     -11.86963712
Ta       3.24285824       3.26954755       9.85188647      -0.00036659      -0.00036028       0.00124946     -11.98311399
Ta       4.97798738       4.91037329      11.46768626      -0.00100425       0.00072001       0.00013998     -11.88866432
Ti       3.27687063       6.52188582       0.00335174       0.00110264       0.00169390       0.00029602      -7.77851302
Ta       4.90122465       8.17698200       1.61168464       0.00407397       0.00032435      -0.00462309     -11.86524048
Ti       3.29386891       6.54166894       3.33159229       0.00073267       0.00022218      -0.00056790      -7.82173835
Ti       4.93620706       8.17641213       4.95278200       0.00096236       0.00014855       0.00047365      -7.79517359
Ti       3.26890856       6.50683344       6.52427778       0.00169566      -0.00014137       0.00018538      -7.81834665
Ta       4.88847339       8.16875265       8.22892051       0.00000546       0.00057040       0.00109761     -11.90354600
Ti       3.24033943       6.52114817       9.86296491       0.00099895       0.00079895       0.00062380      -7.79338205
Ta       4.90904292       8.15511124      11.49478658       0.00080532       0.00007469       0.00081176     -11.91413878
Ti       3.27274405       9.85471504      -0.00338076       0.00042548       0.00009654       0.00007201      -7.78571296
Ti       4.94080320      11.46656854       1.61611976       0.00082341      -0.00033993      -0.00073739      -7.77895724
Ta       3.30135373       9.84501283       3.27283029       0.00123226       0.00058318       0.00138595     -11.91987850
Ta       4.92586680      11.45848954       4.96110399       0.00024264       0.00146901       0.00014997     -11.96532786
Ti       3.28490880       9.85259589       6.56001399       0.00118254      -0.00038756      -0.00020513      -7.77012960
Ta       4.92884007      11.47603020       8.21112501       0.00097518       0.00038899       0.00027860     -11.98476476
Ta       3.27345493       9.86021664       9.87853577      -0.00017527       0.00176950      -0.00088160     -12.01774331
Ta       4.94513686      11.49235119      11.50272822      -0.00057872       0.00165874       0.00093559     -11.91161579
Ti       6.60812457      -0.00884602       0.02502997      -0.00033695      -0.00026866       0.00020637      -7.80131126
Ti       8.21771360       1.61758146       1.67488208       0.00021312      -0.00068842      -0.00033502      -7.84256746
Ta       6.55268542      -0.03455530       3.30897708      -0.00155513      -0.00012830      -0.00066233     -11.83074631
Ti       8.24129053       1.68549021       4.88310986      -0.00013537       0.00091328      -0.00278038      -7.83620396
Ta       6.63009775      -0.02161460       6.54912224      -0.00024400      -0.00028556       0.00072956     -11.89429930
Ti       8.20959779       1.65473214       8.21131131      -0.00144626       0.00106008      -0.00101647      -7.79417811
Ta       6.60964637      -0.01622601       9.84497442       0.00189757      -0.00131344       0.00234040     -11.89386354
Ti       8.18646248       1.64346781      11.53212224       0.00101251       0.00062231       0.00187413      -7.80084501
Ti       6.59157782       3.28950233       0.02637302      -0.00101327       0.00055179      -0.00078191      -7.81434272
Ti       8.23066122       4.90442384       1.67054910       0.00031861      -0.00028241      -0.00111961      -7.81580902
Ti       6.53177473       3.26672056       3.25343697      -0.00180066       0.00040840      -0.00320090      -7.80747440
Ta       8.27142151       4.92198656       4.92305231      -0.00161829      -0.00208348      -0.00151429     -11.88714432
Ti       6.60231050       3.24954524       6.57165974      -0.00119813       0.00065182      -0.00057314      -7.78380104
Ti       8.19287910       4.90164212       8.18857190      -0.00071235       0.00005157      -0.00100946      -7.80494902
Ti       6.61367736       3.26837393       9.85049034       0.00018077       0.00078381       0.00191629      -7.78352266
Ta       8.24176743       4.90328498      11.53346481       0.00337502      -0.00204976      -0.00118968     -11.88771244
Ta       6.61510849       6.55972500       0.01277558      -0.00254603       0.00424170       0.00130666     -11.91876043
Ta       8.24809455       8.21455880       1.65979744      -0.00372598       0.00042435      -0.00234549     -11.91765227
Ti       6.58791351       6.58767457       3.27586355      -0.00139046      -0.00128309      -0.00134330      -7.85121925
Ta       8.27569777       8.17932019       4.90651344       0.00049876      -0.00185168      -0.00120986     -11.90428694
Ti       6.61121587       6.58916023       6.56939402      -0.00060580      -0.00063153       0.00057032      -7.82558411
Ti       8.22490343       8.19296280       8.19198032       0.00183040      -0.00099041       0.00041210      -7.79933024
Ti       6.63222372       6.58385898       9.87675907       0.00088568      -0.00026473       0.00143317      -7.80520074
Ti       8.26147757       8.18532014      11.54240074       0.00072030       0.00098750      -0.00033835      -7.77774737
Ta       6.58027015       9.81871927      -0.00509877       0.00021496      -0.00506080       0.00503225     -11.98845995
Ta       8.23361180      11.48506765       1.64915458       0.00019733      -0.00055271       0.00057907     -11.96152928
Ta       6.54812718       9.82199628       3.28556977       0.00093989      -0.00140662      -0.00236164     -11.93452357
Ti       8.23535907      11.44591855       4.87919289      -0.00048034       0.00049475       0.00039990      -7.81949047
Ta       6.59916490       9.82252057       6.56802864       0.00024282      -0.00079888       0.00280355     -11.88160781
Ti       8.21408367      11.46354231       8.23811519       0.00125580       0.00191318      -0.00071380      -7.80948156
Ta       6.57644975       9.80377701       9.86976335       0.00083120       0.00037172      -0.00164341     -11.97151148
Ta       8.22787758      11.47327867      11.52276839       0.00261689       0.00528859      -0.00152386     -11.96915343
Ta       9.90072453       0.02040879      -0.02358351       0.00004111       0.00046007      -0.00000449     -11.85105179
Ti      11.58380966       1.62004662       1.66099343       0.00118496       0.00026331       0.00202918      -7.81322499
Ti       9.85277301       0.04651650       3.31263759      -0.00023605       0.00045955       0.00100275      -7.81881088
Ti      11.56084026       1.68807968       4.96325021       0.00038116       0.00098264      -0.00099052      -7.84178898
Ta       9.86120867       0.00093840       6.59570592      -0.00164499       0.00024251      -0.00085525     -11.87980145
Ta      11.59220894       1.62400032       8.22280124       0.00141330       0.00084689      -0.00254652     -11.95499618
Ta       9.84521453       0.04945433       9.85846297      -0.00185858      -0.00065787      -0.00002970     -11.82768432
Ti      11.57562079       1.64435342      11.47799805       0.00058366       0.00132225      -0.00057981      -7.81579544
Ta       9.90909079       3.21888891      -0.01581659       0.00073256      -0.00062414       0.00103972     -11.85193084
Ti      11.51916114       4.89862891       1.63511513       0.00120848       0.00001269       0.00185636      -7.79994476
Ti       9.91307767       3.24287882       3.26828757      -0.00042658      -0.00134199      -0.00071516      -7.81042494
Ta      11.50189835       4.90063807       4.95369965       0.00054753      -0.00025305      -0.00161822     -11.92580931
Ta       9.88124582       3.24122281       6.61339641      -0.00107074       0.00073961      -0.00202284     -11.81408882
Ti      11.52838511       4.89266667       8.21143835       0.00009406      -0.00044707      -0.00153251      -7.80417756
Ta       9.89526214       3.24785568       9.86558711      -0.00132765       0.00341801       0.00147477     -11.91458602
Ta      11.50479869       4.92786094      11.51531350      -0.00193146      -0.00171662      -0.00056433     -12.04148473
Ti       9.88094548       6.54363597       0.02901153       0.00091272      -0.00010189      -0.00007849      -7.77113571
Ti      11.49892071       8.20756666       1.64705336      -0.00007392      -0.00022412       0.00171891      -7.79461056
Ta       9.89633805       6.52228180       3.25470571       0.00091630      -0.00128618       0.00274703     -11.89316534
Ta      11.49955335       8.17466684       4.93845387      -0.00042357       0.00051359       0.00134658     -11.95693897
Ti       9.89739324       6.54360151       6.60264447       0.00026517      -0.00164129      -0.00022135      -7.80537939
Ti      11.54317295       8.20547360       8.23584583       0.00099889      -0.00148358      -0.00154830      -7.82514409
Ta       9.86707004       6.51891292       9.82911336       0.00020733      -0.00030326      -0.00036401     -11.86295282
Ta      11.51489608       8.17262075      11.48960099      -0.00026736       0.00017538       0.00042346     -11.97145374
Ta       9.90492045       9.86206149      -0.01054673       0.00131261      -0.00048258       0.00286196     -11.85981549
Ti      11.51331861      11.48987647       1.68344135       0.00018022       0.00006213       0.00229769      -7.81584030
Ti       9.88366990       9.84566888       3.28648364      -0.00029585      -0.00226360       0.00052091      -7.78205123
Ti      11.53028042      11.45991057       4.88730703      -0.00043365      -0.00146212       0.00067486      -7.81375759
Ta       9.88549648       9.87731760       6.58597719      -0.00078227       0.00025753       0.00060466     -11.80980480
Ti      11.53545905      11.48039103       8.28140547      -0.00099415       0.00110524      -0.00142245      -7.82829513
Ti       9.85036097       9.83410172       9.85239693      -0.00001890       0.00106354      -0.00004138      -7.77647558
Ti      11.50519406      11.45623599      11.44106296       0.00010668       0.00020009       0.00015108      -7.83635145
