128
Lattice="13.78786439894307 -0.01343778145966675 0.00013000711233426016 -0.013444458503702704 13.760539690475182 0.01028703375324773 0.0002028476589096556 0.01041567733283411 13.784572475959994" Properties=species:S:1:pos:R:3:forces:R:3:energies:R:1 energy=-1290.8860973937306 stress="0.0003558945064875539 2.040373743520174e-05 0.00020331992380114952 2.040373743520174e-05 0.0002811682495302662 0.00036894506172958534 0.00020331992380114952 0.00036894506172958534 0.00022235812154450585" free_energy=-1290.8860973937306 pbc="T T T"
Zr       0.02835633      -0.05286772       0.06302307       0.00119578       0.00189212       0.00238970      -8.62803146
Ta       1.79770687       1.61282695       1.77948002      -0.00235609       0.00220330       0.00042591     -11.44476983
Zr       0.00529689      -0.02711975       3.45436329       0.00029673       0.00013024       0.00025220      -8.67228952
Ta       1.81346952       1.70806981       5.13720008      -0.00019764      -0.00063472      -0.00191854     -11.52494615
Zr      -0.03245424       0.02121166       6.83842084       0.00039127       0.00034471      -0.00125485      -8.62762805
Zr       1.78262002       1.73340480       8.56018757      -0.00106046       0.00043260       0.00066022      -8.50458679
Zr      -0.07133633      -0.00729550      10.31271324       0.00202553       0.00134658      -0.00164213      -8.63088406
Zr       1.73603015       1.69382206      12.07547127       0.00063284       0.00309442       0.00021594      -8.45707614
Zr      -0.03472509       3.43765422       0.02654501       0.00005321       0.00070606       0.00071675      -8.56678689
Zr       1.74107471       5.25423841       1.73516528      -0.00035609      -0.00179286       0.00035889      -8.52223537
Zr       0.03430054       3.42896050       3.44514168       0.00166891      -0.00099258      -0.00057753      -8.64710308
Ta       1.79316360       5.19220618       5.11785041      -0.00093894      -0.00161992       0.00069627     -11.48990403
Zr       0.01766692       3.41888761       6.81246992      -0.00020609      -0.00068316       0.00062838      -8.63319324
Ta       1.74467708       5.09069129       8.54946566       0.00143540      -0.00192409      -0.00037578     -11.48683027
Ta      -0.04854695       3.42871080      10.33168252       0.00133838       0.00064750      -0.00145176     -11.70828202
Zr       1.70134487       5.21236203      12.11515380       0.00101393      -0.00047367       0.00005438      -8.49457719
Ta      -0.02988418       6.92611383       0.06619243       0.00099100      -0.00160322       0.00052339     -11.63460972
Ta       1.75866839       8.58940628       1.81325915      -0.00119410       0.00053847       0.00025385     -11.79043178
Ta       0.07388485       6.93241184       3.42327301      -0.00000664      -0.00069203      -0.00016165     -11.59868356
Ta       1.76785965       8.62430964       5.05804693       0.00032295       0.00167828      -0.00092013     -11.72801348
Zr       0.09675739       6.87233198       6.82367714      -0.00013017      -0.00126905       0.00062530      -8.52306529
Zr       1.70756742       8.68784692       8.63987889       0.00096704       0.00102099       0.00073975      -8.40203471
Zr      -0.05397262       6.87912824      10.36920642      -0.00137042      -0.00185872      -0.00000364      -8.54064860
Zr       1.73653430       8.60013812      12.10763986       0.00037590      -0.00084257      -0.00019838      -8.49037542
Zr       0.02661304      10.34966004       0.08632178      -0.00021850       0.00014501       0.00222499      -8.59256277
Ta       1.77120274      12.02775305       1.79598437      -0.00077129      -0.00009372      -0.00065572     -11.63290933
Ta       0.05519159      10.33584129       3.46097270      -0.00080819       0.00137664       0.00085667     -11.72582479
Zr       1.77814271      12.01611619       5.15319596      -0.00296921       0.00055903      -0.00096224      -8.56702270
Ta      -0.01374083      10.37714864       6.77882188       0.00018084       0.00020037      -0.00029699     -11.54102793
Zr       1.74628154      12.01416265       8.57541730       0.00016323      -0.00069752       0.00029115      -8.52263338
Zr      -0.05955907      10.39767646      10.41447434       0.00122696      -0.00083241      -0.00009718      -8.53378159
Ta       1.80842038      12.03926778      12.12810871      -0.00028605      -0.00029083       0.00071675     -11.43503380
Ta       3.46125346      -0.02320097       0.04136623      -0.00072329       0.00010620       0.00119803     -11.62894931
Zr       5.20236557       1.67566746       1.76982390      -0.00161942      -0.00069493       0.00000747      -8.63790710
Ta       3.45930352       0.00211322       3.48602655      -0.00213546      -0.00073062      -0.00124732     -11.60863971
Ta       5.17999580       1.70419697       5.13524241       0.00019684      -0.00082573      -0.00027688     -11.80043569
Ta       3.51057091       0.02129453       6.80121362      -0.00069709      -0.00285476      -0.00161090     -11.53421738
Zr       5.16646409       1.70125188       8.49803196      -0.00044600      -0.00000729       0.00114756      -8.49798336
Zr       3.51318602      -0.05526351      10.35363301      -0.00040002       0.00022836      -0.00021525      -8.51748359
Ta       5.23037798       1.68768784      12.17847755      -0.00061020       0.00130594      -0.00025898     -11.57469911
Zr       3.48654431       3.42476083       0.06577731      -0.00074711      -0.00001769      -0.00016850      -8.49621777
Ta       5.18507839       5.22645768       1.74320429      -0.00034558      -0.00100796      -0.00122402     -11.69585473
Zr       3.46527781       3.44776582       3.45724315      -0.00014518      -0.00142868      -0.00089072      -8.65318392
Ta       5.15523910       5.19272887       5.10702964      -0.00025586      -0.00065048      -0.00028059     -11.59636006
Ta       3.46207115       3.44899986       6.75899178      -0.00068944      -0.00098888      -0.00001819     -11.73333471
Zr       5.21161455       5.19408690       8.55925046       0.00065900       0.00010189       0.00144148      -8.49483079
Zr       3.47773350       3.46692919      10.35009408       0.00043712       0.00067077      -0.00105915      -8.47202023
Zr       5.21152700       5.24133294      12.15629156       0.00170855       0.00054384      -0.00083987      -8.55376042
Ta       3.49949901       6.95905501       0.09533074       0.00091233      -0.00155120      -0.00065211     -11.61390458
Ta       5.13540770       8.56227414       1.73305949       0.00031173       0.00148705      -0.00002699     -11.69341709
Ta       3.45793936       6.91972354       3.43906390      -0.00028372       0.00094535      -0.00008744     -11.90301207
Ta       5.14897691       8.56065308       5.14924260       0.00022317       0.00193207      -0.00018429     -11.58563410
Zr       3.44835717       6.91057079       6.83467933       0.00070059       0.00135846       0.00125765      -8.65277128
Ta       5.25621906       8.64094096       8.62814492       0.00205131       0.00079800       0.00115313     -11.70201802
Zr       3.49837955       6.93732084      10.32578956       0.00053770      -0.00019003       0.00022864      -8.51102345
Ta       5.21843291       8.61634455      12.12215783      -0.00089546       0.00112472      -0.00073330     -11.79535896
Zr       3.44600687      10.27354243       0.08586996      -0.00037112       0.00084025       0.00023499      -8.54760321
Zr       5.17560070      12.05198804       1.76922839      -0.00124736      -0.00119689      -0.00024884      -8.63882510
Ta       3.43851130      10.26167330       3.42639249      -0.00102544       0.00122458      -0.00156232     -11.70623690
Zr       5.18956245      12.04742742       5.15361323      -0.00194833      -0.00006952      -0.00132600      -8.61329318
Zr       3.52961690      10.26290193       6.88269678      -0.00104852       0.00131491       0.00060362      -8.47880333
Ta       5.22426925      11.97689757       8.58826276      -0.00008055      -0.00147958       0.00104433     -11.75011895
Ta       3.54808369      10.31352195      10.35412063      -0.00028376      -0.00023258       0.00112948     -11.64795419
Zr       5.20612988      11.97466038      12.12882625       0.00027943      -0.00161908       0.00033449      -8.59845995
Ta       6.90309266       0.00943154       0.08608187      -0.00048377      -0.00031206       0.00001014     -11.38189397
Ta       8.55780834       1.71668164       1.73569066       0.00062976       0.00076839      -0.00019637     -11.71482900
Ta       6.91327020       0.07770640       3.47497941       0.00036160      -0.00194899      -0.00138969     -11.49740060
Ta       8.59858696       1.70667375       5.15841946       0.00099746      -0.00164748      -0.00048510     -11.71327344
Ta       6.88597981      -0.01536109       6.81940136      -0.00019291      -0.00212718      -0.00026314     -11.60588279
Zr       8.62135848       1.69945360       8.49920397      -0.00065469      -0.00079075       0.00078208      -8.50282046
Zr       6.87650539      -0.04914682      10.29367179      -0.00011724      -0.00202219       0.00023262      -8.48528761
Zr       8.57106635       1.66622284      12.15969372      -0.00003288       0.00178391      -0.00091407      -8.52207654
Ta       6.87710014       3.43381639       0.07865880       0.00030089       0.00106225      -0.00083968     -11.60409763
Zr       8.54534878       5.18117838       1.72915530       0.00087253       0.00007255      -0.00087550      -8.51798584
Ta       6.87618110       3.43012662       3.46718135       0.00031620      -0.00104305      -0.00105684     -11.80265093
Ta       8.55423163       5.17381871       5.09228326      -0.00095752      -0.00021475       0.00136998     -11.57023994
Zr       6.88752740       3.45465739       6.74702152      -0.00029968      -0.00160970       0.00090495      -8.51817962
Zr       8.55250916       5.18808933       8.61097686      -0.00036127       0.00028761       0.00173980      -8.53875580
Zr       6.88469629       3.43274934      10.40859714       0.00079857       0.00239990      -0.00033893      -8.47587150
Ta       8.50644073       5.22321862      12.14764597       0.00052617      -0.00080540      -0.00325114     -11.51760622
Ta       6.85700331       6.95166221       0.03124507       0.00014517       0.00109724      -0.00149742     -11.79832326
Ta       8.59049169       8.58144432       1.70860677       0.00099205       0.00153514      -0.00002435     -11.68107961
Zr       6.84366059       6.91669339       3.44737534       0.00124475       0.00164202      -0.00053763      -8.63992892
Ta       8.54811257       8.57383717       5.14885685      -0.00099181       0.00245402       0.00094807     -11.61019373
Ta       6.84821214       6.89400765       6.80025402       0.00043727       0.00134128       0.00127717     -11.70135630
Zr       8.49424161       8.59870271       8.61918254       0.00098295       0.00112844       0.00213010      -8.52922853
Ta       6.85459590       6.98366424      10.43696581       0.00149572       0.00027956      -0.00163059     -11.61300284
Ta       8.52211196       8.61269967      12.14724200      -0.00111301      -0.00055486      -0.00056341     -11.75107871
Ta       6.88137272      10.19847325       0.03569302       0.00057815       0.00015954       0.00037875     -11.59478522
Zr       8.58654114      11.99224631       1.75164531       0.00133866      -0.00009617       0.00025434      -8.67467425
Zr       6.86326177      10.20464302       3.44695052       0.00048319       0.00194903      -0.00039194      -8.43729769
Zr       8.54244956      12.03821090       5.16471413       0.00087722      -0.00157867      -0.00093070      -8.53611756
Ta       6.83712212      10.29726411       6.90471164       0.00165667       0.00086079       0.00130428     -11.68773528
Ta       8.52734874      12.03261194       8.54781170      -0.00032090      -0.00249632       0.00084314     -11.66101246
Ta       6.85005196      10.27100911      10.36258230      -0.00050540      -0.00006652       0.00137808     -11.73078583
Zr       8.57818027      12.00680817      12.16152659       0.00002804      -0.00204256      -0.00157468      -8.60670576
Ta      10.30656623      -0.02695753       0.07868812       0.00057959       0.00115055       0.00174634     -11.51030949
Zr      12.02321920       1.67638651       1.71532381       0.00081608       0.00210430       0.00193500      -8.28874431
Zr      10.32735654       0.00374198       3.47901979       0.00108152      -0.00124203       0.00012421      -8.57485535
Ta      12.00008770       1.70036670       5.21957252       0.00213145       0.00011337       0.00012702     -11.41582623
Ta      10.33181268      -0.01508050       6.83607932       0.00082219      -0.00017350       0.00014726     -11.82531072
Ta      12.00478062       1.72176459       8.51033450       0.00122256       0.00039869      -0.00012602     -11.53639334
Zr      10.36264804      -0.00758872      10.28215161      -0.00111257       0.00026660      -0.00082709      -8.60744666
Ta      12.05001884       1.71087138      12.08600818       0.00143582       0.00272008      -0.00059964     -11.41807241
Zr      10.34738292       3.47661479      -0.00355647      -0.00105364       0.00247768      -0.00047348      -8.61676027
Ta      12.09423147       5.24306016       1.74286669      -0.00017323      -0.00194136       0.00011275     -11.54512707
Zr      10.28997334       3.42028525       3.45148463       0.00149674      -0.00133955      -0.00019471      -8.60919099
Zr      12.04192154       5.18911140       5.10124499      -0.00077970      -0.00229066       0.00071861      -8.47203857
Ta      10.30350145       3.40472142       6.78944403      -0.00006729       0.00017232       0.00054798     -11.65196145
Zr      12.04449331       5.09900299       8.58732341      -0.00042983      -0.00105888       0.00015754      -8.47637010
Zr      10.34809004       3.41096701      10.40092044      -0.00202361       0.00260127      -0.00103976      -8.61864129
Ta      12.10139937       5.16881151      12.10757397      -0.00129901      -0.00057849      -0.00115615     -11.40638131
Zr      10.31361839       6.88972387       0.00800057      -0.00070688      -0.00052680      -0.00013330      -8.67113370
Zr      12.05780509       8.60447066       1.79425630       0.00025432       0.00038813       0.00106187      -8.65190333
Ta      10.27209278       6.88904990       3.43609909      -0.00079333      -0.00076860       0.00011757     -11.60697160
Zr      12.07768806       8.61377988       5.08445125       0.00016831       0.00139925       0.00017556      -8.59234845
Zr      10.24991334       6.88744653       6.80820208      -0.00124381       0.00130968       0.00268411      -8.44561102
Zr      12.08950558       8.64017845       8.55206280      -0.00146747      -0.00005580       0.00071316      -8.41884322
Zr      10.32393647       6.90427596      10.44743884      -0.00253059      -0.00029257      -0.00025889      -8.63063449
Ta      12.03082471       8.62280776      12.18925486      -0.00060841      -0.00109866      -0.00107045     -11.41659376
Ta      10.28623563      10.25401508       0.10148361      -0.00015112      -0.00019546      -0.00050599     -11.59599916
Ta      12.00750562      11.97907195       1.79388416       0.00240142       0.00090103       0.00157336     -11.63128952
Ta      10.30608105      10.29212278       3.43413300       0.00116246       0.00070171      -0.00041141     -11.61307165
Ta      12.02749667      12.01130202       5.15686932       0.00092199      -0.00027394      -0.00116977     -11.62643217
Zr      10.28853562      10.33707376       6.85585647      -0.00011451       0.00008962       0.00042642      -8.53223157
Ta      12.00740416      12.04903940       8.49199974      -0.00081732       0.00007494       0.00045833     -11.44628163
Zr      10.29046795      10.31739167      10.34650232      -0.00170036      -0.00086680      -0.00099158      -8.58729621
Zr      11.95761219      12.02847969      12.18343200       0.00011744      -0.00208286       0.00035563      -8.39177336
