128
Lattice="13.733682223049454 -0.0015742975164775392 0.001738431720830924 -0.001549494125266266 13.813916766666592 -1.0232751096803862e-05 0.0016533847959869297 -5.8798389324906625e-05 13.776219110091898" Properties=species:S:1:pos:R:3:forces:R:3:energies:R:1 energy=-1290.9240694001196 stress="-0.00036992753987689805 -9.324311900811944e-05 -0.00028102797037964653 -9.324311900811944e-05 -0.00014743447731482422 7.291375559782668e-05 -0.00028102797037964653 7.291375559782668e-05 -0.00015820331250750852" free_energy=-1290.9240694001196 pbc="T T T"
Zr       0.01942060       0.01848939       0.03042236       0.00074490       0.00114955      -0.00142415      -8.57716160
Zr       1.78794346       1.73881025       1.74735516       0.00121992       0.00080162       0.00107829      -8.42872537
Zr      -0.00665251       0.00826170       3.46561387      -0.00003866       0.00021294       0.00078137      -8.60451176
Ta       1.76193549       1.74718853       5.20590951      -0.00277417      -0.00039935      -0.00075584     -11.61900746
Zr       0.04425672      -0.03717131       6.80501691      -0.00042404      -0.00033330      -0.00036878      -8.51236826
Zr       1.68695949       1.74283973       8.53042768       0.00023327      -0.00141141      -0.00117454      -8.57369008
Ta       0.09635500       0.00659347      10.32072398      -0.00225131       0.00109137      -0.00188668     -11.55422857
Ta       1.72217389       1.69211677      12.06404841       0.00112598      -0.00120609      -0.00031637     -11.66839919
Zr       0.04897532       3.41343449       0.03934117       0.00283310       0.00214938      -0.00107736      -8.43625108
Ta       1.75174630       5.18506840       1.76457002      -0.00362888       0.00005025       0.00072359     -11.82614380
Ta      -0.00756197       3.45800602       3.50106542      -0.00008510      -0.00154786      -0.00060547     -11.62683631
Zr       1.70055720       5.16790069       5.18798920      -0.00007326      -0.00133304       0.00108002      -8.68126234
Ta      -0.04520031       3.50200609       6.82847813      -0.00167145       0.00060643       0.00004237     -11.48412345
Zr       1.69871071       5.17540010       8.54548765       0.00195066       0.00133596      -0.00043609      -8.67310243
Ta       0.00843023       3.43829474      10.27251357      -0.00274414       0.00456874      -0.00073264     -11.42793056
Zr       1.75894447       5.18330286      12.07606336      -0.00174089       0.00059428      -0.00022864      -8.60414992
Ta       0.10947598       6.89330929       0.02544090      -0.00220673      -0.00148518       0.00318457     -11.55875052
Zr       1.75526041       8.58317043       1.77570886       0.00152995       0.00123292       0.00028997      -8.62728101
Ta       0.05691871       6.84274704       3.49608431       0.00345454      -0.00148837       0.00248743     -11.50141593
Ta       1.76283268       8.60462654       5.16132540      -0.00027355      -0.00021309      -0.00099388     -11.83636913
Ta      -0.02613050       6.84479315       6.82409330      -0.00122195       0.00154022      -0.00197072     -11.50573187
Zr       1.79182177       8.62176178       8.56856545      -0.00083710       0.00173417      -0.00107941      -8.64403283
Zr       0.01743297       6.92021304      10.33522808       0.00104807      -0.00004441      -0.00014289      -8.47380281
Ta       1.79570205       8.58806437      12.05724663      -0.00198509       0.00149884       0.00186537     -11.65618938
Zr       0.03380782      10.37908624      -0.04285980       0.00299901      -0.00270101       0.00030838      -8.59978544
Zr       1.80876426      12.08998148       1.73181297       0.00162962       0.00151192      -0.00124439      -8.38960746
Zr       0.03396867      10.42875949       3.49792952       0.00237387      -0.00161696       0.00171040      -8.57926155
Ta       1.82761879      12.09593723       5.19703040       0.00129124       0.00189479       0.00060623     -11.46101343
Zr       0.06745031      10.42466578       6.82852565       0.00303668       0.00099462       0.00210262      -8.53725211
Ta       1.79509206      12.07948684       8.58050500      -0.00167362      -0.00378035      -0.00096768     -11.61997476
Zr       0.06172678      10.36133857      10.36426961      -0.00095135       0.00084411      -0.00247628      -8.64895301
Ta       1.78402443      12.14008564      12.01164156      -0.00034985      -0.00185021       0.00054202     -11.52107426
Ta       3.46042648      -0.02054024      -0.00250616      -0.00073962      -0.00011925      -0.00106630     -11.50590326
Zr       5.18454503       1.70396466       1.68522454      -0.00043287      -0.00082786       0.00181226      -8.57081827
Zr       3.50253347      -0.00330468       3.51515374       0.00001858      -0.00082608       0.00113532      -8.54719094
Ta       5.15883544       1.67754499       5.25044977      -0.00003064       0.00128223       0.00099905     -11.61090131
Ta       3.46088537       0.00282124       6.84639990       0.00098688      -0.00170457      -0.00042005     -11.79683949
Ta       5.14998832       1.67975221       8.52005168       0.00141774       0.00182790       0.00163179     -11.61965959
Zr       3.40087988       0.02591680      10.30395186      -0.00046048       0.00007963       0.00030416      -8.51118535
Zr       5.18234122       1.70531307      12.10596725      -0.00159798      -0.00003543      -0.00207743      -8.61767430
Ta       3.44207759       3.47690861       0.03694915      -0.00220758      -0.00078731      -0.00147358     -11.53502931
Ta       5.10535593       5.20278003       1.74389764      -0.00096728      -0.00405717       0.00051317     -11.78011436
Zr       3.47472824       3.46807291       3.48453044       0.00168394      -0.00023005      -0.00176013      -8.54967612
Ta       5.10800849       5.19871847       5.20303719       0.00125395      -0.00370513      -0.00023718     -11.69143894
Ta       3.44641735       3.40881164       6.84496226      -0.00353990       0.00208869       0.00069851     -11.61360291
Zr       5.10551894       5.21765819       8.58102361       0.00411222       0.00089519      -0.00021177      -8.63195582
Zr       3.41386698       3.38656405      10.31323428      -0.00045865      -0.00085159       0.00284683      -8.37829836
Zr       5.10318741       5.16910071      12.05530784       0.00483228       0.00041625      -0.00205098      -8.58317643
Ta       3.41313019       6.87470548       0.02252752      -0.00218616       0.00238560       0.00226962     -11.60731178
Zr       5.08659473       8.56782294       1.81685175       0.00003349       0.00314998      -0.00310995      -8.55403059
Ta       3.40518698       6.83052909       3.49792155      -0.00052207       0.00111280       0.00012600     -11.56344011
Zr       5.10375303       8.59674288       5.15080269      -0.00257076      -0.00080833       0.00186728      -8.66398323
Ta       3.41106408       6.88658395       6.80801624      -0.00142918       0.00213080      -0.00172002     -11.34405073
Zr       5.11094237       8.59157355       8.56341941       0.00093336       0.00102083      -0.00142292      -8.69399513
Ta       3.44237524       6.95464360      10.37047882      -0.00088049      -0.00135503       0.00084186     -11.39766657
Ta       5.09269824       8.55894670      12.03897970       0.00108694       0.00320983       0.00050674     -11.66212282
Zr       3.45425055      10.34152522      -0.04570599       0.00288841      -0.00077151       0.00217508      -8.55997818
Ta       5.18134613      12.12282245       1.75647381       0.00073092       0.00111869       0.00283359     -11.65006225
Ta       3.44607146      10.40503772       3.54239228      -0.00049581      -0.00072157       0.00210202     -11.62832143
Ta       5.13824387      12.15566390       5.19326871      -0.00022822       0.00108398      -0.00156708     -11.66405334
Ta       3.41943732      10.39824332       6.80773112      -0.00025420       0.00197734      -0.00043010     -11.63322041
Zr       5.15039532      12.11456959       8.56832501       0.00042930      -0.00127094      -0.00197262      -8.64303651
Ta       3.42331383      10.34372308      10.36737321       0.00069791      -0.00198326      -0.00144267     -11.64009269
Zr       5.17333313      12.15604013      12.05559198      -0.00132349      -0.00053107       0.00278866      -8.52475356
Ta       6.90886010       0.00636845       0.05451450       0.00086441       0.00452040      -0.00182848     -11.51523573
Zr       8.54979849       1.70999970       1.76494152      -0.00142769      -0.00227586      -0.00016739      -8.63105063
Ta       6.87114239      -0.02279466       3.49028139       0.00127130       0.00078177      -0.00336773     -11.81220258
Ta       8.57676503       1.68353456       5.18568003      -0.00169366      -0.00224038      -0.00012230     -11.81560406
Ta       6.86332228       0.06221539       6.83384632       0.00020531      -0.00187144       0.00040024     -11.83242779
Ta       8.57715905       1.75743645       8.53550152       0.00120253      -0.00045400      -0.00033717     -11.70231291
Ta       6.90412614       0.12166528      10.29443161      -0.00105867      -0.00104218      -0.00114773     -11.51332742
Ta       8.54718098       1.75771194      12.05712065       0.00404125       0.00050928       0.00201374     -11.72767333
Ta       6.87247666       3.46928741      -0.02179089      -0.00250015       0.00037675       0.00214898     -11.51025406
Zr       8.53747498       5.13662614       1.77419307       0.00241541      -0.00271952       0.00075019      -8.48126498
Zr       6.80041626       3.43078685       3.53197531       0.00139301      -0.00008437       0.00192386      -8.48023554
Zr       8.58427516       5.15215948       5.21510232      -0.00057115      -0.00131010      -0.00220244      -8.53421645
Zr       6.85155755       3.41305128       6.89806285      -0.00319231       0.00025180       0.00120168      -8.59447136
Ta       8.61360321       5.16216770       8.56166739       0.00357766       0.00020369       0.00053416     -11.71516623
Zr       6.89483286       3.43785615      10.27777791      -0.00348206       0.00183101      -0.00320156      -8.60898363
Ta       8.53468881       5.12903692      11.98671033       0.00181457       0.00265347      -0.00054230     -11.52979165
Zr       6.84019382       6.87703502       0.00194898       0.00046758      -0.00004283       0.00021729      -8.56729442
Zr       8.58116643       8.61540873       1.82245555       0.00019456      -0.00118836       0.00255361      -8.43708019
Ta       6.81097683       6.84585360       3.53727619      -0.00031726       0.00121134       0.00023079     -11.53093305
Ta       8.57152931       8.57902830       5.15914674       0.00144222      -0.00372725      -0.00113143     -11.62813916
Ta       6.85267512       6.84628758       6.82816523       0.00088122       0.00261673      -0.00270907     -11.51528166
Zr       8.53523046       8.53576784       8.54395588      -0.00170468      -0.00193199      -0.00069341      -8.54126491
Ta       6.84558276       6.86648640      10.34260672      -0.00181559      -0.00198996      -0.00060374     -11.64352459
Ta       8.50832497       8.52756627      12.04611835       0.00078549       0.00078801       0.00236310     -11.32499144
Zr       6.85352445      10.35482651       0.05279668       0.00017624      -0.00098614       0.00150496      -8.57729035
Ta       8.62335126      12.18751093       1.79380699       0.00218460      -0.00239132      -0.00342804     -11.73719332
Zr       6.87589706      10.45128748       3.48819572      -0.00031632       0.00272818       0.00104320      -8.61772576
Ta       8.59736620      12.22527936       5.10819316      -0.00205072       0.00016527      -0.00127419     -11.69919131
Zr       6.88041236      10.40036012       6.77447038       0.00007061      -0.00115308       0.00131704      -8.44107931
Zr       8.53087932      12.18364227       8.56904936      -0.00040664       0.00222083      -0.00137057      -8.50436510
Zr       6.85288080      10.29362406      10.37642850      -0.00108198      -0.00257094      -0.00224372      -8.48952490
Zr       8.55292247      12.17819842      12.09972859       0.00247990      -0.00198894       0.00087142      -8.50984871
Ta      10.25402719       0.04874974       0.07775773       0.00036277      -0.00045696       0.00249365     -11.61731047
Ta      11.95805171       1.71986800       1.80559564      -0.00189076       0.00313881      -0.00010120     -11.64789544
Ta      10.24799970       0.03625973       3.46990299       0.00192919      -0.00183270      -0.00064790     -11.79894745
Zr      11.97333826       1.75906844       5.18178461       0.00125006       0.00124436       0.00388093      -8.63448583
Ta      10.21980927       0.05987377       6.80663402      -0.00077205       0.00175599      -0.00252753     -11.60693593
Zr      12.01593902       1.78199121       8.54582255      -0.00071224      -0.00001720       0.00050047      -8.66385882
Zr      10.21345129       0.12755270      10.29507369       0.00106979      -0.00318707      -0.00215612      -8.36566854
Zr      12.02722221       1.74974790      12.00334711      -0.00176925      -0.00176992       0.00066376      -8.54655009
Zr      10.26363578       3.42739756      -0.00618243      -0.00040278      -0.00227277       0.00233770      -8.49591043
Zr      12.06068734       5.15845079       1.76886921       0.00031946       0.00223413      -0.00022986      -8.59713249
Ta      10.31299307       3.41172813       3.51012987       0.00210358      -0.00067133       0.00030313     -11.51769370
Ta      12.03399624       5.13765439       5.18820710      -0.00070261      -0.00055720      -0.00204429     -11.90065942
Ta      10.29040008       3.48812929       6.88591225       0.00038078       0.00121257      -0.00072501     -11.73082844
Ta      11.98874170       5.13656570       8.54687201       0.00292441      -0.00058438      -0.00010290     -11.88396215
Ta      10.23653398       3.47358948      10.25635657      -0.00059762       0.00081424      -0.00004003     -11.72075384
Zr      12.06961087       5.10984522      12.02293712       0.00468898      -0.00106718      -0.00045795      -8.46396209
Zr      10.28164029       6.88255601      -0.05713217       0.00127084      -0.00023506       0.00012527      -8.54960932
Zr      12.08356776       8.59358107       1.76663787      -0.00286706      -0.00147761       0.00174814      -8.51561103
Zr      10.31170057       6.85945308       3.51558195       0.00003886      -0.00056219       0.00005330      -8.34338441
Zr      12.03848817       8.59617315       5.18167723      -0.00293704      -0.00203511      -0.00292838      -8.54410468
Ta      10.30165319       6.79855329       6.86158281       0.00088826       0.00106518       0.00029648     -11.58431190
Zr      12.01483863       8.57379129       8.50786059       0.00115065       0.00072478      -0.00130928      -8.46926036
Zr      10.27903576       6.84098831      10.32973380      -0.00512796      -0.00139660      -0.00100222      -8.63133533
Ta      12.08880016       8.57566101      12.10024774       0.00166010       0.00127530       0.00089980     -11.33989950
Zr      10.31149578      10.37506336       0.03505146      -0.00288111       0.00335722       0.00382731      -8.64328933
Ta      11.90215853      12.18577545       1.80818672      -0.00462379       0.00243808      -0.00130866     -11.60274947
Ta      10.26948986      10.46167895       3.47425847      -0.00065146       0.00100475       0.00223566     -11.75217655
Ta      11.89873433      12.16092909       5.08429428      -0.00133608       0.00059397       0.00449986     -11.51109820
Zr      10.24085363      10.41742458       6.79183169      -0.00044076       0.00301937      -0.00387123      -8.53675602
Zr      11.98996140      12.14951942       8.60554892       0.00218012      -0.00231491       0.00108560      -8.50718376
Zr      10.26588488      10.28596717      10.37923496       0.00209014      -0.00248813       0.00189503      -8.57451225
Zr      11.99219426      12.19120120      12.03741709      -0.00176463       0.00056261      -0.00350650      -8.42531380
