128
Lattice="12.486241331400409 0.01527655998563713 0.019174008312610454 0.015357705309239137 12.469043991877186 -0.014452612263437812 0.019331452767416258 -0.014412648089617399 12.4629397728286" Properties=species:S:1:pos:R:3:forces:R:3:energies:R:1 energy=-1074.5700985125047 stress="0.00048197518905703147 -4.4222670893165395e-05 -0.00036893972434764836 -4.4222670893165395e-05 0.0004227789729669814 -0.0003200820180347 -0.00036893972434764836 -0.0003200820180347 0.00014590305761014223" free_energy=-1074.5700985125047 pbc="T T T"
V       -0.00447827      -0.00820969      -0.05466180       0.00032645       0.00149351       0.00098788      -9.03932508
V        1.52476447       1.53935368       1.54660467      -0.00106532      -0.00019097       0.00226361      -9.02484026
V        0.00363781      -0.01016766       3.05930105       0.00132143       0.00015687       0.00005674      -8.96723577
Ti       1.52081154       1.47417792       4.59647884      -0.00006262      -0.00098259       0.00054012      -7.78346275
V       -0.03152433      -0.00067115       6.29612964      -0.00045979      -0.00039610       0.00016939      -8.99512631
V        1.58567846       1.52063071       7.87270981      -0.00134623      -0.00206646       0.00083900      -9.07279833
Ti      -0.14550441      -0.02729221       9.33224956       0.00116648       0.00025138       0.00005251      -7.78154922
Ti       1.59519651       1.55166911      10.88274411      -0.00105858       0.00075543      -0.00050939      -7.77402808
V        0.01317047       3.15437386      -0.05930020      -0.00117776      -0.00103113       0.00001703      -9.02867930
Ti       1.53732361       4.63465257       1.56173604       0.00068878       0.00162337      -0.00035423      -7.73289189
Ti      -0.00467205       3.13685556       3.09324628       0.00077993      -0.00073657      -0.00098444      -7.68060799
V        1.55004669       4.69517097       4.66361059      -0.00120273      -0.00043488      -0.00234976      -9.12391197
Ti       0.01089845       3.04748428       6.27603114       0.00073788      -0.00099033       0.00071958      -7.84416429
V        1.54908444       4.68567820       7.82313591       0.00043976       0.00013530      -0.00116508      -8.99292568
Ti       0.04830974       3.17880686       9.39671695      -0.00077077       0.00049348       0.00113787      -7.78187774
V        1.58815506       4.66220847      10.90902106       0.00001159      -0.00057397       0.00091721      -9.01690029
Ti      -0.01623095       6.18552589      -0.05394115       0.00012091       0.00011974      -0.00046905      -7.75638356
V        1.50073850       7.84554748       1.49995187      -0.00049968      -0.00021912       0.00108176      -8.96526341
Ti      -0.13633628       6.34035053       3.04882752      -0.00059069       0.00148430       0.00025785      -7.78482572
Ti       1.45762324       7.86561205       4.69134887      -0.00106201      -0.00165467       0.00006572      -7.74851477
Ti       0.03290368       6.28754169       6.34404503       0.00022287      -0.00062730      -0.00064927      -7.79336214
V        1.54746856       7.83417365       7.84300323       0.00028001      -0.00012396       0.00277212      -9.03181977
V        0.04701947       6.22493363       9.33344909      -0.00060110       0.00035526      -0.00069634      -9.06983909
Ti       1.54076279       7.82853306      10.88097222      -0.00069680      -0.00073327      -0.00069910      -7.76891616
V       -0.00086039       9.31054258      -0.03215889      -0.00111791       0.00005675      -0.00019945      -8.98146677
V        1.51141375      10.92370514       1.50106026      -0.00028698       0.00038298       0.00099936      -9.01925293
V       -0.01124944       9.30655411       3.05843498       0.00100695      -0.00209585       0.00027875      -8.99520968
Ti       1.47799136      10.92849393       4.60566397       0.00114589       0.00233149       0.00005376      -7.86451996
V       -0.02925636       9.33779060       6.28883930      -0.00199261       0.00020820       0.00163411      -8.93451530
Ti       1.52758940      10.89515608       7.78105489      -0.00049889      -0.00041395       0.00092241      -7.76824822
V       -0.01365193       9.33771954       9.31831135       0.00012381      -0.00053760       0.00109522      -8.97607884
Ti       1.51152135      10.82033947      10.96776993      -0.00035946       0.00081346      -0.00031622      -7.79567520
Ti       3.15706194      -0.01205853       0.00499705      -0.00037234       0.00016352       0.00104603      -7.80237819
V        4.63750354       1.58114095       1.57504479       0.00081498       0.00063836       0.00009939      -8.99075461
V        3.09709951      -0.00194433       3.01343454      -0.00220662      -0.00039475       0.00043847      -8.95612482
Ti       4.68917196       1.61896501       4.56516850      -0.00003728      -0.00057952       0.00039830      -7.84754288
Ti       3.12459390      -0.02958959       6.33069691       0.00014976       0.00055421      -0.00062120      -7.82701058
Ti       4.64922270       1.61739873       7.92156263      -0.00009979       0.00001941       0.00008382      -7.79460847
V        3.17521605      -0.05576302       9.38832676       0.00036281       0.00020760      -0.00004086      -9.02143164
V        4.66757547       1.54180870      10.87129842      -0.00002898       0.00060908      -0.00046140      -9.02133578
Ti       3.10969386       3.10863531      -0.05231272       0.00028358       0.00078977      -0.00000139      -7.75479081
Ti       4.69710596       4.66582636       1.56096093      -0.00031469      -0.00009398       0.00029115      -7.71323954
V        3.07702517       3.08745126       3.07568151       0.00116738      -0.00090117       0.00059729      -8.96257034
Ti       4.72807731       4.59247599       4.61961467       0.00045300      -0.00020035      -0.00053327      -7.82165559
Ti       3.04053933       3.19013730       6.32344069       0.00013659      -0.00076335       0.00026788      -7.78741255
V        4.70247972       4.64022440       7.81772849       0.00118119      -0.00014170       0.00015836      -8.99928930
V        3.09455871       3.18922921       9.37781686       0.00027524       0.00008407       0.00043048      -8.98162991
V        4.71468488       4.67987404      10.92406477      -0.00011535       0.00111829      -0.00115064      -9.04108511
Ti       3.14250125       6.28575892       0.04122648       0.00002030      -0.00122906       0.00093855      -7.80661521
V        4.76027059       7.82758251       1.49637275       0.00024062       0.00070381      -0.00055149      -8.94059791
Ti       3.12234369       6.31852654       3.09492908      -0.00143283      -0.00022144      -0.00039790      -7.84979407
V        4.77864434       7.83411528       4.64550653       0.00140319      -0.00067214      -0.00047289      -9.03267194
Ti       3.13994944       6.25719186       6.29930194      -0.00002320       0.00021745       0.00049917      -7.85690796
V        4.73244502       7.79513507       7.83889009      -0.00182462       0.00169319      -0.00176821      -9.01113755
Ti       3.11203652       6.13005935       9.28690662      -0.00033855       0.00063848      -0.00069030      -7.85913967
Ti       4.77639039       7.85038229      11.00165277       0.00147137      -0.00002369      -0.00109741      -7.77486482
V        3.11232009       9.34444035       0.03664663       0.00077866      -0.00020339       0.00167401      -9.02848331
Ti       4.72443955      10.84149454       1.50795498      -0.00031031       0.00007886       0.00069407      -7.70869295
Ti       3.13279036       9.29039306       2.99145936       0.00006902       0.00242681      -0.00135355      -7.78891476
Ti       4.78963991      10.83014872       4.64962821       0.00117839      -0.00034284       0.00256448      -7.85832839
Ti       3.23271648       9.27512894       6.29018878       0.00048858       0.00060264      -0.00066714      -7.78924746
V        4.72914786      10.87387235       7.81958955       0.00069875      -0.00028711      -0.00029482      -8.93913828
Ti       3.22937598       9.37907077       9.32271412      -0.00057492      -0.00079258      -0.00068621      -7.75198911
V        4.73835063      10.81628326      10.94540619      -0.00018483       0.00010105      -0.00096298      -8.99312775
Ti       6.23998589      -0.00065442      -0.02061511       0.00149786      -0.00088977       0.00182796      -7.81123470
V        7.87589423       1.61910598       1.48938308      -0.00014587      -0.00053121       0.00050508      -9.00351914
Ti       6.28970049       0.11353075       3.01605254      -0.00064135       0.00017997      -0.00011553      -7.78832797
Ti       7.74742353       1.67962661       4.69531690       0.00027723      -0.00045838       0.00013710      -7.78346670
Ti       6.25228904      -0.11538955       6.33248767      -0.00077473      -0.00220246      -0.00041407      -7.78760516
Ti       7.77714078       1.57635919       7.86301477      -0.00052214      -0.00045623      -0.00054971      -7.80610611
Ti       6.22921368      -0.16241222       9.41610850       0.00070109       0.00043553       0.00151530      -7.81306379
Ti       7.86005693       1.56102219      10.90362460      -0.00006871      -0.00028499      -0.00039590      -7.72696042
Ti       6.23033312       3.11029983       0.03065917       0.00102004      -0.00015261       0.00048183      -7.79348172
V        7.82991596       4.73768980       1.46065581       0.00115186      -0.00040871       0.00005562      -8.95451965
V        6.30436330       3.13240826       3.02185871       0.00000480       0.00106637      -0.00100085      -8.97798376
V        7.79457310       4.70082997       4.66830469      -0.00054697       0.00116351      -0.00285959      -9.09381878
V        6.20596962       3.16886961       6.25967424      -0.00024098      -0.00092726       0.00056401      -8.96057622
Ti       7.75936676       4.63061779       7.83322370       0.00027426      -0.00052685       0.00009087      -7.80008623
V        6.18272888       3.15878258       9.44712274       0.00037584      -0.00031713      -0.00114082      -8.91958720
Ti       7.89782178       4.73467049      10.95645721      -0.00005836       0.00056747      -0.00019628      -7.80381451
V        6.29101190       6.25155705       0.04541818       0.00104581       0.00171522      -0.00199871      -9.03704552
V        7.86944179       7.80532269       1.44684841       0.00057477       0.00099550       0.00028006      -8.98688958
Ti       6.35430238       6.27009390       3.00859978       0.00044614       0.00009785       0.00070558      -7.81052228
Ti       7.82285025       7.85037524       4.72802583      -0.00115996       0.00013889       0.00102341      -7.70519426
Ti       6.21239912       6.27738483       6.30340048      -0.00035181       0.00105499      -0.00102751      -7.77622385
V        7.84086792       7.85958742       7.87224477      -0.00005550      -0.00007063      -0.00074238      -8.98666835
Ti       6.23064514       6.23165539       9.32729100       0.00050925       0.00002717       0.00078421      -7.77386007
Ti       7.86757823       7.86075981      10.93698366       0.00083198      -0.00036093      -0.00098021      -7.83737729
V        6.30221049       9.35760840      -0.00945303      -0.00038942      -0.00028484      -0.00039318      -8.99256946
Ti       7.83322630      10.80376773       1.49224731      -0.00002001       0.00083881      -0.00083118      -7.78055884
V        6.29156128       9.25006680       3.06802370      -0.00062076       0.00047230       0.00122940      -8.94970924
Ti       7.79280261      10.79140235       4.73739136      -0.00200502      -0.00069987       0.00025441      -7.84878411
V        6.24812448       9.32814552       6.30976582       0.00012475       0.00034934      -0.00075535      -8.97547722
V        7.86949847      10.83146235       7.82868916      -0.00152437      -0.00238112      -0.00132927      -8.94039231
V        6.27755904       9.37303082       9.34708522       0.00015282       0.00098771      -0.00190132      -9.00850456
V        7.88980017      10.78299742      10.89323163      -0.00016509       0.00078578      -0.00139598      -8.99283231
Ti       9.42764078      -0.02696357      -0.12872048       0.00005487       0.00032854       0.00060930      -7.79362914
Ti      11.01677728       1.59472639       1.48108699       0.00177949       0.00201076      -0.00002760      -7.75950895
Ti       9.39066878       0.07450566       3.10920664       0.00025507      -0.00033155      -0.00000203      -7.89863092
V       10.99014999       1.50541052       4.66984977      -0.00039873      -0.00076855       0.00045150      -9.02217081
Ti       9.48270317      -0.03738458       6.40187707      -0.00042066      -0.00051402       0.00050350      -7.84056837
V       10.96913783       1.53287349       7.82947094       0.00084473       0.00007789       0.00010808      -8.96580265
V        9.45721644      -0.05461476       9.36163937       0.00004505       0.00021297       0.00062978      -9.07198779
V       10.99249687       1.56431353      10.97539434       0.00066827       0.00017841       0.00022424      -8.97444654
V        9.41113553       3.17315722       0.00702248       0.00109580       0.00057102      -0.00049756      -8.99457735
V       10.88689081       4.72248074       1.50325364       0.00040249       0.00127085       0.00105298      -8.97555330
Ti       9.29482482       3.22596393       3.03989028      -0.00075555      -0.00019396      -0.00038700      -7.78472690
Ti      10.86920695       4.76648622       4.66614646      -0.00021812      -0.00000028       0.00042364      -7.80529548
Ti       9.39400020       3.09368796       6.22685781       0.00130510      -0.00056787       0.00036209      -7.78374531
Ti      10.92344678       4.75276703       7.90290961      -0.00079096      -0.00045170       0.00093440      -7.71732013
Ti       9.47024200       3.01942713       9.42149107       0.00085055       0.00053300      -0.00046145      -7.71785320
V       10.88570047       4.74527530      10.90774731       0.00136259      -0.00137107       0.00089404      -9.03327227
V        9.41112712       6.25129177       0.01974597      -0.00034271       0.00040578       0.00034508      -8.99264211
V       10.91662825       7.83068005       1.43357732       0.00000185      -0.00083452       0.00092918      -8.97151121
V        9.37694271       6.29613338       3.04921280       0.00132046      -0.00128907      -0.00097061      -9.04846491
V       10.93871375       7.85840883       4.74647469      -0.00026652      -0.00064861      -0.00206453      -9.01316180
Ti       9.36176857       6.35758506       6.30291569       0.00005480      -0.00011916      -0.00101394      -7.77170904
V       10.90939479       7.85135900       7.89388460       0.00040579       0.00038931      -0.00198636      -8.97464443
V        9.37012324       6.30919203       9.34243097      -0.00088748       0.00023722      -0.00165488      -9.04164528
Ti      10.93489386       7.81567377      10.86005188      -0.00081409       0.00081406      -0.00020206      -7.82290017
V        9.41272488       9.34990193      -0.02920163       0.00094455       0.00065308       0.00016841      -9.02197325
Ti      11.07476735      10.87042561       1.47335784      -0.00089226      -0.00000570       0.00053858      -7.77714002
Ti       9.43204655       9.19054980       3.06887997      -0.00102189       0.00008863      -0.00101272      -7.76578334
Ti      11.05781980      10.87723858       4.71359177       0.00021711      -0.00027723       0.00217939      -7.82911372
V        9.41000786       9.34256156       6.32191578      -0.00180742      -0.00020574       0.00096424      -8.96198534
V       10.96312703      10.83851038       7.82109082       0.00037536       0.00062882       0.00017205      -8.96383104
V        9.38203430       9.38931409       9.33152555       0.00012711      -0.00039527       0.00005792      -9.02114236
V       10.98377490      10.79269348      10.89704059      -0.00002401      -0.00100181       0.00040589      -9.01987236
