128
Lattice="12.468687366483504 0.008522140925875561 -0.006336841620946094 0.00848965529800633 12.460560442378835 -0.003865689936814055 -0.0063238112122510496 -0.003899962630064608 12.479664219744047" Properties=species:S:1:pos:R:3:forces:R:3:energies:R:1 energy=-1074.5783122533655 stress="0.00039210517033642255 0.0005149609496724652 9.162842389179775e-05 0.0005149609496724652 0.0002317413765500495 -0.0002867477642086525 9.162842389179775e-05 -0.0002867477642086525 2.420896775065866e-05" free_energy=-1074.5783122533655 pbc="T T T"
V        0.00483922       0.04486383      -0.03848888      -0.00006737      -0.00013291      -0.00067979      -9.04210311
Ti       1.43802969       1.65299555       1.51909825      -0.00121567      -0.00027005      -0.00052182      -7.83936973
V        0.00815157       0.01999944       3.11046734      -0.00037966      -0.00020783      -0.00029077      -9.05834575
Ti       1.45101146       1.56030241       4.70439347      -0.00043084      -0.00019608       0.00019767      -7.78593186
V        0.03556369      -0.01408549       6.29516771      -0.00031412       0.00026668      -0.00011727      -8.98908697
V        1.51426364       1.54090248       7.83766761      -0.00037177      -0.00043837       0.00020035      -8.99867045
V        0.01782429       0.05163818       9.37891197       0.00002743      -0.00012222       0.00014582      -8.99426386
V        1.53835999       1.54973139      10.90267168       0.00048522       0.00076561      -0.00100023      -9.03767790
V        0.03981864       3.13659039      -0.11095258       0.00045774       0.00069396      -0.00077123      -9.01896621
V        1.52082234       4.54953600       1.51142712      -0.00009939      -0.00009503       0.00043216      -8.94063623
V       -0.01961557       3.12821724       3.10702963       0.00056847       0.00019280      -0.00048599      -8.97832006
Ti       1.46755358       4.62173531       4.67450291       0.00088512       0.00003022      -0.00030560      -7.80119859
V       -0.04831042       3.14267892       6.27760470      -0.00016090       0.00007752      -0.00019693      -9.07892776
Ti       1.52238756       4.74797170       7.78312532       0.00076784       0.00035559      -0.00032796      -7.73824291
Ti       0.01272240       3.11886931       9.31796972       0.00062802       0.00052568       0.00008755      -7.70700951
V        1.54498202       4.64602771      10.82478781       0.00049781       0.00037283      -0.00043752      -8.98862633
Ti       0.04137835       6.19139315      -0.06017606      -0.00036589       0.00016329       0.00035225      -7.78361924
Ti       1.53491939       7.88842027       1.41172314       0.00063172      -0.00028233       0.00063084      -7.80606146
Ti      -0.05570049       6.23619720       3.11725043       0.00012275       0.00036721       0.00076446      -7.83366887
Ti       1.57662182       7.72626334       4.83889770       0.00074777       0.00000895       0.00019106      -7.76834103
V       -0.07480178       6.24769018       6.26333289       0.00023909      -0.00012570      -0.00032813      -8.97540147
V        1.55015657       7.70450861       7.78860610       0.00011602      -0.00020081      -0.00053041      -8.99440261
V       -0.01164805       6.23728515       9.32198596       0.00056797       0.00056154      -0.00002525      -9.06229795
V        1.51070610       7.80476522      10.88120003      -0.00006170      -0.00046092       0.00010161      -9.04669793
V       -0.04285112       9.35698590      -0.04951975      -0.00042053       0.00006854       0.00042263      -8.99685604
Ti       1.52066096      10.90343589       1.53687489       0.00002675       0.00050153      -0.00038756      -7.73256971
Ti      -0.04655608       9.30738342       3.13477455       0.00050254       0.00080026       0.00080031      -7.79641475
V        1.50748230      10.94384963       4.73235576      -0.00013592      -0.00030634       0.00053489      -9.00107568
Ti       0.06015367       9.31276535       6.34021267      -0.00071227      -0.00042394      -0.00012156      -7.78603960
V        1.48175729      10.94035815       7.87583314      -0.00064164      -0.00155507       0.00035348      -8.98113647
V        0.03180889       9.29749358       9.31875751       0.00002383       0.00024224      -0.00002106      -9.00382963
Ti       1.42118293      10.90575795      10.89261692      -0.00022860      -0.00103694      -0.00061188      -7.76761919
Ti       3.14536830      -0.02321104      -0.01429022      -0.00032843       0.00038835      -0.00055099      -7.79610587
V        4.61276519       1.57941854       1.52179095      -0.00008598      -0.00037870       0.00125071      -9.06909292
Ti       3.15387661      -0.01490033       3.13957333      -0.00119065      -0.00052836      -0.00050401      -7.80037240
Ti       4.69201630       1.60733098       4.69399693      -0.00063562      -0.00091596      -0.00012041      -7.78493486
Ti       3.05022020      -0.06488066       6.33357167      -0.00052887      -0.00081182       0.00046592      -7.80571473
V        4.67149255       1.56035936       7.91867084       0.00047861      -0.00072475       0.00022909      -8.95608008
V        3.04686870       0.03175914       9.36609841       0.00010772      -0.00075600      -0.00004612      -9.00955558
Ti       4.61818004       1.58207170      10.81358142      -0.00011797      -0.00006746      -0.00016685      -7.76217251
V        3.04816092       3.09459946      -0.10440340       0.00006534       0.00009858       0.00033031      -8.97766771
Ti       4.58041625       4.55878306       1.53534725       0.00023550      -0.00001777       0.00107020      -7.72192153
V        3.06811283       3.07875124       3.09299181      -0.00013600      -0.00077647      -0.00093306      -9.02619698
Ti       4.67220712       4.65160190       4.70099117       0.00030759      -0.00029963      -0.00103455      -7.77499283
Ti       3.14029173       3.06747916       6.36448931       0.00051356      -0.00092205       0.00007728      -7.77673216
V        4.63363928       4.63880782       7.85907921       0.00004162      -0.00011298       0.00041650      -8.98900864
V        3.06710443       3.09963439       9.32273565       0.00046594      -0.00027698       0.00006050      -9.02195959
V        4.60949541       4.57868160      10.84070919       0.00005653      -0.00074195       0.00035811      -8.95343962
Ti       3.04483064       6.14444454      -0.12345205       0.00020319      -0.00032805       0.00061609      -7.74709257
Ti       4.70805079       7.84689797       1.59347835       0.00028563       0.00005827      -0.00059756      -7.84410897
Ti       3.07026741       6.17015387       3.08400982       0.00027452       0.00044668      -0.00026055      -7.81091547
Ti       4.68883234       7.77598894       4.68940837       0.00057053      -0.00029876      -0.00093055      -7.84940064
V        3.09567366       6.16643787       6.27694585       0.00090136      -0.00001595      -0.00086799      -8.98072854
Ti       4.50741218       7.70464089       7.77489474      -0.00027620      -0.00037884      -0.00008256      -7.80719996
V        3.05346141       6.19690130       9.39645623       0.00043843       0.00022511       0.00013407      -8.98962345
Ti       4.57760025       7.79845326      10.90791710       0.00067551      -0.00019441       0.00031743      -7.79780050
V        3.14519875       9.44137884      -0.06257792       0.00031479      -0.00014051      -0.00057097      -9.01901917
V        4.67014237      10.91988541       1.55162403      -0.00033848       0.00070194       0.00009058      -8.99089820
Ti       3.18491806       9.46591163       3.21317007       0.00016197      -0.00036250      -0.00043702      -7.79772429
V        4.70234683      10.91926677       4.74691433      -0.00055564       0.00034061       0.00034786      -9.00843831
V        3.04280579       9.41150265       6.29300912       0.00060492      -0.00012411      -0.00033102      -9.02851932
Ti       4.66111849      10.99679088       7.89035397       0.00012843      -0.00061293       0.00012156      -7.75398033
Ti       2.99820781       9.35371363       9.32328212       0.00019936      -0.00019575       0.00024728      -7.72984665
V        4.65966081      10.96874577      10.84155197       0.00025185       0.00066474      -0.00058064      -9.03795610
Ti       6.25741940      -0.02717822      -0.04055331      -0.00038326       0.00087509       0.00021507      -7.86652463
Ti       7.98346056       1.63367473       1.57074465       0.00014835       0.00017418       0.00061504      -7.78412595
Ti       6.22617529      -0.11456810       3.09326882      -0.00026537      -0.00018652       0.00056267      -7.86745339
Ti       7.80821434       1.58626524       4.68371385       0.00001769       0.00001406      -0.00004187      -7.77486310
Ti       6.25454804       0.08225467       6.31429423      -0.00008426      -0.00030309       0.00017264      -7.80329766
V        7.80683338       1.60105841       7.88378051      -0.00046486       0.00037387       0.00084162      -8.93219396
V        6.26235232       0.05071517       9.39478467       0.00069845      -0.00024012      -0.00022363      -8.99627896
V        7.82476758       1.59123972      10.83400255      -0.00042346       0.00020749       0.00067688      -8.98405595
Ti       6.24260080       3.10276831      -0.03990286      -0.00101075      -0.00025787       0.00060147      -7.76398137
V        7.90344978       4.64215033       1.50888373      -0.00049461       0.00042168       0.00048785      -8.99096209
Ti       6.24697139       3.12716231       3.04887110       0.00000939      -0.00024821       0.00059607      -7.72073801
Ti       7.82302659       4.67173630       4.67745264      -0.00056167       0.00034956       0.00069217      -7.72475732
V        6.25635975       3.13064847       6.36887686      -0.00043863      -0.00043170       0.00010091      -9.00535696
V        7.83638046       4.65582996       7.86538084      -0.00033210       0.00000493       0.00020517      -8.98914367
V        6.21842665       3.13082535       9.34168561      -0.00032194      -0.00015867       0.00015789      -9.00526995
Ti       7.88011453       4.61989033      10.87396105      -0.00067388      -0.00011591       0.00077933      -7.76247002
Ti       6.24638053       6.13443733       0.01955416       0.00021209       0.00038132      -0.00001713      -7.83535828
Ti       7.79531228       7.74906481       1.57502329       0.00124015       0.00086800      -0.00108679      -7.80926379
V        6.25994877       6.18387374       3.06785678       0.00106147       0.00015119      -0.00016241      -9.08408705
Ti       7.83914123       7.79617137       4.71673278       0.00021037      -0.00004665      -0.00023351      -7.79769962
Ti       6.29314703       6.13009660       6.36716663      -0.00068878      -0.00007242       0.00017172      -7.77143925
V        7.91387025       7.77850767       7.82745935      -0.00036068       0.00001736      -0.00052564      -8.90643608
Ti       6.21786436       6.15351054       9.32684919       0.00014619      -0.00022120      -0.00000636      -7.79574127
Ti       7.89384659       7.75675718      10.83074728       0.00006064       0.00047253       0.00050411      -7.78053771
Ti       6.22616992       9.52306811      -0.00863879       0.00009087       0.00024729      -0.00088218      -7.81348061
V        7.83401914      10.93397557       1.55853145       0.00033841       0.00034730       0.00014875      -9.01620411
V        6.25695815       9.44746126       3.15099176       0.00069517       0.00023028      -0.00098180      -8.95191861
V        7.83012573      10.87972367       4.71222283       0.00026478       0.00001554       0.00007350      -8.99124581
Ti       6.27586948       9.36655611       6.21174311      -0.00099437      -0.00013002      -0.00093529      -7.82473947
Ti       7.86574730      10.88998185       7.85454736       0.00048531      -0.00105959      -0.00117749      -7.74758216
Ti       6.28277079       9.37546801       9.37967635       0.00054402      -0.00045790      -0.00057459      -7.79366856
V        7.81863046      10.95764754      10.83416272       0.00041836       0.00040209      -0.00017449      -8.96732903
Ti       9.34565384       0.00117601      -0.06952843      -0.00019998       0.00058134       0.00021732      -7.69100831
V       10.95287996       1.59803156       1.53893689      -0.00009458       0.00055513      -0.00029031      -9.10355186
V        9.35247714      -0.02003022       3.11902484      -0.00080237       0.00003383      -0.00022087      -9.05109964
Ti      10.96127555       1.59089960       4.55417024      -0.00061074       0.00063011       0.00004101      -7.84392340
Ti       9.31417470      -0.00501497       6.24638415      -0.00023954       0.00064960       0.00045361      -7.74982502
Ti      10.93565878       1.52795763       7.80605419      -0.00058480       0.00042163       0.00022341      -7.75812149
V        9.34274425       0.02852505       9.39558287      -0.00020730       0.00022892      -0.00036141      -9.01294820
Ti      10.92622689       1.55343980      10.91824914      -0.00012970       0.00033985      -0.00052594      -7.79242273
V        9.37932341       3.07476956      -0.08200933       0.00024220      -0.00028460      -0.00005058      -9.01446973
Ti      10.90075065       4.48947553       1.49309690       0.00090337       0.00034154       0.00016662      -7.78854744
V        9.38905714       3.14970659       3.12939269      -0.00122250       0.00082900       0.00069498      -8.96715979
V       10.94754033       4.65629545       4.70585641       0.00020020       0.00067512       0.00058093      -9.03042654
Ti       9.35070092       3.19807271       6.31819500      -0.00005014      -0.00026385       0.00091263      -7.79477876
V       10.92677183       4.73299544       7.79953443      -0.00038615       0.00047099      -0.00036764      -8.98537193
V        9.36521410       3.11887971       9.29076449      -0.00063301      -0.00010555       0.00079351      -9.01650867
Ti      10.87154681       4.69110605      10.81353709      -0.00022172       0.00006324      -0.00041661      -7.74856908
V        9.40722116       6.22139382      -0.01727680       0.00018638       0.00007332       0.00026187      -9.08525653
V       10.92314889       7.80404290       1.47225195       0.00069262       0.00019691       0.00080567      -9.02383136
Ti       9.44574804       6.23226633       3.12113735      -0.00049839      -0.00034053       0.00002987      -7.76016865
V       10.90305791       7.77346389       4.77325091      -0.00071236      -0.00056494      -0.00093563      -8.95126151
V        9.40386120       6.22324894       6.26690467       0.00022273       0.00032233       0.00101452      -8.98150328
V       10.92534291       7.77013164       7.85265690      -0.00000084      -0.00068308       0.00020947      -9.04457103
V        9.37829053       6.22891671       9.27614445      -0.00070921      -0.00029802       0.00100876      -8.94753948
Ti      10.94159244       7.82989273      10.81881561      -0.00026907      -0.00061123       0.00023769      -7.76682319
Ti       9.36749470       9.41826913      -0.06233503       0.00048368       0.00097278      -0.00055882      -7.79156472
Ti      10.98733376      11.01691486       1.51074741       0.00045422       0.00064611       0.00010226      -7.76002966
Ti       9.36431185       9.36567783       3.14045329      -0.00049172       0.00127274      -0.00032128      -7.80827783
Ti      10.94500611      10.95588399       4.69473652      -0.00031698      -0.00020675       0.00033126      -7.78547632
V        9.41767640       9.29690304       6.28070794       0.00051885      -0.00076769      -0.00028351      -9.01404868
Ti      10.97462745      10.90996452       7.95908998       0.00000459      -0.00027010      -0.00060272      -7.80031896
V        9.38408623       9.33546560       9.35330494       0.00029949      -0.00012328       0.00031219      -9.03354114
V       10.98166275      10.93080315      10.84612243       0.00025090       0.00050974      -0.00021477      -9.06455353
