128
Lattice="13.745856447170317 -0.00511889517763092 -0.0021009414062595475 -0.005114876575816952 13.747490688598774 -0.001229651255181322 -0.002100137736448046 -0.0012316828490151542 13.746592796971155" Properties=species:S:1:pos:R:3:forces:R:3:energies:R:1 energy=-1046.3979989277148 stress="0.00013663562991642297 0.00010860135233396837 8.690882006240881e-05 0.00010860135233396837 0.000421843160466937 8.75954797115756e-05 8.690882006240881e-05 8.75954797115756e-05 1.2265276522008376e-05" free_energy=-1046.3979989277148 pbc="T T T"
Zr       0.08722760      -0.11945164       0.10358988      -0.00159890      -0.00174152       0.00181709      -8.79399368
Ti       1.79122471       1.63543926       1.73878456      -0.00327674      -0.00309160      -0.00172747      -7.47391944
Zr      -0.02202003      -0.03063008       3.45290799      -0.00221811       0.00196398       0.00011002      -8.86529146
Ti       1.84076863       1.67356078       5.19717873      -0.00021124       0.00005099      -0.00036819      -7.56055997
Zr      -0.09011356       0.02758281       6.78885230      -0.00130202       0.00216248       0.00259953      -8.83677893
Zr       1.77243897       1.75150426       8.53821088       0.00004397       0.00071870       0.00027227      -8.71944120
Zr      -0.12344883      -0.00294014      10.28945966       0.00044809      -0.00165975      -0.00138462      -8.78042339
Zr       1.69197296       1.71226275      12.02804868       0.00244455      -0.00183084      -0.00290783      -8.68166323
Zr      -0.05659206       3.47609618       0.08070958      -0.00074452       0.00249849       0.00065916      -8.73507844
Zr       1.77058741       5.33995091       1.73334086       0.00191367       0.00020995      -0.00070684      -8.78337492
Zr       0.08318487       3.36807843       3.44776379      -0.00218015      -0.00030460      -0.00048850      -8.83382799
Ti       1.79593694       5.18911507       5.04092726       0.00497819      -0.00025609      -0.00071190      -7.49834912
Zr       0.05479948       3.41542186       6.72690132      -0.00005852      -0.00062441       0.00122454      -8.78924109
Ti       1.74828557       5.06803010       8.54222168       0.00116250      -0.00171878       0.00002669      -7.54183767
Ti      -0.08284963       3.41566761      10.28496161      -0.00141114      -0.00066535       0.00284289      -7.63390918
Zr       1.70457515       5.21472228      12.10043900       0.00117370       0.00298825       0.00196001      -8.68208794
Ti      -0.06162628       6.90088203       0.05615520      -0.00091310      -0.00023741       0.00432982      -7.59903272
Ti       1.74950936       8.51071523       1.76662235      -0.00262945       0.00026252      -0.00524050      -7.68422260
Ti       0.07323999       6.93368974       3.42030929      -0.00082184       0.00055713       0.00071614      -7.57878412
Ti       1.74493766       8.63362270       5.05446300       0.00082161       0.00304539       0.00133366      -7.68728792
Zr       0.13810075       6.83968892       6.77758054       0.00255097      -0.00308444      -0.00310393      -8.71366172
Zr       1.70797106       8.69885613       8.60780851      -0.00045850       0.00213365       0.00085877      -8.60248087
Zr      -0.03667219       6.86081863      10.31219927       0.00203979       0.00016407       0.00005122      -8.68757658
Zr       1.76159077       8.56299253      12.09170937      -0.00249796      -0.00265478      -0.00008188      -8.71974034
Zr       0.09417395      10.36193326       0.13418854       0.00019818       0.00014643       0.00010755      -8.79941539
Ti       1.86950262      12.04238490       1.85960900       0.00286749       0.00061618       0.00051686      -7.58589443
Ti       0.05475426      10.34034521       3.35481927       0.00155017      -0.00471383      -0.00106428      -7.66879157
Zr       1.79371928      11.95977024       5.08743618      -0.00052680      -0.00132884      -0.00230053      -8.80679592
Ti       0.02936379      10.35016764       6.78646205      -0.00180197      -0.00170470      -0.00027068      -7.51547385
Zr       1.76218515      11.99386653       8.54128228      -0.00049004       0.00194888       0.00152715      -8.74746968
Zr      -0.06057457      10.39727311      10.42132524       0.00121740       0.00023159       0.00213777      -8.71162646
Ti       1.83685251      11.99040046      12.06841649       0.00360895       0.00008439      -0.00081351      -7.49234825
Ti       3.42899250      -0.03904111       0.03638407       0.00073720       0.00147605      -0.00167364      -7.61410362
Zr       5.22906379       1.65222803       1.77273945       0.00118901       0.00006561       0.00040239      -8.84582237
Ti       3.41843482       0.07656836       3.47819256      -0.00000461       0.00046711       0.00020222      -7.57819858
Ti       5.11373029       1.65311211       5.14162108      -0.00195218       0.00171025      -0.00137617      -7.68251317
Ti       3.49751675      -0.04684579       6.80481854      -0.00010511      -0.00067713      -0.00268546      -7.53350437
Zr       5.11036816       1.73224012       8.41943416       0.00157918       0.00295200       0.00149673      -8.69459905
Zr       3.53097216      -0.05592539      10.33325709      -0.00059892       0.00026701       0.00387430      -8.71336303
Ti       5.18960112       1.62199605      12.14776958      -0.00094931       0.00091844       0.00142676      -7.53008696
Zr       3.49715246       3.41847743       0.07237535       0.00293162       0.00350177       0.00098532      -8.70900122
Ti       5.20884868       5.18908116       1.71722775       0.00047116       0.00479872       0.00058758      -7.66097666
Zr       3.47310896       3.43978635       3.46727689       0.00243241      -0.00197135      -0.00296938      -8.88266322
Ti       5.13665723       5.19922768       5.10155559      -0.00259850       0.00165280       0.00198493      -7.61114394
Ti       3.43236288       3.50679227       6.72841396       0.00048632      -0.00054532       0.00028102      -7.64162352
Zr       5.25019083       5.21073020       8.50144327       0.00267475      -0.00323936      -0.00278499      -8.71368590
Zr       3.51756736       3.46923847      10.34909360       0.00232210       0.00037955       0.00074838      -8.65592541
Zr       5.25307713       5.28581940      12.19610915      -0.00326906      -0.00162076       0.00373087      -8.74695228
Ti       3.54007596       6.99078497       0.07947027       0.00298357      -0.00184858      -0.00082482      -7.57513261
Ti       5.12371075       8.51778681       1.77663277       0.00082575      -0.00057924       0.00150658      -7.64144975
Ti       3.49891701       6.91204468       3.46779303       0.00425636      -0.00555735      -0.00057886      -7.75174494
Ti       5.16698451       8.56348852       5.10466075      -0.00090792      -0.00001425       0.00358913      -7.58016603
Zr       3.41654002       6.90228898       6.78375815      -0.00270343       0.00349468       0.00356792      -8.85024907
Ti       5.27008428       8.57005241       8.55841218       0.00018318      -0.00203252      -0.00280599      -7.63714684
Zr       3.53354802       6.93029427      10.28404798       0.00359400      -0.00277780      -0.00115908      -8.71944389
Ti       5.20328724       8.64604592      12.07742030      -0.00042424       0.00122668       0.00077356      -7.70182606
Zr       3.43243309      10.24547332       0.13439910      -0.00167569      -0.00281237       0.00055567      -8.77783005
Zr       5.15645054      12.10162913       1.77981269       0.00200428       0.00102490       0.00040400      -8.84005850
Ti       3.47655611      10.20254804       3.39698316       0.00485654       0.00151240       0.00160167      -7.65553847
Zr       5.15097849      12.07884840       5.07513012       0.00266390       0.00109593      -0.00370806      -8.82509255
Zr       3.56179771      10.22262183       6.84253252       0.00249838      -0.00317261      -0.00223339      -8.72985541
Ti       5.18690560      11.99204475       8.53069910      -0.00020721       0.00155754      -0.00100276      -7.64554276
Ti       3.56101647      10.30176786      10.29697439       0.00154757       0.00242985       0.00000847      -7.62052916
Zr       5.21744121      11.92893736      12.13176300       0.00444437       0.00267878      -0.00054745      -8.81667325
Ti       6.89525840       0.02911606       0.07014909       0.00247937      -0.00194636       0.00151423      -7.45827890
Ti       8.52727650       1.73901200       1.69721613      -0.00005379       0.00459785       0.00123418      -7.63301841
Ti       6.92313951       0.08299154       3.47484425       0.00006677      -0.00116618      -0.00061997      -7.55771405
Ti       8.60264874       1.61299467       5.22087016       0.00156292      -0.00322002      -0.00058866      -7.63300713
Ti       6.79883231      -0.00527340       6.84604084      -0.00311568       0.00099728      -0.00281732      -7.56810296
Zr       8.64098355       1.69492898       8.39706008       0.00088980       0.00079615      -0.00047269      -8.75132318
Zr       6.85523680      -0.07204168      10.22798205       0.00019778       0.00108538       0.00090660      -8.72734229
Zr       8.57613325       1.63261928      12.15085230      -0.00184329      -0.00179028      -0.00015109      -8.71438085
Ti       6.82405417       3.37337984       0.01148209      -0.00009505      -0.00176092       0.00036693      -7.56952239
Zr       8.44338262       5.15316457       1.69500095      -0.00035568       0.00010559      -0.00068928      -8.80242208
Ti       6.86597585       3.41984187       3.51147932       0.00330208      -0.00430922       0.00194915      -7.70776810
Ti       8.54348783       5.18432137       5.06015287       0.00040217       0.00250210      -0.00150114      -7.54076326
Zr       6.86700569       3.44236722       6.61984844      -0.00083741       0.00012773       0.00161938      -8.74467315
Zr       8.50348612       5.19114979       8.56210276      -0.00017468      -0.00049168      -0.00298604      -8.74700614
Zr       6.85348017       3.40173926      10.41522353       0.00023632      -0.00449746      -0.00076156      -8.69756698
Ti       8.43914775       5.21284752      12.14842354      -0.00336819      -0.00092565       0.00196474      -7.52119415
Ti       6.86603651       7.03991673       0.08360106      -0.00262917       0.00196578       0.00291555      -7.70213155
Ti       8.60191769       8.58264237       1.76171151       0.00157530      -0.00178900      -0.00156230      -7.62915144
Zr       6.82619436       6.91127582       3.45787272       0.00007957      -0.00030750      -0.00098137      -8.85293123
Ti       8.54029021       8.61956676       5.10918613      -0.00192147       0.00217516       0.00002638      -7.59824211
Ti       6.84877123       6.90352209       6.70772061       0.00026651      -0.00097291      -0.00137956      -7.61353045
Zr       8.39580666       8.57143284       8.56550284      -0.00347105      -0.00087360       0.00081743      -8.75507938
Ti       6.83032219       6.96206467      10.42531540       0.00258761       0.00033261      -0.00177737      -7.57868645
Ti       8.45643254       8.64576053      12.07064464      -0.00077557       0.00221778       0.00063476      -7.68307877
Ti       6.83131150      10.15052933       0.11916214       0.00013243       0.00159461       0.00152057      -7.59648062
Zr       8.56315509      11.97481302       1.68589296      -0.00172882      -0.00163246      -0.00087040      -8.87899731
Zr       6.84501146      10.18709254       3.41846394      -0.00307741      -0.00044807      -0.00351322      -8.72604418
Zr       8.49458333      12.07174463       5.19250416      -0.00036350       0.00031141       0.00190216      -8.76752893
Ti       6.79093429      10.29928255       6.81613146      -0.00106400      -0.00086839       0.00045113      -7.64228370
Ti       8.48389487      12.01102392       8.44165497       0.00239215       0.00096078      -0.00105491      -7.61352298
Ti       6.82042267      10.30883307      10.26543225       0.00272759      -0.00098479       0.00050721      -7.67675270
Zr       8.51644927      11.94091083      12.16403335      -0.00357614       0.00095557       0.00158963      -8.77535320
Ti      10.24873199      -0.00737966       0.10213752      -0.00161093      -0.00027575       0.00344591      -7.49391802
Zr      11.97240701       1.67445172       1.69830753      -0.00019704      -0.00096019      -0.00138488      -8.56772585
Zr      10.30750348      -0.01347520       3.47475652      -0.00060211       0.00105551       0.00053925      -8.80765774
Ti      11.90939491       1.72019049       5.18629902       0.00024447      -0.00030864      -0.00241635      -7.48244152
Ti      10.38843138      -0.10680600       6.82687591      -0.00024313      -0.00017411      -0.00244234      -7.68072369
Ti      11.96048924       1.79328808       8.45263309      -0.00392812       0.00063038       0.00024652      -7.55881351
Zr      10.34022901      -0.04232817      10.20113305       0.00091608      -0.00108999       0.00120415      -8.79858402
Ti      12.02627887       1.70881110      12.10607911       0.00136454       0.00079828       0.00073391      -7.47272740
Zr      10.34153780       3.54426315      -0.00974780      -0.00098191       0.00279449      -0.00034330      -8.76215394
Ti      12.02321223       5.25296896       1.79253051      -0.00141263       0.00160747      -0.00121558      -7.56691245
Zr      10.17516015       3.38476656       3.44858471      -0.00231647       0.00267844       0.00020000      -8.81676423
Zr      11.99394391       5.20737208       5.01106076       0.00029873       0.00333805       0.00039076      -8.70929967
Ti      10.24982012       3.45221500       6.71522222      -0.00001489       0.00140590      -0.00028804      -7.56194639
Zr      11.98055382       5.06834216       8.52874709      -0.00284298      -0.00001498      -0.00339464      -8.68470614
Zr      10.32535820       3.41067732      10.41796183       0.00162825      -0.00061348       0.00057578      -8.78624396
Ti      12.10066349       5.18059436      12.04113501      -0.00083858       0.00076587       0.00018208      -7.46092211
Zr      10.26694555       6.88913436      -0.04890352       0.00049011      -0.00107934      -0.00215756      -8.88296469
Zr      11.99540676       8.58668680       1.80860306      -0.00006567      -0.00047571       0.00138003      -8.87525872
Ti      10.19795708       6.89377335       3.41006150      -0.00188448      -0.00077601       0.00095643      -7.58688271
Zr      12.06664439       8.64554094       5.02065626       0.00380307      -0.00078014      -0.00657976      -8.80258885
Zr      10.19068194       6.89657886       6.73943012      -0.00288964      -0.00296294      -0.00036364      -8.66849652
Zr      12.05810768       8.62601949       8.51314631      -0.00194209       0.00070218       0.00320368      -8.62165819
Zr      10.26453170       6.90290653      10.46634342      -0.00145130       0.00009249       0.00234325      -8.80060623
Ti      12.02433841       8.60082812      12.15442154      -0.00108161       0.00223558      -0.00120441      -7.48715310
Ti      10.24085178      10.17454901       0.03972889      -0.00279420       0.00025643       0.00095864      -7.58072559
Ti      11.92918824      11.94303782       1.72145051      -0.00109312      -0.00073353       0.00206424      -7.59480374
Ti      10.24621342      10.32168247       3.44774918      -0.00153664       0.00030072      -0.00072017      -7.60121016
Ti      12.04849744      11.92106628       5.11033963      -0.00139142       0.00117650       0.00093108      -7.59783431
Zr      10.27292748      10.35878003       6.83958870      -0.00286847       0.00271411       0.00302167      -8.74209162
Ti      12.03431828      11.99446830       8.48720430      -0.00185594      -0.00109666      -0.00167758      -7.46035980
Zr      10.22754133      10.29968600      10.30115558       0.00098746      -0.00094172      -0.00327122      -8.78574902
Zr      11.87761161      12.01562498      12.20154741       0.00249940      -0.00353801       0.00159102      -8.64137334
