128
Lattice="13.741702172831578 0.00653607600461701 0.004749562264646785 0.006536677497260221 13.749408265836344 -0.0004993543962336905 0.004751707390212231 -0.0004990692217182915 13.75052052119846" Properties=species:S:1:pos:R:3:forces:R:3:energies:R:1 energy=-1046.3105824385113 stress="0.00042253138748074505 -7.606090659653005e-05 -0.0001061199505133946 -7.606090659653005e-05 0.00027104571583796684 -2.1954349238445475e-05 -0.0001061199505133946 -2.1954349238445475e-05 -1.8603859621568407e-05" free_energy=-1046.3105824385113 pbc="T T T"
Zr      -0.02431039       0.01950803       0.07740617      -0.00050793       0.00254985      -0.00219636      -8.77692970
Zr       1.79543324       1.74635900       1.75537540      -0.00169556       0.00310696      -0.00240110      -8.66856470
Zr      -0.02190511      -0.02018189       3.48019112      -0.00203780       0.00003760       0.00162908      -8.81638261
Ti       1.71985702       1.80807285       5.21486508      -0.00049715       0.00130121       0.00045964      -7.61663076
Zr       0.06746724      -0.06022257       6.75861578      -0.00042440      -0.00028281       0.00171398      -8.75667853
Zr       1.69111773       1.78260370       8.46105197       0.00012281       0.00205824       0.00149774      -8.76412532
Ti       0.15120005       0.02250813      10.29567302      -0.00162323       0.00070963       0.00012007      -7.55134742
Ti       1.73053858       1.72580868      12.06785614      -0.00078744       0.00074382      -0.00150714      -7.59807815
Zr       0.03703471       3.38490610       0.04713858       0.00310394       0.00088281      -0.00264825      -8.63961022
Ti       1.68017910       5.18920029       1.73861381      -0.00032005      -0.00060874       0.00166272      -7.69926147
Ti       0.03259537       3.43867986       3.47133503      -0.00025814       0.00098270      -0.00005678      -7.61524919
Zr       1.68583040       5.12982515       5.21088071      -0.00033483       0.00003893      -0.00270627      -8.88152604
Ti      -0.07493854       3.50662042       6.85763444       0.00061892       0.00223727      -0.00027487      -7.52603584
Zr       1.77001039       5.14571007       8.48814901      -0.00283964      -0.00026060       0.00204511      -8.82629799
Ti       0.11132278       3.44625327      10.26518481      -0.00066230       0.00141665      -0.00065063      -7.46775888
Zr       1.80201658       5.19443385      12.08503860      -0.00390670      -0.00033882       0.00163225      -8.79982844
Ti       0.06854374       6.86777948      -0.02206889       0.00070278      -0.00132961       0.00024350      -7.57317800
Zr       1.77381333       8.49700132       1.80798975      -0.00288623       0.00243097       0.00169693      -8.84808286
Ti       0.05187857       6.81774686       3.52100120      -0.00059971       0.00057570      -0.00148828      -7.52937926
Ti       1.76591633       8.53130634       5.12413771      -0.00006725      -0.00240330      -0.00100023      -7.71929719
Ti      -0.01704963       6.77037168       6.83401165      -0.00191293       0.00191061      -0.00010464      -7.56682328
Zr       1.83990404       8.57258855       8.52058833      -0.00038529      -0.00203290       0.00201090      -8.82244983
Zr       0.01526082       6.88028836      10.30651334       0.00210193      -0.00057367      -0.00115688      -8.70339589
Ti       1.80063222       8.49834565      12.04458321      -0.00112197       0.00011137       0.00015197      -7.59744104
Zr       0.03297989      10.31945768      -0.04732397       0.00144825      -0.00312534       0.00164654      -8.76639810
Zr       1.86477840      12.03360119       1.72097138       0.00196148      -0.00314123       0.00207596      -8.63357648
Zr       0.05105604      10.41473306       3.52191303       0.00101488      -0.00298220      -0.00419118      -8.77202865
Ti       1.88046024      12.03023295       5.17472117       0.00156378      -0.00064160      -0.00007496      -7.48765730
Zr       0.10430911      10.39847555       6.76964910      -0.00329650      -0.00364589       0.00352217      -8.71149632
Ti       1.81277827      12.01030803       8.54432947       0.00046307      -0.00128355      -0.00128885      -7.60667083
Zr       0.11300721      10.29239898      10.36648824      -0.00076580       0.00006717       0.00033251      -8.80939989
Ti       1.76849459      12.07024251      12.03260475       0.00041346       0.00023779       0.00017935      -7.53543890
Ti       3.43414040      -0.00275762      -0.04357718       0.00097701       0.00007966      -0.00208648      -7.49845889
Zr       5.16890757       1.69770256       1.64454259      -0.00291267       0.00112191       0.00333393      -8.75704727
Zr       3.49908672       0.02393797       3.56464963      -0.00025996      -0.00100075       0.00145258      -8.75714903
Ti       5.12936715       1.63654166       5.25734363      -0.00141252       0.00073537       0.00157816      -7.58721429
Ti       3.38565436       0.02390846       6.82638340       0.00026253       0.00103696      -0.00069710      -7.66448253
Ti       5.14408327       1.62885723       8.46948909      -0.00238901       0.00035730       0.00131544      -7.60317020
Zr       3.35054230       0.04935989      10.29299153       0.00141837       0.00311603       0.00301036      -8.73877091
Zr       5.23657948       1.68827076      12.15260017      -0.00325071       0.00033104      -0.00333333      -8.81116373
Ti       3.42427254       3.49428737       0.05285181       0.00005007      -0.00016149       0.00015495      -7.55196552
Ti       5.18065670       5.16767951       1.68570707       0.00068306      -0.00030164       0.00138053      -7.67577397
Zr       3.50919451       3.50726180       3.47523895      -0.00023650       0.00024077       0.00067650      -8.80295360
Ti       5.13131838       5.18949734       5.22357063      -0.00034857      -0.00200476      -0.00303144      -7.59283443
Ti       3.51904188       3.42276739       6.81908618      -0.00042904       0.00104215       0.00012951      -7.61380881
Zr       5.15184633       5.27214253       8.56754942       0.00023466      -0.00285583       0.00204099      -8.86014563
Zr       3.47189259       3.35127702      10.28293501       0.00281352      -0.00131376      -0.00035568      -8.66468175
Zr       5.13734496       5.14377206      12.03247305       0.00037096       0.00061481      -0.00011047      -8.80085610
Ti       3.46363100       6.85089275       0.05136516       0.00015871      -0.00125343       0.00040809      -7.59689762
Zr       5.08944512       8.54354136       1.85828786      -0.00012862       0.00229824       0.00247490      -8.74940488
Ti       3.43265219       6.73757305       3.47445779       0.00069027      -0.00059795      -0.00067326      -7.60022727
Zr       5.09424832       8.54964919       5.10398924       0.00184394       0.00007607      -0.00177896      -8.85315814
Ti       3.42836698       6.87324966       6.77769679       0.00218149       0.00348787       0.00025025      -7.46133408
Zr       5.08127318       8.55390610       8.54331910       0.00060258      -0.00090311      -0.00149984      -8.84246014
Ti       3.43575740       6.91374756      10.34650584       0.00196326       0.00288728      -0.00188032      -7.46121984
Ti       5.09849882       8.50458441      11.99662582       0.00049701      -0.00023352       0.00003171      -7.60302293
Zr       3.46989908      10.25548580      -0.09572410       0.00185452       0.00141566       0.00055919      -8.77223207
Ti       5.08813187      12.09568036       1.71010109      -0.00001097       0.00076492       0.00148832      -7.61252671
Ti       3.48102054      10.38206088       3.52162313       0.00128388      -0.00157192      -0.00145909      -7.58375222
Ti       5.12163641      12.10594041       5.22241998       0.00023851      -0.00106532      -0.00134564      -7.62158444
Ti       3.41399037      10.31565958       6.76645509       0.00021494      -0.00173016       0.00015732      -7.61427457
Zr       5.11712751      12.06396804       8.52698182       0.00017480      -0.00198842      -0.00273314      -8.89612736
Ti       3.41549573      10.30726990      10.39113245       0.00178698      -0.00055320      -0.00076678      -7.62407733
Zr       5.20477129      12.14477549      12.00429713      -0.00448562       0.00157417       0.00130046      -8.71758171
Ti       6.88655411      -0.03468593       0.14038949       0.00156678      -0.00284189      -0.00189204      -7.51745798
Zr       8.56230114       1.64884543       1.81325726       0.00302596       0.00144764       0.00035227      -8.86075841
Ti       6.80499918      -0.02138768       3.48080551       0.00020108      -0.00012973       0.00084862      -7.71914367
Ti       8.64897319       1.69899252       5.16700288       0.00127100       0.00118216      -0.00000190      -7.73909265
Ti       6.88118078       0.07973852       6.77304397      -0.00072977       0.00145244      -0.00064941      -7.71366712
Ti       8.60282745       1.70721939       8.41039669       0.00231123      -0.00131990       0.00069931      -7.60414603
Ti       6.90983412       0.15645631      10.22625140      -0.00156012       0.00111455       0.00037896      -7.51793807
Ti       8.48494112       1.68417534      12.14934305       0.00138973      -0.00142723      -0.00136832      -7.61896101
Ti       6.90335808       3.45888488       0.02556092       0.00081051      -0.00076334       0.00045801      -7.50928825
Zr       8.51651394       5.11170181       1.79144145      -0.00205596      -0.00378797      -0.00237222      -8.69162982
Zr       6.76284749       3.39175046       3.57515420       0.00045146       0.00002598      -0.00044397      -8.75448241
Zr       8.59680006       5.11488645       5.24378121      -0.00005629      -0.00264960       0.00045930      -8.76288905
Zr       6.82660355       3.34952312       6.86780915       0.00016039       0.00090488      -0.00004480      -8.78251847
Ti       8.54652809       5.16570765       8.50096886       0.00100215      -0.00032013      -0.00051976      -7.65149021
Zr       6.96621061       3.35212176      10.21636099      -0.00024486       0.00038274      -0.00017475      -8.86922285
Ti       8.53108943       5.11663356      12.00140695      -0.00109192       0.00086197       0.00136250      -7.55380402
Zr       6.85551305       6.89276205      -0.03215491       0.00217196      -0.00292403       0.00056722      -8.75414923
Zr       8.57389151       8.58781773       1.87475657       0.00010440      -0.00048192      -0.00201886      -8.66262862
Ti       6.81256376       6.78068805       3.52581932       0.00031118      -0.00049695       0.00073240      -7.53329050
Ti       8.56640678       8.49762195       5.12169322       0.00009049       0.00087589      -0.00084788      -7.57681849
Ti       6.83637601       6.83864627       6.78306393       0.00152018       0.00012305      -0.00001879      -7.53411456
Zr       8.54838128       8.45118609       8.48915491      -0.00098810       0.00117250      -0.00097962      -8.73536433
Ti       6.90161487       6.86616064      10.34779196       0.00179429      -0.00074240      -0.00026014      -7.59346977
Ti       8.55582513       8.51987726      12.01084138      -0.00101345      -0.00021045      -0.00014208      -7.39470891
Zr       6.85944291      10.33321556       0.05799669      -0.00044244      -0.00090854       0.00001816      -8.76166966
Ti       8.67666788      12.15216181       1.81265352      -0.00205603       0.00283803       0.00052484      -7.67436532
Zr       6.88428049      10.50465291       3.49533647      -0.00139557       0.00069109       0.00028712      -8.83985789
Ti       8.63351329      12.23540180       5.09552012       0.00003725      -0.00013820      -0.00046474      -7.66124602
Zr       6.92237225      10.36389913       6.72066834      -0.00133782       0.00259203       0.00158951      -8.66815246
Zr       8.52419741      12.18090188       8.52174069       0.00344937      -0.00129236      -0.00129133      -8.70381659
Zr       6.85223867      10.22996450      10.35723066      -0.00053528      -0.00023803       0.00011016      -8.70233693
Zr       8.54173709      12.18753691      12.07526637      -0.00285460       0.00134008       0.00131642      -8.70179394
Ti      10.32181073       0.07060277       0.09015167       0.00107196      -0.00106382       0.00029504      -7.59691824
Ti      11.96869038       1.75548835       1.83751700       0.00094833       0.00005218      -0.00124886      -7.59158861
Ti      10.35857488       0.03823088       3.46976415       0.00126270      -0.00004238       0.00127110      -7.70831685
Zr      11.95932821       1.83175771       5.16829539       0.00071696       0.00076348      -0.00138886      -8.87702725
Ti      10.28517177       0.07215661       6.80257791      -0.00046883      -0.00210348      -0.00132274      -7.58333138
Zr      12.04343263       1.80434551       8.58369364      -0.00198012      -0.00232276      -0.00012395      -8.85757186
Zr      10.14653268       0.20551187      10.27861914       0.00205980      -0.00149180      -0.00046300      -8.57459359
Zr      12.05390521       1.74194964      11.92583049       0.00313438      -0.00101525       0.00151559      -8.72111880
Zr      10.25459976       3.38385470      -0.00342550      -0.00253987      -0.00074978       0.00191830      -8.75629662
Zr      12.12101557       5.14970075       1.80347095       0.00155626       0.00010975      -0.00004679      -8.81195401
Ti      10.28395281       3.42951740       3.48859285       0.00214097      -0.00206762      -0.00054043      -7.53324765
Ti      12.04923511       5.08697148       5.14444182       0.00009803       0.00041104      -0.00002886      -7.69975604
Ti      10.30999763       3.50344554       6.90773317       0.00004873       0.00010792      -0.00044283      -7.69762591
Ti      12.02128524       5.08162117       8.63267059      -0.00080736       0.00091622      -0.00014406      -7.73402024
Ti      10.14444147       3.41108185      10.25436284      -0.00005096       0.00037358       0.00156837      -7.65325607
Zr      12.05966174       5.03266050      11.94510587      -0.00000702      -0.00020596       0.00085333      -8.67058904
Zr      10.28386803       6.85945583      -0.07655641      -0.00182355      -0.00002043      -0.00003856      -8.72495744
Zr      12.07939989       8.56735010       1.80165965       0.00112200       0.00440369       0.00015531      -8.71043402
Zr      10.32984533       6.80357497       3.54737078      -0.00410329       0.00293300      -0.00014734      -8.56845186
Zr      12.06727582       8.54587171       5.17959103       0.00169809      -0.00084509       0.00037063      -8.72786632
Ti      10.36375710       6.72959903       6.84344112      -0.00090145       0.00198861      -0.00121150      -7.58561447
Zr      12.03260033       8.53562765       8.46393543       0.00095060       0.00234348      -0.00204122      -8.66033585
Zr      10.28012005       6.79407539      10.31853450      -0.00267637       0.00060347      -0.00007855      -8.79354854
Ti      12.09149882       8.53724133      12.07738936      -0.00017665       0.00137601       0.00186054      -7.42716196
Zr      10.29716634      10.32805337       0.02267191      -0.00128109      -0.00048176       0.00125240      -8.79651695
Ti      11.90906337      12.06880142       1.79829004       0.00192353      -0.00134821      -0.00011473      -7.61156113
Ti      10.24953059      10.38236403       3.52447932      -0.00114666       0.00030420      -0.00027890      -7.65939941
Ti      11.92877020      12.09753482       5.12299081       0.00185642      -0.00133951       0.00051734      -7.50454654
Zr      10.20984084      10.36823034       6.71872003       0.00012264       0.00115133       0.00347014      -8.73820888
Zr      12.01383094      12.12736782       8.60923646       0.00032994      -0.00279044      -0.00168868      -8.74946957
Zr      10.27598158      10.23262969      10.36086971       0.00211640       0.00172684       0.00016829      -8.71326655
Zr      12.00661413      12.16774933      11.98629363      -0.00152306      -0.00040286      -0.00094635      -8.63038054
