256
Lattice="14.27790012571877 0.0 0.0 0.0 14.27790012571877 0.0 0.0 0.0 14.27790012571877" Properties=species:S:1:pos:R:3 pbc="T T T"
Ni       0.00000000       0.00000000       0.00000000
Ni       0.00000000       1.78473752       1.78473752
Ni       1.78473752       0.00000000       1.78473752
Cu       1.78473752       1.78473752       0.00000000
Ni       0.00000000       0.00000000       3.56947503
Cu       0.00000000       1.78473752       5.35421255
Cu       1.78473752       0.00000000       5.35421255
Ni       1.78473752       1.78473752       3.56947503
Ni       0.00000000       0.00000000       7.13895006
Cu       0.00000000       1.78473752       8.92368758
Ni       1.78473752       0.00000000       8.92368758
Ni       1.78473752       1.78473752       7.13895006
Ni       0.00000000       0.00000000      10.70842509
Ni       0.00000000       1.78473752      12.49316261
Cu       1.78473752       0.00000000      12.49316261
Ni       1.78473752       1.78473752      10.70842509
Cu       0.00000000       3.56947503       0.00000000
Ni       0.00000000       5.35421255       1.78473752
Ni       1.78473752       3.56947503       1.78473752
Cu       1.78473752       5.35421255       0.00000000
Cu       0.00000000       3.56947503       3.56947503
Cu       0.00000000       5.35421255       5.35421255
Ni       1.78473752       3.56947503       5.35421255
Ni       1.78473752       5.35421255       3.56947503
Cu       0.00000000       3.56947503       7.13895006
Ni       0.00000000       5.35421255       8.92368758
Cu       1.78473752       3.56947503       8.92368758
Ni       1.78473752       5.35421255       7.13895006
Cu       0.00000000       3.56947503      10.70842509
Ni       0.00000000       5.35421255      12.49316261
Cu       1.78473752       3.56947503      12.49316261
Cu       1.78473752       5.35421255      10.70842509
Cu       0.00000000       7.13895006       0.00000000
Ni       0.00000000       8.92368758       1.78473752
Ni       1.78473752       7.13895006       1.78473752
Cu       1.78473752       8.92368758       0.00000000
Cu       0.00000000       7.13895006       3.56947503
Cu       0.00000000       8.92368758       5.35421255
Ni       1.78473752       7.13895006       5.35421255
Cu       1.78473752       8.92368758       3.56947503
Ni       0.00000000       7.13895006       7.13895006
Cu       0.00000000       8.92368758       8.92368758
Ni       1.78473752       7.13895006       8.92368758
Cu       1.78473752       8.92368758       7.13895006
Ni       0.00000000       7.13895006      10.70842509
Cu       0.00000000       8.92368758      12.49316261
Cu       1.78473752       7.13895006      12.49316261
Cu       1.78473752       8.92368758      10.70842509
Ni       0.00000000      10.70842509       0.00000000
Cu       0.00000000      12.49316261       1.78473752
Ni       1.78473752      10.70842509       1.78473752
Cu       1.78473752      12.49316261       0.00000000
Ni       0.00000000      10.70842509       3.56947503
Ni       0.00000000      12.49316261       5.35421255
Cu       1.78473752      10.70842509       5.35421255
Ni       1.78473752      12.49316261       3.56947503
Ni       0.00000000      10.70842509       7.13895006
Ni       0.00000000      12.49316261       8.92368758
Cu       1.78473752      10.70842509       8.92368758
Ni       1.78473752      12.49316261       7.13895006
Ni       0.00000000      10.70842509      10.70842509
Cu       0.00000000      12.49316261      12.49316261
Cu       1.78473752      10.70842509      12.49316261
Ni       1.78473752      12.49316261      10.70842509
Ni       3.56947503       0.00000000       0.00000000
Ni       3.56947503       1.78473752       1.78473752
Cu       5.35421255       0.00000000       1.78473752
Ni       5.35421255       1.78473752       0.00000000
Cu       3.56947503       0.00000000       3.56947503
Cu       3.56947503       1.78473752       5.35421255
Cu       5.35421255       0.00000000       5.35421255
Ni       5.35421255       1.78473752       3.56947503
Ni       3.56947503       0.00000000       7.13895006
Ni       3.56947503       1.78473752       8.92368758
Cu       5.35421255       0.00000000       8.92368758
Ni       5.35421255       1.78473752       7.13895006
Cu       3.56947503       0.00000000      10.70842509
Ni       3.56947503       1.78473752      12.49316261
Cu       5.35421255       0.00000000      12.49316261
Cu       5.35421255       1.78473752      10.70842509
Cu       3.56947503       3.56947503       0.00000000
Cu       3.56947503       5.35421255       1.78473752
Cu       5.35421255       3.56947503       1.78473752
Ni       5.35421255       5.35421255       0.00000000
Ni       3.56947503       3.56947503       3.56947503
Ni       3.56947503       5.35421255       5.35421255
Ni       5.35421255       3.56947503       5.35421255
Ni       5.35421255       5.35421255       3.56947503
Cu       3.56947503       3.56947503       7.13895006
Cu       3.56947503       5.35421255       8.92368758
Cu       5.35421255       3.56947503       8.92368758
Ni       5.35421255       5.35421255       7.13895006
Ni       3.56947503       3.56947503      10.70842509
Cu       3.56947503       5.35421255      12.49316261
Ni       5.35421255       3.56947503      12.49316261
Cu       5.35421255       5.35421255      10.70842509
Cu       3.56947503       7.13895006       0.00000000
Cu       3.56947503       8.92368758       1.78473752
Ni       5.35421255       7.13895006       1.78473752
Cu       5.35421255       8.92368758       0.00000000
Ni       3.56947503       7.13895006       3.56947503
Ni       3.56947503       8.92368758       5.35421255
Ni       5.35421255       7.13895006       5.35421255
Cu       5.35421255       8.92368758       3.56947503
Ni       3.56947503       7.13895006       7.13895006
Cu       3.56947503       8.92368758       8.92368758
Ni       5.35421255       7.13895006       8.92368758
Ni       5.35421255       8.92368758       7.13895006
Cu       3.56947503       7.13895006      10.70842509
Ni       3.56947503       8.92368758      12.49316261
Cu       5.35421255       7.13895006      12.49316261
Cu       5.35421255       8.92368758      10.70842509
Ni       3.56947503      10.70842509       0.00000000
Cu       3.56947503      12.49316261       1.78473752
Cu       5.35421255      10.70842509       1.78473752
Cu       5.35421255      12.49316261       0.00000000
Ni       3.56947503      10.70842509       3.56947503
Ni       3.56947503      12.49316261       5.35421255
Ni       5.35421255      10.70842509       5.35421255
Ni       5.35421255      12.49316261       3.56947503
Cu       3.56947503      10.70842509       7.13895006
Ni       3.56947503      12.49316261       8.92368758
Ni       5.35421255      10.70842509       8.92368758
Cu       5.35421255      12.49316261       7.13895006
Cu       3.56947503      10.70842509      10.70842509
Ni       3.56947503      12.49316261      12.49316261
Ni       5.35421255      10.70842509      12.49316261
Ni       5.35421255      12.49316261      10.70842509
Ni       7.13895006       0.00000000       0.00000000
Ni       7.13895006       1.78473752       1.78473752
Ni       8.92368758       0.00000000       1.78473752
Cu       8.92368758       1.78473752       0.00000000
Ni       7.13895006       0.00000000       3.56947503
Cu       7.13895006       1.78473752       5.35421255
Cu       8.92368758       0.00000000       5.35421255
Cu       8.92368758       1.78473752       3.56947503
Cu       7.13895006       0.00000000       7.13895006
Ni       7.13895006       1.78473752       8.92368758
Ni       8.92368758       0.00000000       8.92368758
Cu       8.92368758       1.78473752       7.13895006
Ni       7.13895006       0.00000000      10.70842509
Cu       7.13895006       1.78473752      12.49316261
Ni       8.92368758       0.00000000      12.49316261
Cu       8.92368758       1.78473752      10.70842509
Cu       7.13895006       3.56947503       0.00000000
Cu       7.13895006       5.35421255       1.78473752
Cu       8.92368758       3.56947503       1.78473752
Cu       8.92368758       5.35421255       0.00000000
Cu       7.13895006       3.56947503       3.56947503
Cu       7.13895006       5.35421255       5.35421255
Ni       8.92368758       3.56947503       5.35421255
Cu       8.92368758       5.35421255       3.56947503
Ni       7.13895006       3.56947503       7.13895006
Ni       7.13895006       5.35421255       8.92368758
Ni       8.92368758       3.56947503       8.92368758
Cu       8.92368758       5.35421255       7.13895006
Cu       7.13895006       3.56947503      10.70842509
Cu       7.13895006       5.35421255      12.49316261
Cu       8.92368758       3.56947503      12.49316261
Cu       8.92368758       5.35421255      10.70842509
Cu       7.13895006       7.13895006       0.00000000
Ni       7.13895006       8.92368758       1.78473752
Cu       8.92368758       7.13895006       1.78473752
Ni       8.92368758       8.92368758       0.00000000
Cu       7.13895006       7.13895006       3.56947503
Ni       7.13895006       8.92368758       5.35421255
Ni       8.92368758       7.13895006       5.35421255
Cu       8.92368758       8.92368758       3.56947503
Ni       7.13895006       7.13895006       7.13895006
Ni       7.13895006       8.92368758       8.92368758
Ni       8.92368758       7.13895006       8.92368758
Cu       8.92368758       8.92368758       7.13895006
Cu       7.13895006       7.13895006      10.70842509
Ni       7.13895006       8.92368758      12.49316261
Cu       8.92368758       7.13895006      12.49316261
Ni       8.92368758       8.92368758      10.70842509
Cu       7.13895006      10.70842509       0.00000000
Cu       7.13895006      12.49316261       1.78473752
Ni       8.92368758      10.70842509       1.78473752
Cu       8.92368758      12.49316261       0.00000000
Ni       7.13895006      10.70842509       3.56947503
Ni       7.13895006      12.49316261       5.35421255
Ni       8.92368758      10.70842509       5.35421255
Ni       8.92368758      12.49316261       3.56947503
Ni       7.13895006      10.70842509       7.13895006
Cu       7.13895006      12.49316261       8.92368758
Ni       8.92368758      10.70842509       8.92368758
Ni       8.92368758      12.49316261       7.13895006
Cu       7.13895006      10.70842509      10.70842509
Ni       7.13895006      12.49316261      12.49316261
Cu       8.92368758      10.70842509      12.49316261
Ni       8.92368758      12.49316261      10.70842509
Ni      10.70842509       0.00000000       0.00000000
Ni      10.70842509       1.78473752       1.78473752
Ni      12.49316261       0.00000000       1.78473752
Cu      12.49316261       1.78473752       0.00000000
Cu      10.70842509       0.00000000       3.56947503
Cu      10.70842509       1.78473752       5.35421255
Cu      12.49316261       0.00000000       5.35421255
Ni      12.49316261       1.78473752       3.56947503
Cu      10.70842509       0.00000000       7.13895006
Cu      10.70842509       1.78473752       8.92368758
Cu      12.49316261       0.00000000       8.92368758
Ni      12.49316261       1.78473752       7.13895006
Cu      10.70842509       0.00000000      10.70842509
Ni      10.70842509       1.78473752      12.49316261
Cu      12.49316261       0.00000000      12.49316261
Cu      12.49316261       1.78473752      10.70842509
Ni      10.70842509       3.56947503       0.00000000
Cu      10.70842509       5.35421255       1.78473752
Ni      12.49316261       3.56947503       1.78473752
Cu      12.49316261       5.35421255       0.00000000
Cu      10.70842509       3.56947503       3.56947503
Cu      10.70842509       5.35421255       5.35421255
Ni      12.49316261       3.56947503       5.35421255
Cu      12.49316261       5.35421255       3.56947503
Cu      10.70842509       3.56947503       7.13895006
Cu      10.70842509       5.35421255       8.92368758
Ni      12.49316261       3.56947503       8.92368758
Ni      12.49316261       5.35421255       7.13895006
Cu      10.70842509       3.56947503      10.70842509
Ni      10.70842509       5.35421255      12.49316261
Ni      12.49316261       3.56947503      12.49316261
Ni      12.49316261       5.35421255      10.70842509
Cu      10.70842509       7.13895006       0.00000000
Ni      10.70842509       8.92368758       1.78473752
Cu      12.49316261       7.13895006       1.78473752
Ni      12.49316261       8.92368758       0.00000000
Ni      10.70842509       7.13895006       3.56947503
Ni      10.70842509       8.92368758       5.35421255
Cu      12.49316261       7.13895006       5.35421255
Ni      12.49316261       8.92368758       3.56947503
Cu      10.70842509       7.13895006       7.13895006
Cu      10.70842509       8.92368758       8.92368758
Cu      12.49316261       7.13895006       8.92368758
Cu      12.49316261       8.92368758       7.13895006
Cu      10.70842509       7.13895006      10.70842509
Ni      10.70842509       8.92368758      12.49316261
Cu      12.49316261       7.13895006      12.49316261
Ni      12.49316261       8.92368758      10.70842509
Cu      10.70842509      10.70842509       0.00000000
Ni      10.70842509      12.49316261       1.78473752
Cu      12.49316261      10.70842509       1.78473752
Ni      12.49316261      12.49316261       0.00000000
Ni      10.70842509      10.70842509       3.56947503
Ni      10.70842509      12.49316261       5.35421255
Ni      12.49316261      10.70842509       5.35421255
Ni      12.49316261      12.49316261       3.56947503
Cu      10.70842509      10.70842509       7.13895006
Ni      10.70842509      12.49316261       8.92368758
Cu      12.49316261      10.70842509       8.92368758
Cu      12.49316261      12.49316261       7.13895006
Cu      10.70842509      10.70842509      10.70842509
Cu      10.70842509      12.49316261      12.49316261
Ni      12.49316261      10.70842509      12.49316261
Cu      12.49316261      12.49316261      10.70842509
