Nb Ti
 1.0000000000000000
    13.1608287143029035   -0.0108645552102078    0.0102548550801231
    -0.0110493238123256   13.1648645479481807    0.0042873279477597
     0.0105478579446106    0.0044402759725100   13.1712550700640509
 Nb  Ti 
  64  64
Direct
  0.8746903794743336  0.1248999943703746  0.8756762008121892
  0.2498638022826525  0.7515927661468983  0.2509455583893809
  0.7499353967617602  0.0007807494021362  0.0006743718659135
  0.3735588307513860  0.6244918231970257  0.8750777823197949
  0.3747533543689982  0.6240536586216419  0.6249661328537780
  0.8757365551274146  0.1260030058341772  0.3738064304532860
  0.3761716164203899  0.6245578452804623  0.3747586478301559
  0.2491398894658265  0.4994190001476145  0.2499314177723131
  0.3756092587944429  0.6268811945875818  0.1259388226402910
  0.2487111211753865  0.5000895751178077 -0.0010905987652538
  0.7515257957139923 -0.0009958673537226  0.5007058869032931
  0.8745398013484633  0.1258246538907293  0.6260198034020862
  0.2484921633474493  0.2489057362820815  0.5020101184878696
  0.3747236706462861  0.3742021322808433  0.3773596479123095
  0.6238578879068758  0.6248714723192048  0.3748450586203614
  0.3751287092139542  0.3734713089006877  0.1235243829700102
  0.5002005784781733  0.7506738230846364  0.7496102093668844
  0.3741704467665812  0.1253874109910126  0.8733542208507064
  0.3729139262272562  0.8775763185061192  0.6281006715187943
  0.6263063085981760  0.8756971738279756  0.6244501510942522
  0.6245192026240109  0.6257884748766454  0.1263853738166592
  0.5001601351025847  0.4984449939936192 -0.0001088056413666
  0.6252817218007828  0.3728342948944355  0.8750011705308395
  0.4989671649680224  0.4974632813733742  0.7494735629439370
  0.6261215625940288  0.6249975948177896  0.8745027875617247
  0.5002398856975168  0.7517561669149752 -0.0004924612516375
  0.6269182951231353  0.3751440470896532  0.3749479842208306
  0.5009729958656858  0.2507366645323514  0.2505751909489757
  0.4994147153257538  0.2491633741776824 -0.0035409086210939
  0.5001565245250358  0.7507910601325182  0.5014007537397474
  0.5001932838040798  0.0009215264461802  0.5013036847554074
  0.6259909312740790  0.1254818839564610  0.3763386636552460
  0.5004273120310329 -0.0003887598185702  0.2494418185435569
  0.6254484437380585  0.1255978404325737  0.1233779931429124
  0.5003792456643464 -0.0003737481816255 -0.0007247011934390
  0.2459497455704114  0.7492955872922937  0.7490123433652155
  0.8752914296460439  0.3735541564144791  0.1249723094196599
  0.5020222629248042  0.4980031727967297  0.5022873102322917
  0.2502436265981038 -0.0006759837579825  0.5004982396113078
  0.1241191572308038  0.1243616422705034  0.1227522767029318
  0.8765862201655809  0.8736434620832809  0.6283410931829564
  0.1230591529862888  0.1262284785346288  0.3758777540181630
  0.8758605093780130  0.8749854202131065  0.3765793693596615
  0.7520525036878187  0.7503087278251684  0.2517827703846645
  0.8758765114028429  0.8762363637214990  0.1228455930774549
  0.7507310715271249  0.7519476071376885 -0.0022241740956465
  0.8728041062175771  0.6234890248437311  0.8738711791115663
  0.1243150635694646  0.3749788870621217  0.3741977680455421
  0.1244648064445509  0.3736983966326420  0.6256100576622839
  0.0001669993919568  0.2513638018102659  0.7493028147958330
  0.0004100479814740  0.4978887082065496 -0.0022675399570748
  0.1248952755503413  0.6250025819287268  0.1230190219073963
  0.1254833039289655  0.6248309329062622  0.3778330929975499
  0.7520674718456412  0.4994246203157762  0.2515587339481352
 -0.0010107345726837  0.4995736277407964  0.2498939008812609
  0.3749409935521804  0.1256358929445419  0.3757973963637158
  0.2486781431014032  0.0000871225723665  0.2508448929568710
  0.8755889206730694  0.3749077018468465  0.8708087960660079
  0.1250238547243191  0.8755735704190774  0.1258102526019495
 -0.0009944517197504  0.7496961576124598  0.2497544400416363
  0.2500012140015021  0.0009756458780942 -0.0012462828368262
  0.0007119389361020  0.7483581935048926  0.5044110038739936
  0.1232732128809518  0.8756723046675559  0.8740018218070835
  0.7499803307851021  0.2517137494423564  0.5000469473840361
  0.8744994256823747  0.6257762387137379  0.1281693535038712
  0.6188031390176777  0.6254545802842129  0.6247135425450483
  0.7523606165612756  0.2486407022123193 -0.0023449612932159
  0.7524705765698748  0.7557168392240657  0.5013974691272687
  0.8737198223616957  0.3756170641948473  0.3720839054618839
  0.7553368647267973  0.0003089203634179  0.7484927399120441
  0.6268515897226450  0.8751139655700012  0.1215314006686230
  0.7508296793506531  0.5002309312049711  0.7547342818521829
  0.6253554478644207  0.8775517351127690  0.3776954908219570
  0.7519630309750288  0.0015206780511960  0.2506112926131481
  0.8782468330560896  0.3710981007983494  0.6288911347233699
  0.8784160731581035  0.6296244085406140  0.6265163297081496
  0.7551414675941326  0.2482887830541049  0.7510475710647689
  0.7454890106653387  0.4968537906704232  0.4962174013275204
  0.7500393055170140  0.2490194590852964  0.2509066531588309
  0.6251314047877639  0.8736884876077778  0.8774923511454786
  0.8753380996875477  0.6271018764400639  0.3719944490617790
  0.7506681872521728  0.5001959810158236 -0.0046261846238773
  0.8740172923191954  0.1236102085268062  0.1219016861557364
  0.5008476577718818  0.7462959333359483  0.2513429310137824
  0.0012352071932938 -0.0008919549400768  0.0000373728418410
  0.3745605300417305  0.8742481294225093  0.8736277739970291
  0.5003903544316655  0.2523008778145950  0.7538240630836731
  0.1246677568852889  0.8720480926865241  0.6278912009575254
  0.1245746038651286  0.8735997909887906  0.3730646897773381
  0.0002970713327784  0.7519300224949687  0.0012233172078607
  0.1252149632922923  0.6233015468223208  0.8785306281749603
 -0.0010615934074304  0.4988528067877630  0.7534814403118174
  0.1248859055884921  0.6272327287271525  0.6229468844907214
  0.0041633553365770  0.5004768380060062  0.4976900722208631
  0.1218414672364400  0.3759769859797395  0.8734997109668068
  0.0008871630919914  0.2492449949280994  0.5003069997646337
 -0.0004844802532415  0.2498949098923215  0.2497133940044187
  0.1238254050464848  0.3794155108581370  0.1246431787221103
 -0.0038917153004184  0.2512661092004447 -0.0031135158356387
  0.1264555094091528  0.1237815288160813  0.8766284992317644
 -0.0029565554851379  0.0016646063486618  0.7509243241985609
  0.1258653160570037  0.1268588260380858  0.6228192097409618
 -0.0039178632932697  0.0008951049105023  0.4999079491275829
  0.0004020514594804  0.0004768507409566  0.2483905736546586
  0.0009792452751424  0.7497001520061523  0.7498849953954653
  0.3781463866145827  0.1226940719751707  0.1244435951747475
  0.3719059213833307  0.1208857489871857  0.6231394713839328
  0.2492865309434265 -0.0022141405189644  0.7512454904914508
  0.6240479959537343  0.3762684330658569  0.6248820889344060
  0.5005561510053400  0.2502398509463191  0.4948944040815446
  0.6228336967435877  0.3731772596246936  0.1236692842664916
  0.6229679936071346  0.1246906192512535  0.8796969698251329
  0.4978695343365221 -0.0036635714410670  0.7479316256959325
  0.6286688156074380  0.1215789630100228  0.6194608547260412
  0.7511432872754537  0.7494679583241793  0.7519697809232956
  0.2511332563111068  0.7497128107780457  0.5017339885235517
  0.4988269021393588  0.5010154126865435  0.2510627656542183
  0.3752201690708154  0.8785715699070419  0.3764893778701345
  0.2481116085743956  0.7504123274810960  0.0005125515852900
  0.2507643403743947  0.5031446562004412  0.7502250172303323
  0.2486202654269322  0.4987804587680284  0.4979284551791388
  0.3781078138716278  0.3753132847132256  0.8763479901215850
  0.2459346458131740  0.2505388110869466  0.7465929132411383
  0.3747707818009325  0.3776315701543962  0.6242714992474672
  0.2489968550563169  0.2499082027444653  0.2534530587370788
  0.2518470807848477  0.2477925327250009 -0.0003699778905409
  0.3744388483668520  0.8771833216841987  0.1250097634997253
  0.8745282956550993  0.8753846810567091  0.8761972261919253
