Al Nb Ti V 
 1.0000000000000000
    12.8376222950725509    0.0139492968954842   -0.0221981523612890
     0.0146453159051584   12.7018690144749336    0.0036004363943248
    -0.0222284024919836    0.0035612311235519   12.7872121107753856
 Al  Nb  Ti  V  
  32  32  32  32
Direct
  0.3782931664650896  0.6282551815162458  0.3740063412646381
  0.6309904279642442  0.3757525590006846  0.3708242615662881
  0.4872103581937018  0.2564639001480502 -0.0140846120824863
  0.5013014210370289  0.0004656894404566  0.4935347661371686
  0.6318970084120199  0.1259652511717742  0.3701473499611501
  0.5051820728750617  0.0020166366508948  0.2510313593020734
  0.1164622881496759  0.8764201945618620  0.8885522703480436
  0.2515607524988127 -0.0048728883063049 -0.0064462637242129
  0.5067042276196095 -0.0161640450041582 -0.0073472688122619
  0.2633950283956134  0.4822841633257495  0.2391797104030388
  0.2485764752748420  0.0017749321820805  0.2526252376168080
  0.2307280902969855  0.7572219750679243  0.7556216033675324
  0.2429196047633828  0.7565456965427039  0.2595847697670670
  0.3716462067958397  0.1205852459093556  0.8732368089996329
  0.8806018047981798  0.3777037747330890  0.8639065926893310
  0.3792457476813850  0.3639686368098554  0.1168636123353103
  0.3729853058698505  0.6260090721730152  0.8597000615590001
  0.3565760890593331  0.3693862720194271  0.3894022274315783
  0.2397138389519406  0.2412028291065312  0.5114998705123712
  0.3633257015561087  0.1262109882949812  0.3712986782039384
  0.4813425165942509  0.5050582835565031  0.0014090400737758
  0.3672397396113085  0.6421591879505485  0.1368043898253353
  0.1329390349522959  0.6099603133828682  0.3667465743912545
 -0.0135422357416326  0.4988857145314379  0.2592152724448312
  0.8779942830858833  0.1231749288018070  0.6280905359037438
  0.0063256392497659  0.4956086150282828  0.0004468245431031
  0.0084763257287203  0.2483618417026304  0.7419231225359634
  0.1304050484045194  0.3830379450098453  0.6255999953761979
  0.5093066675440543  0.4940074131098972  0.7382970918876132
  0.8889440792658223  0.8791885670684655  0.1225439102771591
  0.8735925916828912  0.3749079558717100  0.1258973625569591
  0.5090817805387732  0.7558293216109999  0.7582031615289621
  0.6222533693512843  0.6214066684267812  0.1243519201949865
  0.3675577296104569  0.6252410349582089  0.6293721221003479
  0.7472702338003577 -0.0030095460201070  0.4966554898101926
  0.8771839975618408  0.1228731914735192  0.3666503109747820
  0.7482179701740134 -0.0000042888046288  0.0030723156543122
  0.6309129157709625  0.8734072662267355  0.6249710964744453
  0.4951875530799700  0.7525523274214205 -0.0019115979171880
  0.5059687118481033  0.7572929126455774  0.4960054944460603
  0.7520806890899785  0.2551048537336494  0.5050854703099951
  0.6274406888912608  0.6156436341917177  0.8799576155291362
  0.6233301269429599  0.1376966628840884  0.1214403941688172
  0.5018823049944727  0.4912506857789521  0.5052468158858222
  0.6250910083831034  0.6285595988376532  0.3795787646705254
  0.4958452105076037  0.2463935874825046  0.2527001769500500
  0.3712654487873959  0.8760578282552935  0.6335770820352034
  0.6340476618294042  0.3818762707177578  0.8867609027790503
  0.8760144545234667  0.1292794154863586  0.8804658851738519
  0.7550461337675317  0.5025924207848151  0.2526207377409327
 -0.0065204450825710  0.7350886700552282  0.2490050568163130
  0.8871349394465513  0.6234066190012159  0.8686136692228398
  0.7549528307923081  0.7513992362517803  0.0069420865187527
  0.0026916781904448  0.7364369854317040  0.5058915164398444
  0.1316291274631526  0.6222869795448841  0.1289814147485610
  0.1159555577251855  0.8764472962919382  0.1216646414337071
  0.1284270064786651  0.3748341918076874  0.3728786544154675
  0.7504812299364297  0.7552106935094357  0.2496067204461646
  0.2408594892037048 -0.0013366624599144  0.5057944555996723
  0.2496605948045741  0.5047969460801143 -0.0021306610962815
  0.1242572964120832  0.1282864598251678  0.1227157226739513
  0.8848711254977691  0.8676223892291601  0.6312024868998414
  0.1170580886561755  0.1221407203237469  0.3759068240794948
  0.8785421098584543  0.8776468909543806  0.3772755443493112
  0.7463269058318645  0.2519754227183444  0.7462167104308672
  0.4965644685807498  0.2569747147759004  0.7505235104787287
 -0.0005669163781665  0.5051417000992805  0.5002735326140318
 -0.0001301547337900  0.2533152722895260  0.2502386249293059
  0.4930828474339654  0.4981548317229413  0.2496045506821888
  0.1323254633895198  0.3816086601551504  0.8681117953564677
  0.8765146252277657  0.3781926951246272  0.6258851160926591
  0.0045131591632990 -0.0007108884281977  0.7493634109055427
  0.0001008828190909  0.2502373654348216  0.5030267379606654
  0.1272366551817465  0.1277387407806649  0.8714330924452535
  0.0032622007930822  0.2513226749896276 -0.0000318690635600
  0.7511528008223919 -0.0031300760372228  0.2468450844964943
  0.5033516977225205  0.2492723031174733  0.4977505052287091
  0.6254792663306979  0.3756804094387222  0.1162356507233953
  0.7502120021752614 -0.0019625442278056  0.7542306777109055
  0.3668487783661639  0.3793389322877032  0.6273750251329547
  0.7503727373860695  0.5024698937888596  0.5023412462241619
  0.2500122635074294  0.2539885599159057 -0.0049152996597570
  0.3729665162118392  0.8715885865251075  0.1213930702671827
  0.0047855631519330  0.7351527358552883  0.0019819808864407
  0.2448121921677285 -0.0089482840451567  0.7476779241045564
  0.3791664523479076  0.8771905665793287  0.3744904819247941
  0.2478576676465268  0.7458501466725388  0.4968400767282100
  0.8798770536536689  0.8722231858299857  0.8782990595213447
  0.7513461846025454  0.7453707930893523  0.7466457163798651
  0.3781356405511024  0.1246950929038003  0.1236417564763170
  0.7511281866378554  0.5040286060168502  0.7458085845746304
  0.1135839050730333  0.8863427653394571  0.3782616374998981
  0.6189258789395786  0.1246267717955315  0.6233709741530840
  0.4991294706353395 -0.0131240817331174  0.7643906951556767
  0.6267224144413557  0.1288541879024904  0.8821826376705254
  0.3747521575969247  0.1188634349232121  0.6272437280129429
  0.8812902398600584  0.6245310714581263  0.6271807655291610
  0.7498860238113672  0.2512356001360938  0.2457303342738834
  0.7672919767617645  0.4995776273198931  0.0041928284500247
  0.7511227716923886  0.7463914986225028  0.5069023518543136
  0.7624618633879372  0.2528419765912691  0.0024584399544084
  0.8761717044906830  0.6081036144114184  0.1200184052091263
  0.8649395348432187  0.6255106429259654  0.3778434983668187
  0.8759661344578447  0.3726835746525355  0.3853131654912004
 -0.0077757249603471  0.0159501154769477  0.0035937971074734
  0.6318261215002254  0.8697451781835228  0.8791399597449792
 -0.0093409212782975  0.0099406796595233  0.2399783401915715
  0.0032258546658748  0.0052829411548903  0.5095190320358806
  0.1292710554141790  0.1165207033240548  0.6303069061012329
  0.1248306960699575  0.3715131301338837  0.1311747046099724
  0.1341487202424169  0.6224073427728809  0.6335949693721563
  0.0066524977974874  0.5125467492611151  0.7403308945827611
  0.1236378734128888  0.6158151588314286  0.8639607721633161
  0.1176915069004388  0.8723930778906225  0.6164867290792125
  0.0106315776553282  0.7447052988985353  0.7484844088301487
  0.8696510065518193  0.1350662344240311  0.1254290907403479
  0.2469944481437836  0.2614515864770742  0.2387168996761003
  0.3630532830696542  0.3932992820283682  0.8591995430955400
  0.2528968510799294  0.5187379089446811  0.5062363042003964
  0.2432418573566558  0.5034427062894572  0.7492143700576445
  0.2522602146961838  0.7505004346263272 -0.0147922327994290
  0.6282377300354768  0.3703312153549492  0.6237185669379732
  0.6216172255673443  0.6296087568702073  0.6231515328416602
  0.6134622954791020  0.8677740473880152  0.1323638389336182
  0.5061431356843966  0.7472939996352697  0.2517922671522619
  0.6180355658482617  0.8759143479230177  0.3700077689156220
  0.2559867444162834  0.2572977405633703  0.7537664508187517
  0.3666232410027549  0.8634044889024074  0.8789850772981781
