SYSTEM = Ta MACE relaxed Bader single point
ENCUT  = 520
PREC   = Accurate
EDIFF  = 1E-6
NELM   = 300
LREAL  = .FALSE.
IBRION = -1
NSW    = 0
ISIF   = 2
ISMEAR = 1
SIGMA  = 0.1
GGA    = PE
ALGO   = Normal
ISPIN  = 2
MAGMOM = 0.0 0.0 0.0 0.0 0.0 0.0 0.0 0.0 0.0 0.0 0.0 0.0 0.0 0.0 0.0 0.0 0.0 0.0 0.0 0.0 0.0 0.0 0.0 0.0 0.0 0.0 0.0 0.0 0.0 0.0 0.0 0.0 0.0 0.0 0.0 0.0 0.0 0.0 0.0 0.0 0.0 0.0 0.0 0.0 0.0 0.0 0.0 0.0 0.0 0.0 0.0 0.0 0.0 0.0 0.0 0.0 0.0 0.0 0.0 0.0 0.0 0.0 0.0 0.0 0.0 0.0 0.0 0.0 0.0 0.0 0.0 0.0 0.0 0.0 0.0 0.0 0.0 0.0 0.0 0.0 0.0 0.0 0.0 0.0 0.0 0.0 0.0 0.0 0.0 0.0 0.0 0.0 0.0 0.0 0.0 0.0 0.0 0.0 0.0 0.0 0.0 0.0 0.0 0.0 0.0 0.0 0.0 0.0 0.0 0.0 0.0 0.0 0.0 0.0 0.0 0.0 0.0 0.0 0.0 0.0 0.0 0.0 0.0 0.0 0.0 0.0 0.0 0.0
LORBIT = 11
LCHARG = .TRUE.
LAECHG = .TRUE.
LWAVE  = .FALSE.
NGXF   = 320
NGYF   = 320
NGZF   = 320
NCORE  = 4

# NGXF/YF/ZF are explicitly doubled relative to the default estimate.
# Values are 320 for the approximately 13.3 A, 128-atom cells.
