Al Nb
 1.0000000000000000
    12.9936075471321555   -0.4917841542784542    0.0249581106246794
    -0.4938834558186370   12.3417033228857740   -0.0991455541294509
     0.0417637857790962   -0.1094062607077385   13.8108672720459520
 Al  Nb 
  64  64
Direct
  0.9127010397881394  0.0920920846542750  0.8510238593803049
  0.2351425686362881  0.5557909060048963  0.2618557844253053
  0.7571268555280328 -0.0140560037717731 -0.0203018435104000
  0.3680785749864328  0.5896577566204819  0.9201699508731254
  0.4632790800933868  0.7539955477155563  0.6382315384131945
  0.8564466916518214  0.1888930130176613  0.4544642525003876
  0.2570419963067102  0.7652459766676208  0.2879617865760487
  0.1979210766982954  0.3424045817495548  0.3407402354370532
  0.4106640478499700  0.5639470909692856  0.1214084550281561
  0.2500730196560368  0.4814615290459724  0.0261194777195924
  0.7462666335227185 -0.0020768909030342  0.4682745125931195
  0.8725315216356089  0.1281245231470078  0.6441752616515102
  0.3294494210018530  0.1060372823823426  0.4496940588659734
  0.5910435792326698  0.4859037476770264  0.4381887310966827
  0.6435837472677286  0.6764368228072993  0.3361713915437875
  0.3343595664699359  0.3646674865953339  0.1751800520073133
  0.5216595707710593  0.6242862862398306  0.8061156821804474
  0.3871844115881978  0.1541271600949811  0.8667054780509962
  0.3339211928005188  0.9244686439384041  0.5937722666053763
  0.6540461529659332  0.8050297125641975  0.7231436653452076
  0.5813516675279464  0.5374290569547587  0.1970976774164445
  0.4990201695974871  0.3708689980455067  0.0712880909163964
  0.6322043279328582  0.4492787778624033  0.7822458637121767
  0.4485235553397841  0.3877529660284929  0.6738726054523567
  0.5809503440878617  0.5297418524243795  0.9701122769941865
  0.4449588262320364  0.7705776342644839  0.0328117355712778
  0.7229622336562453  0.4682878912249969  0.2977990686643731
  0.3735473808053918  0.2664085864255906  0.3361576690747928
  0.6249039867936248  0.3183388032664974 -0.0685560636512563
  0.4872539735532667  0.7027536960609745  0.4363451619172274
  0.5492110931862353 -0.0545654623903945  0.5546373500583335
  0.6721603099924748  0.0820500942047112  0.2616201350363659
  0.4482089799153527  0.0739155762374723  0.2559877154577433
  0.6441178985652704  0.1929729927274872  0.1039913026631742
  0.4140690871207205 -0.0320672409303231 -0.0486535206817983
  0.2517351974162851  0.7691971157197235  0.7051740674591838
  0.9184047448745746  0.3240567525304408  0.0887073436407531
  0.4113308437338858  0.5175975711095181  0.5287183913556447
  0.1952037010501368 -0.0785164236087361  0.4575254330984398
  0.0676177705818097  0.1784925391794323  0.0690004002743103
  0.8122113526270636  0.9253388390468025  0.6310415059020569
  0.1260252103572845  0.1167045808412383  0.3857288549849463
  0.8055025391553107  0.8130563618277877  0.3497337101941212
  0.6318675043835923  0.7091814416723352  0.0706293123178988
  1.0491386879018465  1.0349620360524301  0.2007500934243178
  0.8834695121604238  0.5788501952335864  0.0376403605440872
  0.9392607248403047  0.6582018433650707  0.8539373850391337
  0.0552841257792930  0.4714451276490044  0.3417438013214799
  0.1422972719311864  0.4099335320695783  0.6431548881884930
  0.0484603155775292  0.2323225017626942  0.7163794481815502
  0.0553744749274342  0.5009762763989399 -0.0095396204413905
  0.0424796370875541  0.7422513762651388  0.0094951098970341
  0.1105983097067906  0.6827918991950308  0.4103423756611547
  0.9086605114232181  0.4668317769056680  0.2149798464613245
 -0.0774562299288168  0.6310801162453263  0.3495825920181423
  0.5399201968344897  0.0949234324819971  0.4253452627267170
  0.2282667813352621 -0.0210109716376227  0.2897157375549045
  0.8200335480718538  0.4371947884025499  0.9090831476573890
  0.1324217555959933  0.8567491529214426  0.1470637630992286
 -0.0708568805689961  0.8518213377324889  0.1701020157631648
  0.2270539969966626  0.0529993115492354  0.0314263694515191
 -0.0867549020972077  0.7817854420929619  0.4946136013584658
  0.2267453502608764  0.8608720278812743  0.9583005221903600
  0.6804719426023016  0.2688927076145696  0.4166835057582043
  1.0577079440552661  0.6445364218031325  0.1932767998011841
  0.6048349926600818  0.5919268744629226  0.6224820013090084
  0.7942786422980180  0.2125460845454335 -0.0365277310217940
  0.6808245200252876  0.7730245313034482  0.5254642238517349
  0.8677018753827600  0.4065815051495371  0.4225316712038253
  0.7083705887966187  0.0390188619531083  0.7785535009039661
  0.5599984167978151  0.9636080210416261  0.1057479468888788
  0.8217822396470695  0.5209753880401149  0.7063474566317646
  0.5945865092521221  0.8937586256241585  0.3431447696202187
  0.7194955547026387 -0.1212989371982562  0.1779772082078520
  0.9008209781056085  0.3492884419547855  0.6097965638660731
  0.8789990413530541  0.7259062741006672  0.6772901708650607
  0.7892082336200144  0.2734135463963461  0.7750263998864498
  0.7735376791821694  0.5913674441707122  0.4893256296551098
  0.7914004149716016  0.2670903615892565  0.2440972682157789
  0.6049091023729321  0.8421270072986992  0.9102685010909339
  0.7922042562129934  0.6565180488102879  0.1916504982738327
  0.7235246300676285  0.4263271304931650  0.0947512937500267
  0.8601221566820796  0.0916478833911972  0.1277663590191754
  0.4736265416908159  0.7395276090032761  0.2318224842727097
  0.0054454268217713 -0.0322325365266970 -0.0035290282137896
  0.3963285927092356  0.7886740869511251  0.8374140311902685
  0.5609941501104364  0.2302419396644181  0.7520544768145430
  0.0923738904745962  0.8207039554482333  0.5971186478168341
  0.0319448932888298  0.8627471454611173  0.3399051331940227
 -0.1707541380208220  0.7874564651200376  0.0070694451210251
  0.1735227368519251  0.6483470776457205  0.8713252747693996
 -0.0030573360548533  0.4524539621655640  0.7895788337782645
  0.0937350097916922  0.6186695897452147  0.6884587639039694
 -0.0108056800965426  0.5478417047696478  0.5369487087725275
  0.2049994748551961  0.4281304907605432  0.8332829994296130
  0.0551097740888806  0.2777343983712278  0.4996759167295075
 -0.0001836698384605  0.2456558438507273  0.2749427689093521
  0.1126308484821194  0.3906097563558689  0.1533638138607880
  0.0117328916310266  0.2881110951168561 -0.0875831982745483
  0.1350609815418105  0.1063690530446314  0.8598987317636152
  0.0156539080566802 -0.0139679500161941  0.7034415621059977
  0.1742145717384016  0.0950976948317467  0.6024761293549099
 -0.0218988405726832  0.0086986739007623  0.4985949160823081
 -0.1209470674518714  0.0290673547656130  0.3121600167724907
  0.0786795991077855  0.8367819212659928  0.8168558868106287
  0.4235578496405912  0.1600070016040206  0.0738266206666901
  0.4179517844261812  0.1337904042620672  0.6345846350022842
  0.2661315617192820 -0.0183990900738783  0.7800771485848215
  0.6755929101868978  0.3797173822575922  0.5935071720135742
  0.4914508639069635  0.2940334358038531  0.4982035202687220
  0.5597916210484952  0.3020464860944943  0.2565076439625353
  0.5885610030723530  0.0977498081282530  0.9266823122812419
  0.4898450344846310 -0.0289471011082128  0.7495639602600420
  0.6659785731467692  0.1536937388243198  0.5962282905047314
  0.7307773843105762  0.6455548657843823  0.8583738594088542
  0.2898589878773470  0.7150354039709756  0.5073049165308470
  0.4185656986301615  0.5009474941396896  0.3302461364694922
  0.3988175926979035  0.9030158896176665  0.3917246846703473
  0.2465369881350264  0.6888556722385580  0.0915534886411984
  0.3222077232828803  0.5574287344515889  0.7043792654827197
  0.2125406212947177  0.5162667623029537  0.4779706003872649
  0.4289616419016179  0.3857260388639637  0.8780473500239900
  0.2671132544168328  0.2568424768901812  0.7423127712111787
  0.2848737945876845  0.3053467202859417  0.5266882705351921
  0.2292518689902285  0.1744300306264484  0.2061448946293683
  0.2623290795109630  0.2690730619464084 -0.0054390103734153
  0.3435879756149288  0.9188541936890234  0.1406570647032931
  0.8522692783983490  0.8646835737582045  0.8296966610002826
