48
Lattice="9.851949247028813 0.00519070916229919 0.003859914014358889 -4.921478985211582 8.533644639414304 -0.004108785164117647 0.003149822315466052 -0.002053439344876828 8.028487659717834" Properties=species:S:1:pos:R:3:spacegroup_kinds:I:1:site:S:1:forces:R:3:energies:R:1 spacegroup="P 63/m m c" unit_cell=conventional energy=-339.15122815332865 stress="9.087799739628292e-06 -0.0006333425164331736 -0.00045435371131123035 -0.0006333425164331736 -0.0006445794875762431 0.00020327161127200617 -0.00045435371131123035 0.00020327161127200617 0.0006932545147848289" free_energy=-339.15122815332865 pbc="T T T"
Nb      -0.02468027       2.84473944       0.54044410        0 4f      -0.00319077      -0.00039438       0.00394987      -9.56141982
Nb       2.37721314       1.34679528       4.62034181        0 4f      -0.00026858       0.00133991      -0.00172878      -9.55910851
Nb       2.45095462       1.37999864       7.48579597        0 4f       0.00176443       0.00090104       0.00081986      -9.55713099
Nb      -0.04098837       2.80159766       3.49475655        0 4f      -0.00019114      -0.00484375      -0.00493145      -9.58573983
Al      -0.04851444       0.02785653      -0.15089998        1 2a       0.00628439       0.00243056      -0.00249462      -5.06396729
Ni       0.07569537       0.02712949       3.96224635        1 2a      -0.00042080      -0.00071790      -0.01674250      -6.40812333
Ni       2.50455679       2.86183669       2.01395663        2 6h       0.00120143      -0.00033214      -0.00061932      -6.46977070
Al       1.35248436       0.82417191       2.02754549        2 6h      -0.01217099      -0.00567730       0.00448098      -4.99600773
Ni       3.71489059       0.74031570       2.02013086        2 6h       0.00144930      -0.00212009       0.00181763      -6.34222989
Ni       0.02866803       1.39829032       5.95031340        2 6h       0.00399797      -0.00250428       0.00339924      -6.33254757
Ni       1.25695460       3.48229620       6.03651805        2 6h       0.00225379       0.00183024       0.00275112      -6.28560675
Al      -1.08362950       3.47432937       6.03710980        2 6h      -0.01079739       0.01172998       0.00011052      -4.96569289
Nb      -2.51594831       7.14590894       0.42280630        0 4f      -0.00120767      -0.00258584      -0.00151193      -9.56681095
Nb      -0.03034737       5.66736948       4.52100772        0 4f      -0.00156096       0.00036201      -0.00061697      -9.53851184
Nb      -0.04113200       5.67945342       7.53491225        0 4f      -0.00255524      -0.00197860       0.00250718      -9.52565510
Nb      -2.50081272       7.14901224       3.63864805        0 4f      -0.00021521       0.00015718      -0.00236946      -9.53637553
Al      -2.46542416       4.26239206      -0.01919317        1 2a       0.00205545      -0.00008728      -0.00670723      -4.93225903
Al      -2.46287453       4.24554090       4.05326557        1 2a       0.00763880      -0.00051161       0.00826423      -4.95177861
Al      -0.05715066       7.07605249       2.00955649        2 6h       0.00246513      -0.00799498       0.00272565      -5.18294253
Ni      -1.24468920       5.01917172       2.01741129        2 6h       0.00355424      -0.00176961       0.00057141      -6.46798590
Ni       1.19949115       4.98727789       2.01773517        2 6h      -0.00153566       0.00973882       0.00006862      -6.50975342
Ni      -2.39856400       5.69093796       6.02556726        2 6h       0.00322208       0.00280297       0.00222950      -6.56603870
Ni      -1.24296055       7.82538102       6.02320414        2 6h      -0.00645138      -0.00111688      -0.00026161      -6.38729323
Ni      -3.66735662       7.76799718       5.97302918        2 6h       0.00554109       0.00158252       0.00209790      -6.44558460
Nb       4.89106225       2.88805069       0.51032830        0 4f       0.00015690      -0.00027292       0.00017146      -9.58348137
Nb       7.49947368       1.37797023       4.53101808        0 4f      -0.00065354       0.00014512      -0.00488694      -9.60961186
Nb       7.38212199       1.43798680       7.50346095        0 4f      -0.00221970       0.00264504       0.00151646      -9.58326249
Nb       4.89495229       2.88918712       3.53153500        0 4f      -0.00057989      -0.00066310      -0.00074802      -9.55511204
Ni       4.99662941       0.01225291       0.00903345        1 2a       0.00064324       0.00336541      -0.00473022      -6.46435297
Ni       5.00770176       0.00292536       4.01725377        1 2a       0.00139616       0.00285640       0.00381818      -6.46472498
Ni       7.37327819       2.86395306       2.01973829        2 6h       0.00354635      -0.00487420       0.00208352      -6.42125509
Al       6.22552786       0.78879317       2.01600437        2 6h       0.00048185       0.00494215       0.00111233      -5.17205097
Ni       8.66686346       0.78174103       1.93806743        2 6h      -0.00312300      -0.00353851       0.00178184      -6.53836782
Al       4.90344893       1.46570551       6.01791024        2 6h      -0.00316994       0.00351435       0.00070700      -5.14483353
Ni       6.19587469       3.50971339       6.02880670        2 6h       0.00182800      -0.00138779       0.00102387      -6.48613691
Ni       3.76425900       3.54956296       6.02814067        2 6h       0.00450233      -0.00001687      -0.00092282      -6.40132056
Nb       2.47635459       7.09108882       0.48071782        0 4f      -0.00630007      -0.00167225       0.00489357      -9.55961632
Nb       4.91216570       5.72768434       4.51990128        0 4f      -0.00165320      -0.00286979      -0.00311784      -9.55889550
Nb       4.91646866       5.69105678       7.56490073        0 4f      -0.00236755      -0.00461551      -0.00017511      -9.55397405
Nb       2.46750645       7.09141338       3.55305354        0 4f       0.00032110       0.00090844      -0.00639006      -9.52581963
Al       2.38841383       4.23112523      -0.07200592        1 2a       0.00219271      -0.00408490       0.00323617      -5.10200622
Al       2.38674657       4.21311842       4.10430849        1 2a      -0.00372722      -0.00435681      -0.00259770      -5.11722521
Al       4.85862360       7.19261494       2.05052396        2 6h       0.00870040       0.00984411       0.00844685      -4.85886251
Al       3.63234174       4.98651295       2.01699311        2 6h       0.00361318      -0.00289444       0.00200914      -4.88030714
Al       6.15511767       5.02291456       2.02142867        2 6h       0.00092116       0.00493956       0.00220650      -4.89447455
Ni       2.46711987       5.70700111       6.02520177        2 6h       0.00715928       0.00825547      -0.00096701      -6.39312766
Ni       3.68161261       7.81941198       5.91594633        2 6h      -0.00974840      -0.00920307      -0.00365094      -6.40278365
Al       1.26014109       7.74156473       6.03277706        2 6h      -0.00278245      -0.00120646      -0.00263009      -5.14129041
