48
Lattice="10.056269707804336 -0.08167940219094245 -2.1577661906530405e-16 -5.098866434731311 8.732189198129955 4.94539538804786e-16 -1.735201692849978e-16 -1.9383794190338756e-16 8.05140733686144" Properties=species:S:1:pos:R:3:spacegroup_kinds:I:1:site:S:1:forces:R:3:energies:R:1 spacegroup="P 63/m m c" unit_cell=conventional energy=-327.18038274892433 stress="-0.0002092533946580652 6.073823391975684e-05 3.4807961098985765e-17 6.073823391975684e-05 0.00010485618054248603 -6.80579402727676e-19 3.4807961098985765e-17 -6.80579402727676e-19 -2.418185324559335e-05" free_energy=-327.18038274892433 pbc="T T T"
Nb      -0.02137781       2.90613256       0.48447581        0 4f      -0.00491825      -0.00515269      -0.00482496      -9.57183560
Nb       2.46484719       1.43013235       4.52265655        0 4f      -0.00028066      -0.00412512      -0.00777481      -9.56049141
Nb       2.46484719       1.43013235       7.55445446        0 4f      -0.00028066      -0.00412512       0.00777481      -9.56049141
Nb      -0.02137781       2.90613256       3.54122786        0 4f      -0.00491825      -0.00515269       0.00482496      -9.57183560
Ni      -0.04029601      -0.03838173      -0.06120154        1 2a      -0.00326053       0.00231080      -0.00202886      -6.49855346
Ni      -0.04029601      -0.03838173       4.08690521        1 2a      -0.00326053       0.00231080       0.00202886      -6.49855346
Al       2.39533957       2.79103162       2.01285183        2 6h      -0.00045535      -0.00524995       0.00000000      -4.73989528
Ni       1.29880507       0.69018952       2.01285183        2 6h       0.00218688      -0.00595154      -0.00000000      -6.37177858
Al       3.70416445       0.69973401       2.01285183        2 6h      -0.00229575       0.00299827       0.00000000      -4.76123339
Al      -0.04827227       1.42153704       6.03855550        2 6h      -0.00057375       0.00038260       0.00000000      -4.78282805
Al       1.18037568       3.61961213       6.03855550        2 6h      -0.00206613      -0.00300532      -0.00000000      -4.67156129
Al      -1.28307058       3.62037060       6.03855550        2 6h      -0.00205272       0.00886913      -0.00000000      -4.69718910
Nb      -2.59342843       7.25016326       0.56174407        0 4f      -0.00332307      -0.00075798      -0.00270924      -9.56601834
Nb      -0.08226087       5.81247959       4.52710418        0 4f       0.00156636       0.00289556      -0.00197703      -9.58605398
Nb      -0.08226087       5.81247959       7.55000683        0 4f       0.00156636       0.00289556       0.00197703      -9.58605398
Nb      -2.59342843       7.25016326       3.46395960        0 4f      -0.00332307      -0.00075798       0.00270924      -9.56601834
Ni      -2.56327667       4.36746572      -0.05433009        1 2a       0.00652765      -0.00394026       0.00440026      -6.49428951
Ni      -2.56327667       4.36746572       4.08003375        1 2a       0.00652765      -0.00394026      -0.00440026      -6.49428951
Al      -0.10464523       7.21324785       2.01285183        2 6h       0.00339349      -0.00487319       0.00000000      -4.75710381
Ni      -1.31104239       5.15516754       2.01285183        2 6h      -0.00119111       0.00101068       0.00000000      -6.35100306
Al       1.05000345       5.03966265       2.01285183        2 6h      -0.00533692       0.00589235      -0.00000000      -4.69089428
Al      -2.57983606       5.82438551       6.03855550        2 6h      -0.00343414       0.00372909      -0.00000000      -4.76726210
Al      -1.32403983       8.01858995       6.03855550        2 6h       0.00584405       0.00546898      -0.00000000      -4.95872002
Al      -3.86712761       7.96556842       6.03855550        2 6h       0.00208345      -0.00340894      -0.00000000      -4.76333184
Nb       4.93591908       2.89459719       0.54531385        0 4f       0.00532128      -0.00110818      -0.00000435      -9.57209546
Nb       7.60892306       1.39737784       4.54711341        0 4f      -0.00533003      -0.00146835       0.00256683      -9.46802288
Nb       7.60892306       1.39737784       7.52999760        0 4f      -0.00533003      -0.00146835      -0.00256683      -9.46802288
Nb       4.93591908       2.89459719       3.48038982        0 4f       0.00532128      -0.00110818       0.00000435      -9.57209546
Al       5.20670244       0.06363321      -0.02752922        1 2a       0.00474731       0.00460847      -0.00643402      -5.07146549
Al       5.20670244       0.06363321       4.05323288        1 2a       0.00474731       0.00460847       0.00643402      -5.07146549
Al       7.47359533       2.92105841       2.01285183        2 6h       0.00352360       0.00730720       0.00000000      -5.17749753
Ni       6.34117241       0.70558977       2.01285183        2 6h      -0.00543133      -0.00094143      -0.00000000      -6.64513467
Al       8.85299080       0.57899028       2.01285183        2 6h       0.00407764      -0.00237026       0.00000000      -5.15349124
Ni       5.00756996       1.41452859       6.03855550        2 6h       0.01530727      -0.00704153      -0.00000000      -6.34510205
Al       6.25151205       3.43583068       6.03855550        2 6h       0.00061670      -0.00453862       0.00000000      -4.94618136
Al       3.78704276       3.48147432       6.03855550        2 6h      -0.00356367      -0.00028166       0.00000000      -4.79674023
Nb       2.43565387       7.17907015       0.57284879        0 4f      -0.00028186       0.00205726       0.00131352      -9.55221676
Nb       5.02848628       5.73030239       4.55196520        0 4f      -0.00146155       0.00018896       0.00165957      -9.54977185
Nb       5.02848628       5.73030239       7.52514580        0 4f      -0.00146155       0.00018896      -0.00165957      -9.54977185
Nb       2.43565387       7.17907015       3.45285488        0 4f      -0.00028186       0.00205726      -0.00131352      -9.55221676
Al       2.52205022       4.42374637       0.00365130        1 2a       0.00087351       0.00197431       0.00386065      -4.75540271
Al       2.52205022       4.42374637       4.02205237        1 2a       0.00087351       0.00197431      -0.00386065      -4.75540271
Ni       5.05526009       7.20930985       2.01285183        2 6h       0.00297065      -0.00110626      -0.00000000      -6.19673701
Al       3.94860986       5.15938260       2.01285183        2 6h       0.00871214       0.00426202      -0.00000000      -4.86799516
Ni       6.29216533       5.08595325       2.01285183        2 6h      -0.00421338      -0.00638128      -0.00000000      -6.21676957
Ni       2.43836375       5.72895651       6.03855550        2 6h       0.00104198       0.00000035      -0.00000000      -6.50446762
Al       3.54060349       7.82215335       6.03855550        2 6h      -0.00955565       0.00512975      -0.00000000      -5.15522984
Ni       1.15944723       7.87545327       6.03855550        2 6h      -0.00994829       0.00513399      -0.00000000      -6.36980076
