48
Lattice="9.771240969494942 0.019454346889297383 1.1230710970546527e-16 -4.8687796253439535 8.407688012149604 -7.069192953957746e-16 9.068737807330409e-17 -7.751084109763177e-16 8.033731738900787" Properties=species:S:1:pos:R:3:spacegroup_kinds:I:1:site:S:1:forces:R:3:energies:R:1 spacegroup="P 63/m m c" unit_cell=conventional energy=-343.6892206011878 stress="-0.00021577044147750373 -0.00013672418048399034 3.856970346809975e-17 -0.00013672418048399034 0.00035840110739826015 3.2205454478659927e-16 3.856970346809975e-17 3.2205454478659927e-16 -0.00011273884127614089" free_energy=-343.6892206011878 pbc="T T T"
Nb      -0.15239217       2.85358027       0.55062005        0 4f       0.00752551       0.00411421       0.00401985      -9.55076795
Nb       2.44520211       1.41164393       4.54687162        0 4f       0.00152394       0.00611560      -0.00412325      -9.62110164
Nb       2.44520211       1.41164393       7.50372599        0 4f       0.00152394       0.00611560       0.00412325      -9.62110164
Nb      -0.15239217       2.85358027       3.46624582        0 4f       0.00752551       0.00411421      -0.00401985      -9.55076795
Ni       0.04347835      -0.01226710      -0.00911897        1 2a       0.00124580       0.00393527      -0.00709223      -6.36130266
Ni       0.04347835      -0.01226710       4.02598484        1 2a       0.00124580       0.00393527       0.00709223      -6.36130266
Ni       2.43108680       2.81957522       2.00843293        2 6h       0.01033844       0.00647243       0.00000000      -6.47850477
Al       1.19897035       0.74035701       2.00843293        2 6h      -0.00069117      -0.00216972      -0.00000000      -5.15809978
Ni       3.62754326       0.73317805       2.00843293        2 6h      -0.00124287      -0.00482758       0.00000000      -6.36256257
Al      -0.19542113       1.31606162       6.02529880        2 6h      -0.00011785       0.00330762       0.00000000      -5.15514055
Al       1.08655762       3.49160201       6.02529880        2 6h       0.01010208      -0.00094829       0.00000000      -4.88314227
Ni      -1.23390255       3.44471105       6.02529880        2 6h      -0.00616094       0.00083437       0.00000000      -6.35939628
Nb      -2.35834212       7.01915804       0.47717455        0 4f       0.00281985      -0.00177833      -0.00268875      -9.50934164
Nb      -0.08511881       5.69930260       4.57635771        0 4f       0.00183467      -0.00132014      -0.00061266      -9.57646116
Nb      -0.08511881       5.69930260       7.47423990        0 4f       0.00183467      -0.00132014       0.00061266      -9.57646116
Nb      -2.35834212       7.01915804       3.53969132        0 4f       0.00281985      -0.00177833       0.00268875      -9.50934164
Ni      -2.41169892       4.20043855      -0.01026076        1 2a      -0.00105850       0.00308847      -0.00057528      -6.37254410
Ni      -2.41169892       4.20043855       4.02712663        1 2a      -0.00105850       0.00308847       0.00057528      -6.37254410
Al       0.06870934       7.07499168       2.00843293        2 6h      -0.00281923      -0.00826146      -0.00000000      -5.15473914
Ni      -1.11211908       4.92468025       2.00843293        2 6h      -0.00671950      -0.00239347      -0.00000000      -6.34358201
Ni       1.28120087       5.02906749       2.00843293        2 6h      -0.00598791       0.00534289      -0.00000000      -6.35597904
Ni      -2.39366641       5.59963586       6.02529880        2 6h      -0.01502304      -0.01127985      -0.00000000      -6.37006945
Ni      -1.19475709       7.72566792       6.02529880        2 6h      -0.00057078       0.00681718       0.00000000      -6.40128935
Al      -3.58593611       7.63070931       6.02529880        2 6h      -0.00075695      -0.00276299       0.00000000      -5.08738709
Nb       4.91127259       2.74849165       0.54060407        0 4f      -0.00125806       0.00553630       0.00500504      -9.54155507
Nb       7.16314453       1.41248617       4.48605050        0 4f      -0.00222861       0.00168351      -0.00078244      -9.53347808
Nb       7.16314453       1.41248617       7.56454711        0 4f      -0.00222861       0.00168351       0.00078244      -9.53347808
Nb       4.91127259       2.74849165       3.47626180        0 4f      -0.00125806       0.00553630      -0.00500504      -9.54155507
Ni       4.89717225       0.00081736      -0.00421017        1 2a       0.00044492      -0.00224510      -0.00658856      -6.39738317
Ni       4.89717225       0.00081736       4.02107604        1 2a       0.00044492      -0.00224510       0.00658856      -6.39738317
Ni       7.43583444       2.78118868       2.00843293        2 6h      -0.00388365      -0.00781625       0.00000000      -6.35924185
Ni       6.09923045       0.80300779       2.00843293        2 6h       0.00221685       0.00455940      -0.00000000      -6.36559530
Ni       8.50364852       0.61951651       2.00843293        2 6h      -0.00723793       0.00819848      -0.00000000      -6.33938342
Ni       4.91824724       1.39565174       6.02529880        2 6h       0.00160103      -0.01428440      -0.00000000      -6.35842006
Ni       6.11553153       3.53155140       6.02529880        2 6h       0.00895035      -0.00606760       0.00000000      -6.34205094
Al       3.79542348       3.44549406       6.02529880        2 6h      -0.01355658       0.00459625       0.00000000      -4.94362968
Nb       2.52972276       7.14123199       0.40569656        0 4f      -0.00392120       0.00216827      -0.00343094      -9.58108202
Nb       4.93455563       5.59221945       4.52543896        0 4f       0.00361273      -0.00803252      -0.00246979      -9.55179221
Nb       4.93455563       5.59221945       7.52515865        0 4f       0.00361273      -0.00803252       0.00246979      -9.55179221
Nb       2.52972276       7.14123199       3.61116931        0 4f      -0.00392120       0.00216827       0.00343094      -9.58108202
Al       2.37340182       4.23472554       0.04493327        1 2a       0.00247648      -0.00475369       0.00216480      -4.91813335
Al       2.37340182       4.23472554       3.97193260        1 2a       0.00247648      -0.00475369      -0.00216480      -4.91813335
Ni       4.99827522       6.95553797       2.00843293        2 6h       0.00407346       0.00532426      -0.00000000      -6.43254881
Al       3.75614800       5.00004951       2.00843293        2 6h      -0.00388263      -0.00324345      -0.00000000      -4.89910203
Al       6.29652160       4.88931580       2.00843293        2 6h       0.00323960       0.00143377      -0.00000000      -5.11766939
Ni       2.43812568       5.55013171       6.02529880        2 6h      -0.00713196      -0.00389675       0.00000000      -6.62706911
Ni       3.66976722       7.60294253       6.02529880        2 6h       0.00862370       0.00661743      -0.00000000      -6.35803199
Ni       1.26833428       7.68884982       6.02529880        2 6h       0.00060242      -0.00257597       0.00000000      -6.40669962
