48
Lattice="10.202136901100877 -0.0208475885395871 -0.0046936215137330425 -5.119122991833696 8.866581112047026 -1.4710502430511393e-13 -0.003835876686942166 -0.0022146444379631015 8.236536930015363" Properties=species:S:1:pos:R:3:spacegroup_kinds:I:1:site:S:1:forces:R:3:energies:R:1 spacegroup="P 63/m m c" unit_cell=conventional energy=-309.00503603903013 stress="-0.00046569825628417234 0.00011097772599295127 8.973352036033353e-05 0.00011097772599295127 -0.0005938442964461067 5.180767212834546e-05 8.973352036033353e-05 5.180767212834546e-05 8.620686752066893e-05" free_energy=-309.00503603903013 pbc="T T T"
Nb       0.02700566       2.97111876       0.59903055        0 4f       0.00226199       0.00130596       0.00183682      -9.47895831
Nb       2.52792222       1.53227570       4.61874069        0 4f      -0.00453557      -0.00249593       0.00357156      -9.44758399
Nb       2.60518870       1.48217144       7.73194389        0 4f      -0.00125236      -0.00276979       0.00434409      -9.44492404
Nb       0.02912493       2.97234232       3.49654962        0 4f      -0.00335296      -0.00193583      -0.00164977      -9.55877315
Al       0.00673040       0.10588532      -0.02892556        1 2a       0.00368328       0.00665751      -0.00193271      -4.69682056
Al       0.01566443       0.09611122       4.14753331        1 2a       0.00054267      -0.00609181      -0.00230685      -4.75941512
Al       2.62465214       2.92583288       2.04045442        2 6h       0.00476393       0.00225261       0.00110738      -4.76332348
Al       1.33651810       0.74214473       2.04263308        2 6h      -0.00145012      -0.00041646       0.00281674      -4.60650578
Al       3.80348424       0.73790683       2.20716971        2 6h       0.00213176      -0.00162984       0.00734114      -4.63109360
Ni      -0.06630079       1.44070692       6.17782641        2 6h      -0.00805125      -0.00815997      -0.00023506      -6.40864728
Al       1.03703264       3.55425811       6.17685436        2 6h       0.01397931       0.00807096       0.00821267      -4.99613662
Ni      -1.34502310       3.65551893       6.17782641        2 6h      -0.01109237      -0.00289260      -0.00023506      -6.40864728
Nb      -2.58959290       7.37147895       0.53304971        0 4f       0.00331315       0.00191285       0.00297012      -9.43027460
Nb       0.03138930       5.85639757       4.61874069        0 4f      -0.00442933      -0.00267995       0.00357156      -9.44758399
Nb       0.02663097       5.94836443       7.73194389        0 4f      -0.00302489       0.00030032       0.00434409      -9.44492404
Nb      -2.66324099       7.32895821       3.58258112        0 4f      -0.00516456      -0.00298176      -0.00554092      -9.42682031
Al      -2.46449692       4.38617659      -0.02892556        1 2a       0.00760721      -0.00013894      -0.00193271      -4.69682056
Al      -2.46849452       4.39880074       4.14753331        1 2a      -0.00500433       0.00351587      -0.00230685      -4.75941512
Al      -0.01877331       7.35825112       2.20716971        2 6h      -0.00034560       0.00266108       0.00734114      -4.63109360
Al      -1.24858626       5.21967682       2.04263308        2 6h      -0.00108572      -0.00104761       0.00281674      -4.60650578
Al       1.28661017       5.24338954       2.04045442        2 6h       0.00433278       0.00299938       0.00110738      -4.76332348
Al      -2.50891923       5.93325181       6.19861750        2 6h       0.00295493       0.00293817      -0.00116279      -4.76554928
Al      -1.31806756       8.10559445       5.99944110        2 6h       0.01446485       0.00835129       0.00130571      -4.63084659
Al      -3.79479731       8.16045797       6.19861750        2 6h       0.00402200       0.00108996      -0.00116279      -4.76554928
Nb       5.13516489       2.86342117       0.47543321        0 4f      -0.00156296       0.00050711      -0.00534980      -9.49588655
Nb       7.67584747       1.47612556       4.60600731        0 4f      -0.00469706      -0.00271185      -0.00779908      -9.51722733
Nb       7.57579620       1.41836094       7.76036664        0 4f       0.00510572       0.00294779      -0.00197353      -9.51629546
Nb       5.13492549       2.95732161       3.63842391        0 4f      -0.00174690       0.00092668       0.00420718      -9.48912854
Al       5.07278503      -0.02675324      -0.00353054        1 2a      -0.00238027      -0.00137425       0.00076067      -4.77603054
Ni       5.12044769       0.00076481       4.11525569        1 2a      -0.00656186      -0.00378849       0.00133676      -6.51023829
Al       7.63101360       2.88472351       2.04670610        2 6h       0.00148366      -0.00296038       0.00310513      -4.53052347
Al       6.39940842       0.73917314       2.18223505        2 6h      -0.00659939      -0.00381016      -0.01000258      -4.65798075
Al       8.87331214       0.73299933       2.04670610        2 6h      -0.00182194       0.00276508       0.00310513      -4.53052347
Al       5.09500555       1.48789726       6.04796286        2 6h       0.00125459       0.01019389       0.00986082      -4.64293576
Al       6.36435257       3.61798655       6.18539129        2 6h       0.00056447       0.00431411      -0.00405598      -4.72760690
Al       3.84115922       3.62759278       6.18604933        2 6h      -0.01183084      -0.00300445      -0.00431190      -4.60092804
Nb       2.48781643       7.44876322       0.47543321        0 4f      -0.00034230      -0.00160712      -0.00534980      -9.49588655
Nb       5.11924250       5.91112307       4.70018758        0 4f       0.00021886       0.00012636       0.00882717      -9.50602417
Nb       5.11760867       5.91017978       7.65913151        0 4f      -0.00034850      -0.00020120      -0.00648777      -9.42555172
Nb       2.56901690       7.40160567       3.63842391        0 4f      -0.00007092      -0.00197620       0.00420718      -9.48912854
Al       2.59919979       4.45617573       0.00812654        1 2a       0.00102968       0.00059449       0.00456065      -4.70214478
Al       2.59682627       4.45480538       4.10192714        1 2a      -0.00118709      -0.00068536      -0.00051957      -4.76180581
Al       4.95230474       7.24684364       2.04858323        2 6h       0.00692171      -0.00451037      -0.01133448      -4.81815710
Ni       3.78149382       5.13877352       2.05425262        2 6h       0.00279130       0.00161156      -0.00716627      -6.45186859
Al       6.19254156       5.09869044       2.04858323        2 6h      -0.00044524       0.00824956      -0.01133448      -4.81815710
Al       2.50260562       5.94603563       6.18604933        2 6h      -0.00851735      -0.00874358      -0.00431190      -4.60092804
Al       3.75588305       8.13598828       6.18539129        2 6h       0.00401836      -0.00166821      -0.00405598      -4.72760690
Al       1.27649811       8.10174617       6.04796286        2 6h       0.00945546      -0.00401043       0.00986082      -4.64293576
