48
Lattice="9.706532383080198 -0.05127380696834386 0.011486658849993113 -4.897644524236948 8.459776134598526 -0.0353745958545799 0.00935528100886952 -0.027925326295142668 8.051618823569838" Properties=species:S:1:pos:R:3:spacegroup_kinds:I:1:site:S:1:forces:R:3:energies:R:1 spacegroup="P 63/m m c" unit_cell=conventional energy=-344.8412991327879 stress="5.528651872490555e-05 0.00011039303562731867 -0.0001065631331894373 0.00011039303562731867 -0.000359074272106002 0.00044606765784417147 -0.0001065631331894373 0.00044606765784417147 0.000136451912627082" free_energy=-344.8412991327879 pbc="T T T"
Nb       0.10150383       2.85145533       0.52172345        0 4f       0.00512195       0.00144835       0.00544585      -9.62956649
Nb       2.42766352       1.49330689       4.52062826        0 4f      -0.00106377       0.00249115      -0.00358510      -9.62824097
Nb       2.45244867       1.42875575       7.47157342        0 4f      -0.00132542      -0.00387997       0.00280478      -9.60279290
Nb       0.06134637       2.76266011       3.41964782        0 4f      -0.00570469       0.00110255      -0.00282020      -9.61651280
Al      -0.01977895      -0.01740742       0.14804293        1 2a       0.00455942       0.00539303       0.00564474      -5.10046073
Ni       0.02151818      -0.02106990       4.09606024        1 2a      -0.00090001      -0.00112980      -0.01478582      -6.42133981
Ni       2.35618234       2.76518524       1.98048461        2 6h      -0.00266003       0.00126913      -0.00016360      -6.31218888
Ni       1.21258888       0.64329630       2.10014290        2 6h       0.00137980      -0.00482972      -0.00771258      -6.30275196
Al       3.52515991       0.70849814       1.93214406        2 6h      -0.01536562       0.00079246      -0.00229349      -5.04465318
Al      -0.03099905       1.49027441       5.99716392        2 6h      -0.00426236       0.01298322       0.00031454      -5.03773183
Ni       1.25369254       3.46647844       6.01947662        2 6h       0.00742233       0.01100479       0.00429783      -6.37221535
Ni      -1.16204340       3.55005653       5.98526608        2 6h      -0.00858169      -0.00126016       0.00154938      -6.28620023
Nb      -2.45962455       6.98319765       0.43227338        0 4f       0.00003657      -0.00393069      -0.00223583      -9.58996125
Nb      -0.00765422       5.48713245       4.57624111        0 4f      -0.00378311       0.00552552       0.00283185      -9.63844762
Nb      -0.05287158       5.49651000       7.43730111        0 4f       0.00066189      -0.00220280      -0.00140240      -9.62924533
Nb      -2.59455883       6.99860955       3.41849059        0 4f       0.00341807      -0.00053228      -0.00168987      -9.57144510
Ni      -2.43069306       4.25128562      -0.04060035        1 2a      -0.00235757       0.00124741      -0.00238233      -6.42269348
Ni      -2.44466766       4.22820195       3.98254932        1 2a       0.00285441       0.00047896       0.00128968      -6.39319146
Ni      -0.06339730       7.01470742       2.01439465        2 6h       0.00168790      -0.00062700      -0.00161472      -6.52996820
Al      -1.26922217       4.91596846       1.98526875        2 6h      -0.00070514      -0.00275592      -0.00091945      -5.08805126
Ni       1.11766235       4.88886181       1.99820914        2 6h       0.00473563      -0.00010403       0.00114072      -6.40697657
Ni      -2.39105572       5.66061290       5.98637647        2 6h       0.00248896      -0.01742693       0.00274467      -6.29476587
Ni      -1.25565519       7.76921871       6.03839239        2 6h       0.00855710       0.00166765       0.00791794      -6.37327405
Al      -3.60955535       7.67110113       5.96284103        2 6h      -0.00172347       0.00530003      -0.00398703      -5.02797327
Nb       4.84578535       2.77637976       0.42938929        0 4f       0.00515820       0.00097316       0.00076231      -9.55769501
Nb       7.29168366       1.35197415       4.48599049        0 4f       0.00489810      -0.00439550      -0.00334903      -9.59663400
Nb       7.32817934       1.42758211       7.59257730        0 4f       0.00516525       0.00661358       0.00401824      -9.54785968
Nb       4.88683811       2.77841844       3.47950149        0 4f      -0.00499737      -0.00092268       0.00043250      -9.58199386
Ni       4.84359867       0.00651680       0.03518960        1 2a      -0.00066138      -0.00045333      -0.00676422      -6.42030827
Al       4.79309249      -0.07849269       4.07394949        1 2a      -0.00417791      -0.00040823       0.01370758      -4.99213653
Ni       7.23558368       2.74049426       1.97500017        2 6h       0.00083866      -0.00392978       0.00473463      -6.39796559
Al       6.15175638       0.64924083       1.95211390        2 6h       0.01122276      -0.00429375       0.00092908      -5.01222073
Ni       8.47656236       0.65637637       2.11944145        2 6h       0.00493958       0.00169767       0.00356015      -6.37894639
Ni       4.91112705       1.41180313       6.04389176        2 6h      -0.00186267      -0.00680520      -0.00059779      -6.45748208
Al       6.10402990       3.49575361       6.00834714        2 6h      -0.00886805       0.00344592      -0.00184652      -5.13620139
Ni       3.68866191       3.52422398       6.01437264        2 6h      -0.00721461       0.00639358      -0.00119554      -6.42403748
Nb       2.34161340       6.90619906       0.51384576        0 4f       0.00522665      -0.00394083      -0.00685775      -9.51959261
Nb       4.73205885       5.56868528       4.52837546        0 4f       0.00479306      -0.00070217      -0.00076490      -9.54397251
Nb       4.75878312       5.55425172       7.52207829        0 4f       0.00017506       0.00352509      -0.00423978      -9.59096090
Nb       2.46259121       7.02847045       3.55526053        0 4f      -0.00394559      -0.00573385      -0.00197155      -9.62178125
Ni       2.42755667       4.21608197      -0.02637157        1 2a      -0.00465007       0.00058561      -0.01401648      -6.41554491
Ni       2.41749115       4.19089332       4.00799458        1 2a      -0.00217134       0.00396695       0.01548367      -6.40111033
Ni       4.76100591       6.94667935       2.07672573        2 6h       0.00293396      -0.00141581       0.00610968      -6.41490915
Al       3.57472663       4.85407164       2.00003496        2 6h       0.00301322       0.00693951       0.00167070      -5.10303654
Ni       5.98223916       4.85373382       1.97560122        2 6h      -0.00542870       0.00119744       0.00365222      -6.40848232
Ni       2.38119496       5.61159316       6.01328293        2 6h      -0.00489575      -0.01380963       0.00017679      -6.40114552
Ni       3.62490712       7.70435580       6.11793898        2 6h       0.00985754       0.00163863      -0.00730092      -6.54629216
Al       1.24229244       7.71051022       6.13145600        2 6h      -0.00383972      -0.00219135       0.00327740      -5.05034130
