48
Lattice="10.015514005281082 0.15711489562506215 0.011074327411019866 -4.871714246462664 8.789212624276507 -0.015501351293523627 0.0090108405428363 -0.009401261061707454 8.245710254590799" Properties=species:S:1:pos:R:3:spacegroup_kinds:I:1:site:S:1:forces:R:3:energies:R:1 spacegroup="P 63/m m c" unit_cell=conventional energy=-315.25696883370927 stress="-0.0003306581886284768 -0.00016245349443583303 -6.1692338691097e-05 -0.00016245349443583303 -0.0006065906970401606 0.00010438034557722081 -6.1692338691097e-05 0.00010438034557722081 -0.000616834053453711" free_energy=-315.25696883370927 pbc="T T T"
Nb       0.04541447       2.92586549       0.58702533        0 4f       0.00835461      -0.00505286       0.00452448      -9.48309357
Nb       2.56029771       1.57006877       4.70864605        0 4f      -0.00548767      -0.00086109       0.00399058      -9.51411018
Nb       2.50485854       1.52267204       7.66424747        0 4f      -0.00148964      -0.00264079      -0.00225210      -9.52042121
Nb       0.05266508       2.98604182       3.51209188        0 4f       0.00298912      -0.00054905      -0.00001182      -9.48495011
Al       0.00529182       0.00090427       0.00011466        1 2a       0.01127379       0.00492953      -0.00117921      -4.70560185
Ni      -0.01765487      -0.00175528       4.11512360        1 2a       0.00216255      -0.00358931       0.00343528      -6.56963090
Al       2.65682721       2.84601374       2.03957700        2 6h       0.00088875      -0.00498267      -0.00248579      -4.79770044
Al       1.36585392       0.71154940       2.20082708        2 6h       0.00933328       0.00412425       0.00250550      -4.90473724
Ni       3.75438022       0.76127198       2.06742891        2 6h       0.00632344       0.00173161      -0.00225084      -6.32533089
Al      -0.09025117       1.57345076       6.04410718        2 6h       0.00644942       0.00508522       0.00867659      -4.87101443
Al       1.11314511       3.75309079       6.20099068        2 6h      -0.00230975       0.00296079      -0.00234131      -4.81086826
Ni      -1.24421021       3.68148337       6.17750894        2 6h      -0.00744645      -0.00140415      -0.00125282      -6.49475629
Nb      -2.37875904       7.36961661       0.46320490        0 4f       0.00633261      -0.00248657      -0.01209483      -9.45939245
Nb       0.08646678       5.92981213       4.55540271        0 4f      -0.00861772       0.00432681      -0.00402345      -9.52862397
Nb       0.08874313       5.93168948       7.81469005        0 4f      -0.00140948      -0.00165309      -0.00277729      -9.43834140
Nb      -2.28743272       7.31825975       3.66100978        0 4f       0.00515207      -0.00276493      -0.01019818      -9.41329621
Al      -2.42619123       4.37287213       0.00641266        1 2a      -0.00290275      -0.00243406      -0.00716777      -4.81419426
Al      -2.42432006       4.36738133       4.09929646        1 2a      -0.00613637       0.00448995       0.00918948      -4.84511279
Al       0.10819826       7.41779714       2.04706713        2 6h       0.01278188      -0.01166261      -0.00331147      -4.86524512
Al      -1.18786295       5.23253443       2.05019194        2 6h       0.00489915      -0.00134597      -0.00244717      -4.75367615
Al       1.29985338       5.20877388       2.05719485        2 6h      -0.00675880      -0.00702253      -0.00039407      -4.61038269
Al      -2.33841793       5.90168304       6.19210413        2 6h       0.00570131      -0.01407312       0.00241260      -4.74051047
Al      -1.08071351       8.06362708       6.19854902        2 6h       0.00722831      -0.00148066       0.00664484      -4.75172852
Al      -3.61422074       8.08132042       6.03484841        2 6h       0.00644006      -0.01162634      -0.00313143      -4.75522666
Nb       5.03975073       3.04781028       0.42111501        0 4f      -0.00098754       0.00546522       0.00415810      -9.45337070
Nb       7.48082116       1.64465539       4.62261531        0 4f      -0.00244439       0.00514251       0.00359313      -9.43301763
Nb       7.56673467       1.59757010       7.73352976        0 4f       0.00430909      -0.00007189       0.01591131      -9.48929559
Nb       5.04201467       3.04140069       3.69363838        0 4f       0.00189354      -0.00436758       0.00063361      -9.54519227
Al       5.09739931       0.16496965       0.06732999        1 2a       0.00761524       0.00024074       0.00187565      -4.96892920
Al       5.09274814       0.14544514       4.07540100        1 2a      -0.00567702      -0.00273048      -0.00585960      -4.98545937
Al       7.38411035       2.95226139       2.04601884        2 6h      -0.00032048       0.00012287       0.00116507      -4.94059192
Ni       6.29421226       0.82156100       2.06787754        2 6h       0.01203902       0.00186273       0.00112106      -6.33213270
Al       8.67037031       0.79166549       2.18006533        2 6h      -0.00670463       0.00232814      -0.00103563      -4.94153308
Al       5.08874229       1.57269642       6.19322536        2 6h       0.00069804       0.00595324      -0.00268491      -4.70799121
Al       6.33239866       3.73018410       6.19117147        2 6h      -0.01185601      -0.00152405       0.00040351      -4.72631581
Al       3.83971753       3.73218797       6.18305562        2 6h      -0.01378618       0.00651017       0.00357229      -4.61438376
Nb       2.68267065       7.36277533       0.54981953        0 4f       0.00886413       0.00329475       0.00683586      -9.50565941
Nb       5.07887992       5.93479093       4.70386825        0 4f      -0.00602594       0.00687452       0.00565168      -9.52825920
Nb       5.09121938       6.00396502       7.67288733        0 4f      -0.00258708       0.00941819      -0.00892465      -9.53251490
Nb       2.62797735       7.30806842       3.55896142        0 4f      -0.00270672       0.00316284      -0.00565949      -9.49481718
Al       2.56739086       4.47291353      -0.00170961        1 2a      -0.00199818       0.00822720       0.00232773      -4.58738664
Al       2.56703397       4.46077786       4.11986142        1 2a      -0.00247003       0.00337264      -0.00388297      -4.63520362
Al       5.26540761       7.35495480       2.19318054        2 6h      -0.00228017      -0.00651088      -0.00630062      -4.87392394
Al       4.02755625       5.18793676       2.04473532        2 6h      -0.00277602       0.01300087       0.00480090      -4.81103339
Ni       6.39611491       5.23909272       2.06169894        2 6h      -0.00709033      -0.00902665       0.00170699      -6.50045304
Al       2.47441936       6.09260460       6.19681278        2 6h      -0.00963282       0.00108165      -0.00064864      -4.78856539
Al       3.74736069       8.23630786       6.05183929        2 6h      -0.00127389      -0.00940568       0.00312287      -4.87212028
Ni       1.35482092       8.18975767       6.18357143        2 6h      -0.00855335       0.00556057      -0.00594306      -6.53087256
