48
Lattice="10.216039781443014 0.02474960608446844 4.470561180829869e-16 -5.086583880012497 8.768713860140227 -5.553916893069531e-16 3.6618660031237803e-16 -6.156023811137313e-17 8.291299503218472" Properties=species:S:1:pos:R:3:spacegroup_kinds:I:1:site:S:1:forces:R:3:energies:R:1 spacegroup="P 63/m m c" unit_cell=conventional energy=-309.5364438276085 stress="-0.0005109882057630242 -0.00020639507432907494 1.497136886016401e-16 -0.00020639507432907494 5.522134655538736e-05 -1.6804474490316432e-16 1.497136886016401e-16 -1.6804474490316432e-16 -0.0002811991502959128" free_energy=-309.5364438276085 pbc="T T T"
Nb       0.01055657       2.97839921       0.58130474        0 4f      -0.00259744       0.00513834      -0.00017539      -9.49407286
Nb       2.55955598       1.38775896       4.59858189        0 4f      -0.00279075      -0.00366940      -0.00301045      -9.45384874
Nb       2.55955598       1.38775896       7.83836737        0 4f      -0.00279075      -0.00366940       0.00301045      -9.45384874
Nb       0.01055657       2.97839921       3.56434501        0 4f      -0.00259744       0.00513834       0.00017539      -9.49407286
Al      -0.12408127       0.09116155      -0.09639149        1 2a      -0.00049800       0.00030036      -0.00714078      -4.95390121
Al      -0.12408127       0.09116155       4.24204124        1 2a      -0.00049800       0.00030036       0.00714078      -4.95390121
Al       2.54734744       2.88065561       2.07282488        2 6h       0.00822683       0.00424250       0.00000000      -4.60315918
Al       1.29012668       0.75037618       2.07282488        2 6h       0.00344633       0.00906888       0.00000000      -4.51470795
Al       3.77183344       0.66558829       2.07282488        2 6h      -0.00477000      -0.01211413      -0.00000000      -4.74625934
Ni       0.02500765       1.46389827       6.21847463        2 6h      -0.00196608      -0.00206339      -0.00000000      -6.21346771
Al       1.30053739       3.47286472       6.21847463        2 6h      -0.00526676      -0.00257626      -0.00000000      -5.00105020
Al      -1.22149515       3.46506066       6.21847463        2 6h       0.00091130       0.00840754       0.00000000      -4.84990097
Nb      -2.60166742       7.31523173       0.46597533        0 4f      -0.00423865       0.00464111      -0.00417859      -9.51187118
Nb       0.06144004       5.80116763       4.75680140        0 4f       0.00081097      -0.00565524       0.00367753      -9.42678940
Nb       0.06144004       5.80116763       7.68014786        0 4f       0.00081097      -0.00565524      -0.00367753      -9.42678940
Nb      -2.60166742       7.31523173       3.67967442        0 4f      -0.00423865       0.00464111       0.00417859      -9.51187118
Al      -2.50674388       4.37300067      -0.01339097        1 2a      -0.00134505      -0.00479189      -0.00525365      -4.61570529
Al      -2.50674388       4.37300067       4.15904072        1 2a      -0.00134505      -0.00479189       0.00525365      -4.61570529
Ni       0.04326816       7.35408470       2.07282488        2 6h       0.00137346       0.00476244      -0.00000000      -6.40466952
Al      -1.20039423       5.31890430       2.07282488        2 6h      -0.00259821      -0.00466058      -0.00000000      -4.81569372
Al       1.27380987       5.29604461       2.07282488        2 6h      -0.00225951      -0.00562560       0.00000000      -4.81785368
Al      -2.53278372       5.88272974       6.21847463        2 6h       0.00256028       0.00866009       0.00000000      -4.56623390
Al      -1.30200075       8.01049503       6.21847463        2 6h      -0.00711106      -0.00410263       0.00000000      -4.55931298
Al      -3.83678978       8.04603016       6.21847463        2 6h       0.00741685      -0.01160429      -0.00000000      -4.90878092
Nb       5.12090075       2.90616144       0.55819567        0 4f       0.00353068      -0.00259679       0.00460550      -9.54087359
Nb       7.54771842       1.53987743       4.61938242        0 4f       0.00225474      -0.00136540       0.00364538      -9.45435439
Nb       7.54771842       1.53987743       7.81756683        0 4f       0.00225474      -0.00136540      -0.00364538      -9.45435439
Nb       5.12090075       2.90616144       3.58745408        0 4f       0.00353068      -0.00259679      -0.00460550      -9.54087359
Al       5.13071496      -0.11221191       0.00974049        1 2a       0.00011290       0.00136094       0.00095107      -4.77799816
Al       5.13071496      -0.11221191       4.13590926        1 2a       0.00011290       0.00136094      -0.00095107      -4.77799816
Al       7.65307510       2.91379452       2.07282488        2 6h      -0.00613136       0.00571401      -0.00000000      -4.58387345
Al       6.41049240       0.71838161       2.07282488        2 6h       0.00259625       0.00377656      -0.00000000      -4.74325832
Al       8.88552599       0.79037976       2.07282488        2 6h       0.00120142       0.00855619      -0.00000000      -4.50738727
Al       4.95822299       1.57726434       6.21847463        2 6h       0.01025029       0.00095693      -0.00000000      -4.79687487
Al       6.19435590       3.72098301       6.21847463        2 6h      -0.00019896      -0.00883857      -0.00000000      -4.79384245
Ni       3.78810775       3.67593580       6.21847463        2 6h       0.01014653      -0.00613622      -0.00000000      -6.43176995
Nb       2.63753158       7.32037663       0.53504857        0 4f      -0.00434059       0.00478103      -0.00511055      -9.50161343
Nb       5.18559820       5.89084904       4.58862857        0 4f       0.00126663       0.00369384       0.00056738      -9.50034996
Nb       5.18559820       5.89084904       7.84832068        0 4f       0.00126663       0.00369384      -0.00056738      -9.50034996
Nb       2.63753158       7.32037663       3.61060118        0 4f      -0.00434059       0.00478103       0.00511055      -9.50161343
Al       2.61862393       4.35818858      -0.04856305        1 2a       0.00131462      -0.00302127       0.00658856      -4.77039120
Al       2.61862393       4.35818858       4.19421280        1 2a       0.00131462      -0.00302127      -0.00658856      -4.77039120
Al       5.12868362       7.31349568       2.07282488        2 6h      -0.00795780      -0.01083548       0.00000000      -4.52988715
Al       3.89210317       5.15792978       2.07282488        2 6h       0.01000241       0.00243705       0.00000000      -4.54207172
Al       6.37113300       5.17745370       2.07282488        2 6h      -0.00242946       0.01483526      -0.00000000      -4.52088535
Al       2.76402762       5.94020250       6.21847463        2 6h       0.00837350       0.00533884       0.00000000      -4.98752804
Ni       3.86713020       8.04979725       6.21847463        2 6h      -0.00282154       0.00326203       0.00000000      -6.27578560
Al       1.49640934       8.11392407       6.21847463        2 6h      -0.00995481      -0.00909244       0.00000000      -4.81865079
