48
Lattice="9.700246930196649 0.027773290334585494 -0.008296583444844118 -4.826074810705998 8.37236250682533 0.0015923626890847768 -0.006768613730198672 -0.0024093239376994403 7.934071785820198" Properties=species:S:1:pos:R:3:spacegroup_kinds:I:1:site:S:1:forces:R:3:energies:R:1 spacegroup="P 63/m m c" unit_cell=conventional energy=-349.8907576446048 stress="1.4911273811565947e-05 -0.00018490376996636434 0.00020554890409616185 -0.00018490376996636434 0.00015772504557808422 6.29042722375476e-05 0.00020554890409616185 6.29042722375476e-05 2.5359763776243886e-05" free_energy=-349.8907576446048 pbc="T T T"
Nb      -0.11328865       2.80440648       0.54307633        0 4f       0.00046408      -0.00142596      -0.00212368      -9.55551347
Nb       2.33883185       1.30743175       4.46284773        0 4f      -0.00603149      -0.00139116      -0.00290848      -9.59209734
Nb       2.43451961       1.38895781       7.44726684        0 4f      -0.00165997       0.00479194      -0.00210809      -9.57955915
Nb      -0.08998781       2.71137227       3.42333649        0 4f      -0.00225887       0.00149411       0.00619944      -9.54226924
Al       0.01299188      -0.01815999      -0.00907783        1 2a       0.00035501       0.00363786       0.00046553      -5.06922063
Ni      -0.00250279       0.00449838       3.95809198        1 2a       0.00313037       0.00184971      -0.00466908      -6.39922975
Ni       2.48646832       2.75251225       1.98459732        2 6h       0.00539374       0.00521173      -0.00083536      -6.37298754
Ni       1.27156468       0.67655738       1.98682724        2 6h      -0.00202979      -0.00786149      -0.00149491      -6.44751782
Al       3.67659669       0.68177375       1.98971772        2 6h      -0.00436031      -0.00289324       0.00485814      -5.12126954
Ni      -0.00843008       1.40516973       5.93577031        2 6h       0.00682885      -0.01167392       0.00366976      -6.36917522
Al       1.15557252       3.44383349       5.94527211        2 6h       0.00405856       0.00365458      -0.00380433      -5.12930555
Ni      -1.20741024       3.49516357       5.95047922        2 6h      -0.01112860       0.00404856      -0.00084229      -6.36384888
Nb      -2.38702087       6.86528358       0.46775203        0 4f      -0.00145152       0.00294023      -0.00114996      -9.54830546
Nb      -0.09830930       5.68046628       4.48696265        0 4f       0.00493997      -0.00429243       0.00197656      -9.59536033
Nb      -0.08124674       5.65808596       7.39428341        0 4f      -0.00717474      -0.00087599      -0.00348058      -9.59228147
Nb      -2.47824189       6.92354248       3.49916167        0 4f      -0.00325027      -0.00142334       0.00012944      -9.53505323
Ni      -2.41962394       4.18534324       0.00196331        1 2a      -0.00175546      -0.00504260      -0.01268769      -6.42285580
Ni      -2.42615974       4.18707447       3.96934827        1 2a      -0.00076180      -0.00200076       0.01299397      -6.39491571
Ni       0.08146886       6.94461616       1.97448736        2 6h       0.00285224      -0.00523818      -0.00264793      -6.38991251
Ni      -1.17549087       4.88166799       1.98846531        2 6h       0.00785737       0.00548821      -0.00099138      -6.41724498
Al       1.23339022       4.87304430       2.00175356        2 6h      -0.00306966      -0.00612757      -0.00060770      -5.13350025
Ni      -2.44650705       5.58058886       5.95387199        2 6h      -0.00082803      -0.00853921      -0.00204605      -6.40944861
Ni      -1.21302872       7.64284262       5.94915383        2 6h       0.00226786       0.00250075      -0.00052631      -6.36182366
Ni      -3.60199264       7.67205946       5.93836776        2 6h      -0.01332019       0.00445693       0.00237489      -6.42362873
Nb       4.89254380       2.89950246       0.55133045        0 4f      -0.00067216       0.00273650       0.00057758      -9.59640484
Nb       7.34790309       1.43183911       4.41313414        0 4f       0.00360380       0.00808396       0.00343370      -9.57067519
Nb       7.28105909       1.50325791       7.46156582        0 4f       0.00026840       0.00215061       0.00006019      -9.59561647
Nb       4.87116931       2.94443963       3.43567514        0 4f      -0.00006639      -0.00324214       0.00302020      -9.59689836
Ni       4.84878197       0.04553013      -0.00694326        1 2a       0.00070592      -0.00308823      -0.00000003      -6.33092501
Ni       4.84958531       0.01636376       3.96258822        1 2a      -0.00145884      -0.00002972       0.00057483      -6.30917696
Ni       7.27816649       2.80745675       1.98000239        2 6h       0.00142874      -0.00959696       0.00165110      -6.41832228
Ni       6.12595748       0.70740160       1.98755389        2 6h       0.00368390       0.00575907       0.00017715      -6.34786023
Ni       8.51711925       0.75132933       1.96117672        2 6h      -0.00187091       0.00314597       0.00325436      -6.43766984
Al       4.84527041       1.40214733       5.92681174        2 6h      -0.00034831      -0.00522843      -0.00125482      -5.13783301
Ni       6.05821570       3.47422453       5.94197180        2 6h       0.01448278       0.00502912       0.00145577      -6.38933262
Ni       3.65537944       3.46566054       5.96000234        2 6h      -0.00021958      -0.00245337       0.00126489      -6.39128338
Nb       2.38888308       7.08813489       0.55616487        0 4f       0.00059195      -0.00348259      -0.00195606      -9.59569017
Nb       4.95127631       5.62455389       4.42198624        0 4f       0.00110148       0.00212773      -0.00011841      -9.54257926
Nb       4.95734666       5.51211609       7.46314939        0 4f      -0.00355777       0.00587698      -0.00326891      -9.54084302
Nb       2.49067805       7.10483351       3.40515590        0 4f       0.00306731       0.00813266       0.00398263      -9.60682351
Ni       2.37830911       4.22134333      -0.01602964        1 2a       0.00122477      -0.00248981      -0.00155330      -6.36312814
Ni       2.39801623       4.21128919       3.99156963        1 2a      -0.00260531       0.00038505      -0.00107453      -6.33783199
Ni       4.85895516       6.98029066       1.97516607        2 6h       0.00185649       0.00331671       0.00289615      -6.43235940
Ni       3.68278445       4.89705624       1.98244964        2 6h       0.00058225       0.00080304       0.00235843      -6.33136155
Ni       6.07973063       4.92153640       1.97669716        2 6h      -0.00032756      -0.00332282       0.00217245      -6.40867028
Al       2.49640036       5.65424287       5.95081630        2 6h       0.00317736      -0.00055911      -0.00599021      -5.14536057
Ni       3.64413927       7.69318468       5.92282358        2 6h       0.00288801       0.00350824      -0.00027266      -6.34695303
Ni       1.24304316       7.64411534       5.95349131        2 6h      -0.00660368       0.00114878      -0.00113445      -6.35083365
