48
Lattice="10.116402392132121 -0.036873139855368435 4.632495806182738e-16 -5.09013707456486 8.841518104518828 -2.922500579506426e-15 3.791866600195112e-16 1.6616183498960953e-16 8.109208767220435" Properties=species:S:1:pos:R:3:spacegroup_kinds:I:1:site:S:1:forces:R:3:energies:R:1 spacegroup="P 63/m m c" unit_cell=conventional energy=-318.20331137591387 stress="0.00033237201569479474 0.00011708164462955404 -8.816030787341234e-17 0.00011708164462955404 0.0001866314590869284 -1.3995577749443918e-16 -8.816030787341234e-17 -1.3995577749443918e-16 0.00032021054599081335" free_energy=-318.20331137591387 pbc="T T T"
Nb      -0.02998751       2.93902711       0.47841691        0 4f       0.00397712       0.00314354      -0.00394502      -9.52578327
Nb       2.48041754       1.47512234       4.53200060        0 4f      -0.00204568       0.00254412       0.00147444      -9.51674818
Nb       2.48041754       1.47512234       7.63181255        0 4f      -0.00204568       0.00254412      -0.00147444      -9.51674818
Nb      -0.02998751       2.93902711       3.57618747        0 4f       0.00397712       0.00314354       0.00394502      -9.52578327
Al      -0.09119221       0.04731362       0.02632253        1 2a       0.00301610       0.00201312      -0.00687374      -4.68773139
Al      -0.09119221       0.04731362       4.02828186        1 2a       0.00301610       0.00201312       0.00687374      -4.68773139
Al       2.50942158       2.94197920       2.02730219        2 6h       0.00028373      -0.00223921       0.00000000      -4.69756183
Al       1.24830134       0.80976589       2.02730219        2 6h      -0.00531057       0.00656018       0.00000000      -4.69409583
Al       3.77728096       0.78359659       2.02730219        2 6h      -0.00189838      -0.00591465       0.00000000      -4.71125884
Al       0.01315029       1.53600549       6.08190658        2 6h       0.00790006      -0.00687751      -0.00000000      -4.50932984
Al       1.31814588       3.64817675       6.08190658        2 6h       0.00109017       0.00168700      -0.00000000      -4.77813599
Al      -1.22915478       3.66161396       6.08190658        2 6h      -0.01361763       0.00988102      -0.00000000      -4.65496525
Nb      -2.57139762       7.37020499       0.56084562        0 4f       0.00296202      -0.00145355       0.00030965      -9.51495158
Nb      -0.03863053       5.84707021       4.54859505        0 4f      -0.00098092       0.00101964       0.00079925      -9.46675310
Nb      -0.03863053       5.84707021       7.61521810        0 4f      -0.00098092       0.00101964      -0.00079925      -9.46675310
Nb      -2.57139762       7.37020499       3.49375876        0 4f       0.00296202      -0.00145355      -0.00030965      -9.51495158
Al      -2.63203297       4.27111472      -0.00375303        1 2a      -0.00023847       0.00205989      -0.00145635      -4.87847432
Al      -2.63203297       4.27111472       4.05835741        1 2a      -0.00023847       0.00205989       0.00145635      -4.87847432
Al       0.02844867       7.35475229       2.02730219        2 6h      -0.00840352       0.00131798       0.00000000      -4.77998514
Al      -1.25257226       5.11257550       2.02730219        2 6h      -0.00353744      -0.00637949       0.00000000      -4.73659515
Al       1.23825360       5.14925400       2.02730219        2 6h       0.00890751       0.00308938      -0.00000000      -4.68798994
Al      -2.49273379       5.96221482       6.08190658        2 6h       0.00033729       0.00570983       0.00000000      -4.86826697
Ni      -1.27926338       8.08202813       6.08190658        2 6h      -0.00727485      -0.00154736      -0.00000000      -6.36670165
Al      -3.66127791       8.14893920       6.08190658        2 6h      -0.00330446       0.00407592      -0.00000000      -4.79729098
Nb       5.02700520       2.92526113       0.58782075        0 4f      -0.00047972      -0.00295047       0.00403139      -9.44716232
Nb       7.59814828       1.38769706       4.59842093        0 4f      -0.00290953       0.00035810       0.00042948      -9.52545639
Nb       7.59814828       1.38769706       7.56539222        0 4f      -0.00290953       0.00035810      -0.00042948      -9.52545639
Nb       5.02700520       2.92526113       3.46678363        0 4f      -0.00047972      -0.00295047      -0.00403139      -9.44716232
Al       5.02614463       0.10067138      -0.06308624        1 2a      -0.00122506      -0.00258626       0.00348366      -4.92742494
Al       5.02614463       0.10067138       4.11769062        1 2a      -0.00122506      -0.00258626      -0.00348366      -4.92742494
Ni       7.55428980       2.89494710       2.02730219        2 6h       0.00408098       0.00350983       0.00000000      -6.51395471
Ni       6.28581822       0.69537540       2.02730219        2 6h       0.00395052      -0.00162093       0.00000000      -6.56179775
Ni       8.80880041       0.70840344       2.02730219        2 6h      -0.00538661       0.00837605      -0.00000000      -6.52942693
Ni       5.13320035       1.46520990       6.08190658        2 6h       0.00326827      -0.00028399       0.00000000      -6.31705416
Ni       6.36335526       3.64897904       6.08190658        2 6h       0.00261767       0.00190502      -0.00000000      -6.44759258
Al       3.97718413       3.56933598       6.08190658        2 6h       0.00207626      -0.01227959      -0.00000000      -5.13326729
Nb       2.47802343       7.35885558       0.47915941        0 4f       0.00132815      -0.00176342      -0.00083561      -9.48386555
Nb       5.08156777       5.93763543       4.55846517        0 4f      -0.00208635      -0.00231779       0.00382594      -9.48666637
Nb       5.08156777       5.93763543       7.60534798        0 4f      -0.00208635      -0.00231779      -0.00382594      -9.48666637
Nb       2.47802343       7.35885558       3.57544497        0 4f       0.00132815      -0.00176342       0.00083561      -9.48386555
Ni       2.55790678       4.38601767      -0.01290429        1 2a      -0.00089186      -0.00198051       0.00437950      -6.60492110
Ni       2.55790678       4.38601767       4.06750867        1 2a      -0.00089186      -0.00198051      -0.00437950      -6.60492110
Al       4.96504096       7.31330292       2.02730219        2 6h      -0.00076342       0.00248015       0.00000000      -4.69986039
Al       3.77181960       5.13966437       2.02730219        2 6h       0.00585304      -0.00034148       0.00000000      -4.69487024
Al       6.26260829       5.13469171       2.02730219        2 6h       0.00395640      -0.00257904       0.00000000      -4.69037121
Al       2.56188337       5.82915204       6.08190658        2 6h       0.00664339       0.00437171      -0.00000000      -4.77448767
Al       3.71081440       8.01810810       6.08190658        2 6h      -0.00099297      -0.00345205       0.00000000      -4.56955768
Al       1.19307639       8.00213494       6.08190658        2 6h      -0.00132704      -0.00562163      -0.00000000      -4.85701627
