48
Lattice="9.757999735485477 -0.009111168097409788 0.03227960895613694 -4.886886609668145 8.53011893700427 -0.03620530909743164 0.026328326131112693 -0.01890911513859524 8.038175762948784" Properties=species:S:1:pos:R:3:spacegroup_kinds:I:1:site:S:1:forces:R:3:energies:R:1 spacegroup="P 63/m m c" unit_cell=conventional energy=-339.23287865962163 stress="-0.00036791543613884684 1.2400988481458068e-05 -0.0004244734307059473 1.2400988481458068e-05 3.7319305863421216e-07 0.0002542436170135942 -0.0004244734307059473 0.0002542436170135942 0.0002801132165080949" free_energy=-339.23287865962163 pbc="T T T"
Nb      -0.01852632       2.69718663       0.40835593        0 4f      -0.00122109      -0.00152233      -0.00295475      -9.43759021
Nb       2.45142853       1.45083285       4.56504849        0 4f      -0.00280478      -0.00149232       0.00104827      -9.58945349
Nb       2.41075886       1.43979662       7.60898822        0 4f      -0.00465276      -0.00247170       0.00161276      -9.57650529
Nb      -0.02499143       2.80599256       3.53072291        0 4f      -0.00356589       0.00237909       0.00031694      -9.52997327
Ni       0.03197473       0.02021656       0.01249395        1 2a      -0.00005985      -0.00320001      -0.00221872      -6.40431371
Al       0.00576223      -0.00977287       4.02610014        1 2a      -0.00050784      -0.00021648      -0.00152894      -5.10872965
Ni       2.50949431       2.79376372       2.05089427        2 6h       0.00251763       0.00019694      -0.00091772      -6.40721179
Ni       1.30244259       0.70731024       2.02503602        2 6h       0.00404771      -0.00169052       0.00091357      -6.41065608
Ni       3.73185703       0.70774037       2.02297014        2 6h      -0.00306872       0.00421113       0.00008636      -6.57396377
Ni       0.01107347       1.40764878       6.03550179        2 6h       0.00201496      -0.00053837       0.00255951      -6.45244604
Ni       1.21709416       3.50008055       6.01142072        2 6h      -0.00128333       0.00223602      -0.00237210      -6.44623251
Ni      -1.21669325       3.51305204       6.00473548        2 6h       0.00070268       0.00345748       0.00190845      -6.37132735
Nb      -2.56169543       7.12335896       0.50422596        0 4f      -0.00131309       0.00170070      -0.00066774      -9.53236723
Nb      -0.04336032       5.63355897       4.47695778        0 4f      -0.00300326       0.00470717      -0.00133294      -9.62522502
Nb      -0.02487639       5.61910234       7.47741475        0 4f      -0.00028936       0.00721779       0.00251217      -9.59379016
Nb      -2.50469648       7.04833856       3.45481297        0 4f       0.00202506       0.00262353       0.00517467      -9.53917058
Ni      -2.48692948       4.25448122      -0.04735627        1 2a       0.00049337      -0.00048720       0.00211969      -6.33257464
Ni      -2.43895344       4.26904941       4.00620188        1 2a      -0.00212875      -0.00559402       0.00176598      -6.36827729
Al      -0.02778167       7.00141405       1.97567321        2 6h      -0.00067711      -0.00182021       0.00189338      -4.73006091
Al      -1.36799906       4.85368437       1.95316747        2 6h       0.01100184       0.00968338       0.00256992      -4.96493719
Al       1.23022875       4.83476857       1.88007089        2 6h      -0.00067286      -0.00172008       0.00271958      -4.92871934
Ni      -2.44855492       5.65587623       6.01393927        2 6h      -0.00047484       0.00104564       0.00154556      -6.32316702
Al      -1.38012829       7.70824084       6.00388486        2 6h      -0.00122206       0.00426673      -0.00067320      -4.85908211
Ni      -3.67595003       7.78473694       6.00598781        2 6h       0.00160003      -0.00296120      -0.00149607      -6.34338252
Nb       4.90925678       2.94010081       0.59530054        0 4f      -0.00554889      -0.00885657       0.00195252      -9.58845310
Nb       7.38421869       1.49813263       4.58481743        0 4f       0.00107276      -0.00043165       0.00277626      -9.57457232
Nb       7.44149666       1.43831124       7.51150479        0 4f      -0.00121048      -0.00184236      -0.00182868      -9.57743758
Nb       4.92541065       2.90606450       3.49597192        0 4f       0.00044276      -0.00016334      -0.00028130      -9.58444055
Al       4.84142208       0.02701821       0.02686036        1 2a       0.00704898      -0.00748198      -0.00192983      -4.73333027
Al       4.84626986       0.01181987       4.01186152        1 2a       0.00961211       0.00115163      -0.00087437      -4.72358671
Ni       7.26246820       2.81421092       2.01725931        2 6h      -0.00031974       0.00768116       0.00113011      -6.31849861
Al       6.28912151       0.75785388       2.02474161        2 6h      -0.01306151      -0.00672161      -0.00261221      -4.91072783
Ni       8.61507242       0.76288967       2.03551732        2 6h       0.00551558      -0.00017296       0.00020469      -6.34234630
Al       4.95709290       1.52725536       6.04404499        2 6h      -0.00178161      -0.00985107      -0.00025947      -4.73280533
Ni       6.07293956       3.55987725       6.01975495        2 6h       0.00483043       0.00034551       0.00080505      -6.38648927
Al       3.68857438       3.65486320       6.15359109        2 6h      -0.00204887       0.00594787      -0.00399775      -4.97653361
Nb       2.49262634       7.08045269       0.48056624        0 4f       0.00199323       0.00694959      -0.00240598      -9.57768039
Nb       5.01402732       5.66262163       4.55027764        0 4f      -0.00393389      -0.00286538      -0.00288187      -9.59218008
Nb       4.98496311       5.76995374       7.59993314        0 4f       0.00076009       0.00159836       0.00117063      -9.52800197
Nb       2.43748215       7.06911148       3.43257623        0 4f      -0.00242135      -0.00210872       0.00095251      -9.57625927
Ni       2.43504368       4.21783695       0.00367070        1 2a       0.00255107       0.00171771       0.00348498      -6.29255834
Al       2.44631917       4.27146828       4.02664385        1 2a       0.00098471       0.00221905      -0.00570726      -4.95197938
Ni       4.88546323       7.10642331       2.00153590        2 6h      -0.00394884       0.00049924      -0.00066624      -6.43471846
Ni       3.63846183       5.02567068       2.01276034        2 6h      -0.01089528      -0.00892453      -0.00308130      -6.42257713
Ni       6.02307933       4.96113269       2.02446460        2 6h       0.01029206      -0.00338615       0.00380814      -6.35417324
Ni       2.44033168       5.67073198       6.04888665        2 6h       0.00779341      -0.00586203      -0.00267124      -6.38350485
Ni       3.67039992       7.78269036       6.06214192        2 6h      -0.00003138       0.00381519      -0.00092049      -6.34571300
Al       1.36119233       7.70922053       5.98156970        2 6h      -0.00515303       0.00673189      -0.00075153      -4.87515388
