48
Lattice="9.997374343027966 0.0737455953601568 -0.036338958355929256 -4.934794213163076 8.61558246638906 0.03382237671021839 -0.029677246336763413 0.01474551703516685 8.134137346401202" Properties=species:S:1:pos:R:3:spacegroup_kinds:I:1:site:S:1:forces:R:3:energies:R:1 spacegroup="P 63/m m c" unit_cell=conventional energy=-326.80806231762597 stress="0.0001400821102707742 4.806486991731876e-05 0.000365680593356516 4.806486991731876e-05 4.2927841704706006e-05 -0.00020501941616956585 0.000365680593356516 -0.00020501941616956585 2.820271067268209e-05" free_energy=-326.80806231762597 pbc="T T T"
Nb      -0.05976611       2.83383933       0.54151511        0 4f      -0.00216605       0.00082811       0.00199241      -9.56759790
Nb       2.50552321       1.51161702       4.50498455        0 4f      -0.00071723      -0.00112030       0.00229046      -9.53855560
Nb       2.46591126       1.39610251       7.66837295        0 4f      -0.00077968      -0.00811310       0.00441281      -9.54307589
Nb       0.00964947       2.89226385       3.59730968        0 4f       0.00485629       0.00537866       0.00144549      -9.55589348
Al      -0.06714120       0.03183791      -0.11120171        1 2a       0.00047742      -0.00276455       0.00862328      -4.97199886
Ni       0.00638111      -0.06265309       4.00575229        1 2a       0.00081838      -0.00160911      -0.00712633      -6.48264618
Al       2.47789535       3.02606877       1.88600265        2 6h      -0.00278200      -0.00828154       0.00423351      -5.00390494
Al       1.26970106       0.74192958       2.09537663        2 6h      -0.00245883      -0.00103660      -0.00501172      -4.67316263
Al       3.71999744       0.79914055       2.01384032        2 6h       0.00280822      -0.00076852       0.00116873      -4.56628551
Ni       0.03304626       1.46627928       6.02656482        2 6h       0.00374597       0.00337720      -0.00200114      -6.43532649
Al       1.35088403       3.55995777       6.22947829        2 6h      -0.00758029      -0.00464565      -0.00406330      -5.09218680
Al      -1.19298114       3.50158532       6.12918848        2 6h       0.00476514      -0.00361880      -0.00100556      -4.84632154
Nb      -2.42911420       7.24227595       0.55589575        0 4f      -0.00164362      -0.00047377       0.00136358      -9.58558459
Nb       0.02044027       5.72390486       4.65564242        0 4f      -0.00248154       0.00064546       0.00014822      -9.50613407
Nb       0.08322631       5.70606580       7.65921731        0 4f      -0.00011233       0.00241566       0.00295378      -9.49791795
Nb      -2.36499754       7.21738965       3.52068056        0 4f      -0.00640732       0.00274750      -0.00760801      -9.57603986
Al      -2.53738060       4.45084295      -0.00299315        1 2a       0.00517534      -0.00111950       0.00679816      -4.93912825
Al      -2.54558226       4.44514318       4.10570704        1 2a       0.00168845      -0.00186512      -0.00761535      -4.93878077
Al       0.16791861       7.10235864       2.07563961        2 6h      -0.00869705       0.00970306       0.00122604      -4.70367410
Al      -1.09933890       5.00716170       2.06167969        2 6h      -0.00626925      -0.00330786      -0.00088862      -4.77322321
Ni       1.29484828       5.07389275       2.04231357        2 6h       0.00961211       0.00366659       0.00298580      -6.35449631
Ni      -2.45241754       5.73760530       6.12063598        2 6h       0.00530281      -0.00165951      -0.00159345      -6.52254543
Ni      -1.22480529       7.89576600       6.11731399        2 6h       0.00291060       0.00224868       0.00169401      -6.34195526
Al      -3.62806710       7.88188921       6.00338664        2 6h      -0.00536141       0.00345124       0.00098178      -5.11870407
Nb       5.00121695       2.88415563       0.47271684        0 4f       0.00154639       0.00033721       0.00270060      -9.55130805
Nb       7.42411947       1.54753059       4.54271737        0 4f       0.00128253      -0.00536406       0.00222769      -9.56530652
Nb       7.39768151       1.55237779       7.62720230        0 4f      -0.00251504       0.00207575       0.00264623      -9.58213405
Nb       4.99302169       2.88380299       3.52604258        0 4f       0.00194858       0.00550810       0.00511066      -9.58738084
Al       5.00069078      -0.09660970      -0.12298769        1 2a      -0.00170981       0.00048712       0.00471489      -4.89930231
Al       4.99137753      -0.05281918       4.16362747        1 2a      -0.00295455       0.00094587      -0.00333380      -4.89534621
Al       7.45494370       2.93070895       2.00467714        2 6h       0.00716914       0.00684342       0.00179998      -4.71361203
Al       6.27247652       0.78378512       2.00450826        2 6h      -0.00869155      -0.00504730      -0.00202030      -4.49593210
Al       8.72915135       0.77128492       2.09861559        2 6h      -0.00058556      -0.00070781      -0.00108341      -4.66479834
Al       4.84736373       1.54941663       6.09217188        2 6h      -0.00125528      -0.00169608       0.00045782      -4.95388891
Al       6.10540799       3.72269106       6.07744162        2 6h       0.00578349      -0.00429170       0.00236160      -4.89487274
Ni       3.75217713       3.67378830       6.10942276        2 6h       0.00058140       0.00740708      -0.00012025      -6.38945369
Nb       2.58056570       7.20690074       0.49809207        0 4f      -0.00174863      -0.00278280      -0.00379195      -9.60113871
Nb       4.93831314       5.89383954       4.64588256        0 4f       0.00686847      -0.00363571       0.00037859      -9.42515631
Nb       4.84931157       5.86647528       7.56198335        0 4f       0.00041071      -0.00534665      -0.00231810      -9.49417016
Nb       2.59206526       7.28747468       3.65027121        0 4f       0.00216314      -0.00305355      -0.00577439      -9.53895646
Ni       2.54790330       4.45189506      -0.01505474        1 2a       0.00273630       0.00452913      -0.00361459      -6.20165974
Al       2.55983369       4.44842881       4.07573744        1 2a       0.00049599      -0.00318004       0.00316422      -5.16124610
Al       5.07360680       7.06019588       2.07338663        2 6h      -0.00061046       0.01028826      -0.00242798      -5.02578712
Ni       3.80478757       5.08415404       2.05229412        2 6h      -0.00319115      -0.00606108       0.00389827      -6.33828486
Ni       6.29745284       5.06528319       2.00980064        2 6h       0.00164849       0.00195286       0.00172600      -6.48378200
Ni       2.51594267       5.85293005       6.05860600        2 6h      -0.00490880       0.00007810       0.00064634      -6.38755887
Ni       3.81916073       7.94137511       6.06589818        2 6h      -0.00099810      -0.00218261      -0.00716084      -6.38840169
Ni       1.37146099       7.99828848       6.12029976        2 6h       0.00183020       0.00881827      -0.00559188      -6.43344480
