48
Lattice="9.736038279505799 -0.0032781357864333574 0.015896377291424377 -4.870850847312806 8.527901926790596 -0.02033276876428606 0.012975368324324834 -0.011677302012005895 7.947345417193818" Properties=species:S:1:pos:R:3:spacegroup_kinds:I:1:site:S:1:forces:R:3:energies:R:1 spacegroup="P 63/m m c" unit_cell=conventional energy=-344.1802983991977 stress="0.00023953897885369498 6.880660620276818e-05 -0.0003446220781397508 6.880660620276818e-05 -4.183784296978404e-05 0.00024375563044984404 -0.0003446220781397508 0.00024375563044984404 -4.7026070650917225e-05" free_energy=-344.1802983991977 pbc="T T T"
Nb       0.08433706       2.86324938       0.43514991        0 4f       0.00724524      -0.00060896      -0.00197428      -9.48715077
Nb       2.43857457       1.42735250       4.44692704        0 4f      -0.00420467      -0.00160481      -0.00291945      -9.54867123
Nb       2.34128464       1.42347551       7.53789300        0 4f       0.00078540       0.00307890       0.00170816      -9.50526678
Nb      -0.00508207       2.84071922       3.52472427        0 4f      -0.00643062       0.00087800      -0.00147143      -9.54886480
Ni       0.04234046      -0.01845937       0.00180173        1 2a       0.00204777       0.00580169      -0.01178040      -6.32073209
Al       0.04297666      -0.02508682       4.04933762        1 2a      -0.00191238       0.00411006      -0.00461184      -5.06376148
Ni       2.43402369       2.81833971       1.98503286        2 6h      -0.00118837       0.00246996       0.00248716      -6.46791335
Ni       1.26071886       0.71313325       2.02857413        2 6h      -0.00496671      -0.00425437       0.00577939      -6.47158553
Ni       3.67935214       0.71278265       1.98611216        2 6h       0.00246349       0.00108932      -0.00522634      -6.38049323
Ni       0.01965900       1.42438563       5.99847763        2 6h      -0.00044092      -0.01064800      -0.00158162      -6.43188717
Ni       1.21542466       3.51869783       5.95849580        2 6h       0.01152372       0.00023850       0.00308808      -6.43196572
Ni      -1.19075462       3.51094190       5.94456231        2 6h       0.00009040       0.00189690      -0.00280652      -6.44932399
Nb      -2.44788112       7.23599382       0.57354143        0 4f       0.00152363       0.00076890       0.00020575      -9.55560952
Nb      -0.08367782       5.58790487       4.40257809        0 4f      -0.00199555      -0.00205726       0.00164593      -9.57621967
Nb       0.13348630       5.61687056       7.50395754        0 4f      -0.00036437       0.00651412      -0.00338392      -9.52934539
Nb      -2.30902437       7.16773892       3.37420948        0 4f       0.00217927      -0.00329145      -0.00082668      -9.55926682
Al      -2.38135886       4.35519435      -0.06275707        1 2a      -0.01040989      -0.00194444       0.00659125      -5.05937306
Ni      -2.41398138       4.27104281       3.91773974        1 2a       0.01088145       0.00310317       0.01482348      -6.27920393
Ni       0.01642368       7.10371029       1.97883941        2 6h       0.00327961      -0.00394859      -0.00385991      -6.37955511
Ni      -1.22266042       5.02090933       1.92013305        2 6h       0.00027329       0.00831051      -0.00353018      -6.51877551
Ni       1.17759548       4.96859171       1.98711517        2 6h      -0.00453539      -0.00766079      -0.00157108      -6.46525864
Ni      -2.42280493       5.68968346       5.91266991        2 6h       0.00048575      -0.01063855      -0.00343371      -6.36166358
Al      -1.28888235       7.71619557       5.96714545        2 6h      -0.00139316       0.00531456      -0.00094553      -5.06238259
Ni      -3.61334677       7.79537412       5.96130524        2 6h      -0.00999572       0.01129412       0.00987153      -6.32107829
Nb       4.82347227       2.89400115       0.51968487        0 4f      -0.00262761      -0.00537141      -0.00241260      -9.57948146
Nb       7.34366632       1.40247062       4.50851628        0 4f      -0.00201117       0.00173428      -0.00600858      -9.59815396
Nb       7.34232046       1.44340797       7.41096450        0 4f      -0.00251517       0.00577113       0.00179406      -9.56686527
Nb       4.79700059       2.74621313       3.38050670        0 4f       0.00406232      -0.00285779       0.00469581      -9.55404275
Ni       4.89388612      -0.02476169      -0.04107689        1 2a      -0.00144046      -0.00062237      -0.00390181      -6.51454372
Ni       4.88569985      -0.01875663       4.03797275        1 2a      -0.00256526      -0.00251105       0.00019790      -6.54496144
Al       7.28752007       2.81481218       2.03792754        2 6h      -0.00286067      -0.01392158      -0.00286161      -4.89018421
Ni       6.13419207       0.70389019       1.98962540        2 6h       0.00064991      -0.00014781       0.00096701      -6.44235791
Al       8.54684294       0.64494418       1.90088564        2 6h       0.00217003      -0.00266413       0.00663046      -4.99603812
Al       4.82412619       1.44300981       5.99115573        2 6h      -0.00318661      -0.00502927      -0.00179539      -4.92884505
Al       6.07208383       3.60574521       5.82700965        2 6h       0.01042188       0.00920191      -0.00039166      -5.01968111
Ni       3.69112014       3.52878040       5.98342609        2 6h      -0.01216299       0.00522321       0.00261940      -6.44904854
Nb       2.40534127       6.96510322       0.54791852        0 4f      -0.00389029       0.00722909      -0.00204975      -9.51248977
Nb       4.81714769       5.75040085       4.57484175        0 4f       0.00322154      -0.00087335      -0.00158053      -9.51929032
Nb       4.80142890       5.75000337       7.42429575        0 4f       0.00155933       0.00578545      -0.00661066      -9.61290303
Nb       2.37025173       7.07983051       3.37152507        0 4f       0.00491383      -0.00094525      -0.00305520      -9.56318905
Ni       2.41508442       4.25464036       0.00060660        1 2a      -0.00051294      -0.00160560       0.00237182      -6.38722782
Al       2.44138243       4.25785406       3.97470241        1 2a      -0.00377793       0.00149536      -0.00061420      -5.08321697
Ni       4.85538608       7.10116554       2.01987140        2 6h       0.00977288      -0.00603150       0.00447106      -6.43819680
Ni       3.63120676       4.98383320       1.97194144        2 6h       0.00942174       0.00409180       0.00898281      -6.37063088
Al       5.98340334       5.06724401       2.07858152        2 6h      -0.01429023       0.00899616       0.00095254      -5.03766367
Ni       2.45022510       5.65601330       5.96918921        2 6h       0.00720935      -0.01126620       0.00469944      -6.35672597
Ni       3.66752591       7.78211701       5.99493703        2 6h       0.00097175       0.00520842       0.00090759      -6.33424878
Al       1.33252466       7.71411960       5.93542373        2 6h       0.00252553      -0.00910100      -0.00428575      -5.10496352
