48
Lattice="9.66324060426985 0.05836732021207621 -0.037039784514033613 -4.781082001510803 8.386733096606724 0.03194765380125935 -0.030209819609555252 0.012642403992114885 7.940968666705463" Properties=species:S:1:pos:R:3:spacegroup_kinds:I:1:site:S:1:forces:R:3:energies:R:1 spacegroup="P 63/m m c" unit_cell=conventional energy=-349.67964834662723 stress="-0.00017470772503525806 0.0001880400005592191 0.0006581049585542503 0.0001880400005592191 0.00011983197654120235 -0.00023491792006275037 0.0006581049585542503 -0.00023491792006275037 1.2757024358702452e-05" free_energy=-349.67964834662723 pbc="T T T"
Nb       0.01524983       2.89452766       0.59329831        0 4f      -0.00242537      -0.00142485       0.00038255      -9.55477488
Nb       2.44982942       1.41179561       4.33488346        0 4f       0.00323624      -0.00962174      -0.00230158      -9.54239112
Nb       2.34064900       1.49750592       7.52466902        0 4f      -0.00166712      -0.00076574       0.00091168      -9.53534079
Nb       0.02970683       2.77276374       3.41710581        0 4f       0.00622865      -0.00255364      -0.00103167      -9.56213410
Al      -0.05356436       0.02093238       0.08332698        1 2a       0.00267981      -0.00546711      -0.00746444      -5.04933760
Ni      -0.01223867       0.01639785       4.00059476        1 2a      -0.00540587      -0.00210219      -0.00413549      -6.33041229
Ni       2.42395858       2.81220545       1.96507817        2 6h      -0.00228771       0.00786367       0.00730962      -6.41227176
Ni       1.21390119       0.72178347       2.02058156        2 6h      -0.00168113       0.00364822      -0.00698553      -6.44531880
Ni       3.58871245       0.73453672       2.00995547        2 6h       0.00438824      -0.00460255       0.00508599      -6.40639461
Ni      -0.03516209       1.43935594       6.00805786        2 6h      -0.00231040       0.00693462      -0.00245214      -6.45377206
Ni       1.13542910       3.54764568       5.92942606        2 6h      -0.00358723      -0.00047254       0.00354098      -6.37866409
Al      -1.24366845       3.50851300       5.94993568        2 6h       0.00373448       0.00167961       0.00100150      -5.09956670
Nb      -2.39504741       6.89179058       0.58136921        0 4f      -0.00132796       0.00512353       0.00019465      -9.53824615
Nb       0.06793475       5.58523738       4.34650320        0 4f       0.00564655      -0.00002802      -0.00218450      -9.55627493
Nb       0.06315962       5.57799855       7.48634783        0 4f      -0.00270234       0.00371525       0.00563132      -9.57906479
Nb      -2.33629061       6.99349832       3.40800354        0 4f      -0.00314490       0.00187447       0.00808219      -9.55982655
Ni      -2.37854849       4.18576933      -0.00526387        1 2a       0.00007689       0.00017819      -0.00777454      -6.37312262
Ni      -2.39333925       4.18521811       3.97004280        1 2a      -0.00080196      -0.00273119       0.01087507      -6.35217199
Ni       0.04236752       6.99925153       2.04449497        2 6h      -0.00446418      -0.01167227      -0.00348428      -6.44732969
Ni      -1.17227163       4.90390213       1.99293483        2 6h       0.00938381       0.00609415       0.00001886      -6.42174288
Ni       1.22746318       4.92746177       1.96161774        2 6h      -0.00852688       0.00414864       0.00051322      -6.41343020
Ni      -2.44033135       5.64332064       5.94459934        2 6h      -0.00467259      -0.00839578       0.00484549      -6.35088088
Ni      -1.19016954       7.70216510       6.01426960        2 6h       0.00577644       0.00492739      -0.00344612      -6.42233852
Al      -3.55573662       7.71139026       5.93504828        2 6h       0.00385453       0.00364988      -0.00713282      -5.05501619
Nb       4.84687014       2.92371132       0.57477841        0 4f      -0.00242537      -0.00142485       0.00038255      -9.55477488
Nb       7.28144972       1.44097927       4.31636357        0 4f       0.00323624      -0.00962174      -0.00230158      -9.54239112
Nb       7.17226930       1.52668958       7.50614913        0 4f      -0.00166712      -0.00076574       0.00091168      -9.53534079
Nb       4.86132713       2.80194740       3.39858592        0 4f       0.00622865      -0.00255364      -0.00103167      -9.56213410
Al       4.77805594       0.05011604       0.06480709        1 2a       0.00267981      -0.00546711      -0.00746444      -5.04933760
Ni       4.81938163       0.04558151       3.98207487        1 2a      -0.00540587      -0.00210219      -0.00413549      -6.33041229
Ni       7.25557888       2.84138911       1.94655828        2 6h      -0.00228771       0.00786367       0.00730962      -6.41227176
Ni       6.04552150       0.75096713       2.00206167        2 6h      -0.00168113       0.00364822      -0.00698553      -6.44531880
Ni       8.42033275       0.76372038       1.99143557        2 6h       0.00438824      -0.00460255       0.00508599      -6.40639461
Ni       4.79645821       1.46853960       5.98953796        2 6h      -0.00231040       0.00693462      -0.00245214      -6.45377206
Ni       5.96704940       3.57682934       5.91090616        2 6h      -0.00358723      -0.00047254       0.00354098      -6.37866409
Al       3.58795185       3.53769666       5.93141579        2 6h       0.00373448       0.00167961       0.00100150      -5.09956670
Nb       2.43657289       6.92097424       0.56284932        0 4f      -0.00132796       0.00512353       0.00019465      -9.53824615
Nb       4.89955505       5.61442104       4.32798331        0 4f       0.00564655      -0.00002802      -0.00218450      -9.55627493
Nb       4.89477992       5.60718221       7.46782794        0 4f      -0.00270234       0.00371525       0.00563132      -9.57906479
Nb       2.49532970       7.02268198       3.38948364        0 4f      -0.00314490       0.00187447       0.00808219      -9.55982655
Ni       2.45307181       4.21495299      -0.02378376        1 2a       0.00007689       0.00017819      -0.00777454      -6.37312262
Ni       2.43828105       4.21440177       3.95152291        1 2a      -0.00080196      -0.00273119       0.01087507      -6.35217199
Ni       4.87398782       7.02843519       2.02597507        2 6h      -0.00446418      -0.01167227      -0.00348428      -6.44732969
Ni       3.65934867       4.93308579       1.97441494        2 6h       0.00938381       0.00609415       0.00001886      -6.42174288
Ni       6.05908349       4.95664543       1.94309785        2 6h      -0.00852688       0.00414864       0.00051322      -6.41343020
Ni       2.39128895       5.67250430       5.92607944        2 6h      -0.00467259      -0.00839578       0.00484549      -6.35088088
Ni       3.64145076       7.73134876       5.99574971        2 6h       0.00577644       0.00492739      -0.00344612      -6.42233852
Al       1.27588368       7.74057392       5.91652839        2 6h       0.00385453       0.00364988      -0.00713282      -5.05501619
