48
Lattice="10.178394262552276 0.035945640315922234 -5.561975332683531e-16 -5.058083822400438 8.708529080726114 -1.0460542043573315e-15 -4.498714418956035e-16 5.061374679950289e-16 8.141348822244566" Properties=species:S:1:pos:R:3:spacegroup_kinds:I:1:site:S:1:forces:R:3:energies:R:1 spacegroup="P 63/m m c" unit_cell=conventional energy=-318.64808525542287 stress="-0.000248928966733672 1.3677941373915192e-05 1.8340521585442625e-17 1.3677941373915192e-05 5.987859122855098e-06 1.5659557645980144e-17 1.8340521585442625e-17 1.5659557645980144e-17 -0.00012811639178799452" free_energy=-318.64808525542287 pbc="T T T"
Nb       0.04152176       2.87772848       0.54884543        0 4f       0.00032603      -0.00252751       0.00129341      -9.50603722
Nb       2.48553201       1.47582984       4.66250858        0 4f       0.00188579       0.00324936       0.00198042      -9.56503749
Nb       2.48553201       1.47582984       7.54951466        0 4f       0.00188579       0.00324936      -0.00198042      -9.56503749
Nb       0.04152176       2.87772848       3.52182899        0 4f       0.00032603      -0.00252751      -0.00129341      -9.50603722
Al       0.07416380      -0.03390594       0.13298948        1 2a      -0.00109337      -0.00026927       0.00463604      -4.97433787
Al       0.07416380      -0.03390594       3.93768494        1 2a      -0.00109337      -0.00026927      -0.00463604      -4.97433787
Ni       2.53307124       2.95494740       2.03533721        2 6h       0.00084409      -0.00369039       0.00000000      -6.45629233
Ni       1.26090983       0.79946397       2.03533721        2 6h      -0.00241861      -0.00340655       0.00000000      -6.32334565
Al       3.73057334       0.88118403       2.03533721        2 6h      -0.01032463       0.00023220       0.00000000      -5.19871175
Al      -0.13401335       1.52693071       6.10601162        2 6h      -0.00383546       0.01064818      -0.00000000      -4.79584863
Al       1.08585775       3.67473945       6.10601162        2 6h      -0.00344880      -0.00566566      -0.00000000      -4.76735530
Ni      -1.29970078       3.60337429       6.10601162        2 6h       0.00496008       0.00560474      -0.00000000      -6.48855088
Nb      -2.46040788       7.22864685       0.51265020        0 4f      -0.00146788      -0.00171524       0.00348646      -9.48312359
Nb       0.05999696       5.82167832       4.53939309        0 4f      -0.00230562       0.00253356       0.00050261      -9.53152473
Nb       0.05999696       5.82167832       7.67263015        0 4f      -0.00230562       0.00253356      -0.00050261      -9.53152473
Nb      -2.46040788       7.22864685       3.55802421        0 4f      -0.00146788      -0.00171524      -0.00348646      -9.48312359
Al      -2.43518616       4.20366238       0.02620422        1 2a       0.00035509      -0.00018857       0.00364085      -4.94282439
Al      -2.43518616       4.20366238       4.04447019        1 2a       0.00035509      -0.00018857      -0.00364085      -4.94282439
Al       0.12846275       7.44212351       2.03533721        2 6h      -0.00089535      -0.01223578       0.00000000      -5.01327663
Al      -1.19562010       5.16209534       2.03533721        2 6h      -0.00126069      -0.00056809       0.00000000      -4.64554646
Al       1.26424158       5.13912826       2.03533721        2 6h      -0.00258319       0.00785661       0.00000000      -4.66474574
Al      -2.42818883       5.79190694       6.10601162        2 6h      -0.00073246      -0.01005281      -0.00000000      -4.76346403
Al      -1.25742065       7.98680628       6.10601162        2 6h      -0.00235768       0.00491020      -0.00000000      -4.72795455
Al      -3.75292822       7.94377753       6.10601162        2 6h       0.00038206       0.00265511      -0.00000000      -4.60311109
Nb       5.12774190       2.97316671       0.50005458        0 4f       0.00327301      -0.00052551       0.00349567      -9.45871197
Nb       7.60937402       1.39726518       4.60033312        0 4f       0.00020683       0.00414847      -0.00420718      -9.52328017
Nb       7.60937402       1.39726518       7.61169011        0 4f       0.00020683       0.00414847       0.00420718      -9.52328017
Nb       5.12774190       2.97316671       3.57061983        0 4f       0.00327301      -0.00052551      -0.00349567      -9.45871197
Ni       5.03841959       0.04749165      -0.03344336        1 2a      -0.00171576       0.00480899      -0.00151061      -6.49983752
Ni       5.03841959       0.04749165       4.10411777        1 2a      -0.00171576       0.00480899       0.00151061      -6.49983752
Ni       7.61433624       2.98085236       2.03533721        2 6h       0.00184782       0.00420018       0.00000000      -6.46900777
Ni       6.30644795       0.85557862       2.03533721        2 6h       0.00220397       0.00621315       0.00000000      -6.25081435
Al       8.71573786       0.83244847       2.03533721        2 6h      -0.00800820      -0.00364187       0.00000000      -5.01203836
Al       5.07809819       1.46879694       6.10601162        2 6h      -0.00421445       0.00343109      -0.00000000      -4.70294598
Al       6.38760216       3.58811548       6.10601162        2 6h       0.01717891      -0.00081426      -0.00000000      -4.70485013
Al       3.88470961       3.62478315       6.10601162        2 6h       0.00804362      -0.00844948      -0.00000000      -4.57351921
Nb       2.59244226       7.24956842       0.47778736        0 4f       0.00149218      -0.00039213      -0.00230583      -9.53541871
Nb       5.13971255       5.79617460       4.61462420        0 4f       0.00008254      -0.00325576      -0.00176161      -9.57170205
Nb       5.13971255       5.79617460       7.59739903        0 4f       0.00008254      -0.00325576       0.00176161      -9.57170205
Nb       2.59244226       7.24956842       3.59288705        0 4f       0.00149218      -0.00039213       0.00230583      -9.53541871
Al       2.56611530       4.25579516       0.04167652        1 2a      -0.00222924      -0.00491137      -0.00089216      -4.76872772
Al       2.56611530       4.25579516       4.02899789        1 2a      -0.00222924      -0.00491137       0.00089216      -4.76872772
Ni       5.10260160       7.29161801       2.03533721        2 6h      -0.00446249      -0.00610652       0.00000000      -6.30374169
Al       3.90757678       5.19673370       2.03533721        2 6h       0.00317229       0.00441775       0.00000000      -4.84043847
Al       6.37346585       5.22887175       2.03533721        2 6h      -0.00126446      -0.00354002       0.00000000      -4.83144115
Al       2.55759250       5.84977899       6.10601162        2 6h       0.00494718       0.01562687      -0.00000000      -4.53179180
Al       3.81073972       7.98251161       6.10601162        2 6h       0.00011872      -0.00816875      -0.00000000      -4.53276377
Al       1.29382447       7.98567381       6.10601162        2 6h       0.00448855      -0.00136593      -0.00000000      -4.72540263
