48
Lattice="10.105351379798787 0.004825075929983092 -1.4442558014111455e-17 -5.048509662900264 8.888106570318618 -3.0672396018524767e-16 -1.1477492947324503e-17 1.5035371473619972e-15 8.28124959430635" Properties=species:S:1:pos:R:3:spacegroup_kinds:I:1:site:S:1:forces:R:3:energies:R:1 spacegroup="P 63/m m c" unit_cell=conventional energy=-309.0853665489706 stress="1.1663614840563694e-05 -3.431436964112957e-05 3.2115077259983644e-17 -3.431436964112957e-05 -0.0008285404786131648 9.282599592997899e-17 3.2115077259983644e-17 9.282599592997899e-17 -0.0003092487986792281" free_energy=-309.0853665489706 pbc="T T T"
Nb      -0.03172236       3.04978394       0.48298697        0 4f      -0.00379458      -0.00003143       0.00057057      -9.40406467
Nb       2.56922629       1.56498218       4.67143320        0 4f      -0.00324619       0.00478430      -0.00441398      -9.51999489
Nb       2.56922629       1.56498218       7.75044119        0 4f      -0.00324619       0.00478430       0.00441398      -9.51999489
Nb      -0.03172236       3.04978394       3.65763783        0 4f      -0.00379458      -0.00003143      -0.00057057      -9.40406467
Al       0.17692433      -0.05997157       0.03407346        1 2a       0.00691594      -0.00189037      -0.00267976      -4.97644042
Al       0.17692433      -0.05997157       4.10655134        1 2a       0.00691594      -0.00189037       0.00267976      -4.97644042
Al       2.37728730       2.84355515       2.07031240        2 6h      -0.01217390       0.00754200      -0.00000000      -4.80466505
Ni       1.23154298       0.68264832       2.07031240        2 6h       0.00538451      -0.01394384       0.00000000      -6.40598592
Al       3.61392031       0.70454768       2.07031240        2 6h       0.00050873       0.00880914       0.00000000      -4.77690430
Al       0.02504936       1.51652996       6.21093720        2 6h       0.00765149      -0.00140930      -0.00000000      -4.76139271
Al       1.22319628       3.71303070       6.21093720        2 6h       0.00334365       0.00336931       0.00000000      -4.53804873
Al      -1.23323907       3.73251529       6.21093720        2 6h      -0.00648911      -0.00890112      -0.00000000      -4.59945645
Nb      -2.46061364       7.38256734       0.53772612        0 4f       0.00237519      -0.00387385      -0.00493840      -9.43657196
Nb      -0.02045997       5.96037952       4.64763910        0 4f       0.00059499       0.00084796       0.00082140      -9.48691040
Nb      -0.02045997       5.96037952       7.77423529        0 4f       0.00059499       0.00084796      -0.00082140      -9.48691040
Nb      -2.46061364       7.38256734       3.60289867        0 4f       0.00237519      -0.00387385       0.00493840      -9.43657196
Al      -2.61419476       4.52728941       0.02931411        1 2a       0.00628552      -0.00517653       0.00607989      -4.75654452
Al      -2.61419476       4.52728941       4.11131069        1 2a       0.00628552      -0.00517653      -0.00607989      -4.75654452
Al       0.01091725       7.36979295       2.07031240        2 6h      -0.00764962      -0.00582009       0.00000000      -4.51978864
Al      -1.26067597       5.23788132       2.07031240        2 6h       0.01317233      -0.00830417       0.00000000      -4.76920150
Al       1.29095039       5.26294471       2.07031240        2 6h      -0.00532613       0.01117608       0.00000000      -4.75457984
Al      -2.68934607       6.08679028       6.21093720        2 6h       0.01148248      -0.00214720       0.00000000      -4.75585620
Al      -1.43632525       8.21111338       6.21093720        2 6h       0.00104493       0.00159574      -0.00000000      -4.77043161
Ni      -3.81520295       8.22202626       6.21093720        2 6h       0.00583995      -0.01449783       0.00000000      -6.44255714
Nb       5.02788981       2.87522830       0.48508838        0 4f       0.00457587       0.00497612       0.00666236      -9.50323259
Nb       7.60487965       1.48926349       4.64501000        0 4f       0.00252434      -0.00054428      -0.00015131      -9.45985788
Nb       7.60487965       1.48926349       7.77686439        0 4f       0.00252434      -0.00054428       0.00015131      -9.45985788
Nb       5.02788981       2.87522830       3.65553641        0 4f       0.00457587       0.00497612      -0.00666236      -9.50323259
Al       5.03856638       0.00712452       0.00255698        1 2a       0.00100838      -0.00239103      -0.00174420      -4.61428010
Al       5.03856638       0.00712452       4.13806782        1 2a       0.00100838      -0.00239103       0.00174420      -4.61428010
Al       7.55506841       2.93281788       2.07031240        2 6h       0.00677393       0.00264378       0.00000000      -4.73422947
Al       6.39389053       0.74822305       2.07031240        2 6h       0.00768373       0.00914858       0.00000000      -4.60824482
Al       8.91472972       0.78693502       2.07031240        2 6h      -0.00743503      -0.00473740       0.00000000      -4.83558161
Al       5.06840690       1.52861080       6.21093720        2 6h      -0.00832242       0.01278713      -0.00000000      -4.52984148
Al       6.28898312       3.66709694       6.21093720        2 6h      -0.00858869      -0.00318889       0.00000000      -4.51415591
Al       3.82050109       3.66424778       6.21093720        2 6h       0.01102513       0.00109071       0.00000000      -4.54917653
Nb       2.56023771       7.45899048       0.49284931        0 4f      -0.00903408       0.00382138       0.00155107      -9.42896848
Nb       5.01634270       5.88475586       4.70645519        0 4f      -0.00141404       0.00168118      -0.00228035      -9.47759060
Nb       5.01634270       5.88475586       7.71541920        0 4f      -0.00141404       0.00168118       0.00228035      -9.47759060
Nb       2.56023771       7.45899048       3.64777549        0 4f      -0.00903408       0.00382138      -0.00155107      -9.42896848
Al       2.61844858       4.47135185       0.05424419        1 2a       0.00201478       0.00168813      -0.00545413      -4.76301343
Al       2.61844858       4.47135185       4.08638060        1 2a       0.00201478       0.00168813       0.00545413      -4.76301343
Al       5.08599625       7.12931597       2.07031240        2 6h      -0.00189677       0.00438879       0.00000000      -5.01683586
Ni       3.78833737       5.07356470       2.07031240        2 6h      -0.00374062      -0.01121731       0.00000000      -6.40482398
Ni       6.30881087       5.07904267       2.07031240        2 6h       0.00757085      -0.00141589       0.00000000      -6.41879498
Al       2.52764199       5.98395935       6.21093720        2 6h      -0.00869037       0.00624354      -0.00000000      -4.55290757
Al       3.85335108       8.09758117       6.21093720        2 6h      -0.01034219      -0.00296800       0.00000000      -4.77006245
Al       1.33567641       8.14623428       6.21093720        2 6h      -0.01843909       0.00197303       0.00000000      -4.59690391
