48
Lattice="10.122005009125726 0.04006110592928037 -0.001741444165707193 -5.02631175944266 8.692358778470352 -0.008143368341583688 -0.0014190041971555345 -0.008497624274216681 8.198672921413268" Properties=species:S:1:pos:R:3:spacegroup_kinds:I:1:site:S:1:forces:R:3:energies:R:1 spacegroup="P 63/m m c" unit_cell=conventional energy=-319.51929094582715 stress="5.4829930427743206e-05 -0.0002827717640924186 1.0107351853258944e-05 -0.0002827717640924186 0.0004635192009901317 0.00016768272331041192 1.0107351853258944e-05 0.00016768272331041192 0.0005174248015727595" free_energy=-319.51929094582715 pbc="T T T"
Nb      -0.01346325       2.83864533       0.50633662        0 4f       0.00238559       0.00137765       0.00473292      -9.49167640
Nb       2.49214788       1.54433064       4.64844803        0 4f       0.00431197       0.00130028      -0.00488858      -9.54526340
Nb       2.49218622       1.44611284       7.65366930        0 4f       0.00796111       0.00229754      -0.00066037      -9.54811157
Nb       0.04666886       2.87937212       3.60106412        0 4f      -0.00036275      -0.00200325      -0.00546790      -9.49081340
Al       0.03604868      -0.03005938      -0.01713684        1 2a      -0.00052719      -0.00034536      -0.00306788      -4.65461903
Al       0.03114819      -0.03282486       4.11744649        1 2a      -0.00353776       0.00484960      -0.00261879      -4.61762811
Al       2.60980688       2.87431777       1.93943262        2 6h      -0.00201773       0.01312333      -0.00579620      -4.88005734
Al       1.42043622       0.73390648       2.06750152        2 6h      -0.00052990      -0.01204892      -0.00148428      -4.75743398
Ni       3.79978022       0.80028595       2.04834298        2 6h      -0.00014995       0.00840119      -0.00448843      -6.33965482
Al       0.04136302       1.49463602       6.14211012        2 6h       0.00772188      -0.00857364      -0.00131588      -4.63690896
Al       1.25518670       3.72713708       6.31143517        2 6h      -0.00709388      -0.01207111       0.00232293      -4.82519331
Al      -1.23223991       3.62336060       6.11962150        2 6h       0.00249937      -0.00884182      -0.00302035      -4.71997749
Nb      -2.51465201       7.26875955       0.56984292        0 4f      -0.00147214      -0.00411731      -0.00076046      -9.53536209
Nb      -0.00562970       5.77664770       4.61948347        0 4f       0.00110646       0.00261790       0.00401871      -9.43972310
Nb      -0.07861281       5.83518462       7.63123437        0 4f       0.00057879       0.00396965       0.00597290      -9.42024944
Nb      -2.52295198       7.27246196       3.52605506        0 4f      -0.00480314       0.00045451      -0.00113183      -9.45892418
Al      -2.51839740       4.50671757       0.04670416        1 2a       0.00257919      -0.00982972       0.00472371      -5.09456481
Al      -2.52453331       4.52725039       4.03442069        1 2a      -0.00039924      -0.00450898      -0.00086828      -5.06901700
Ni      -0.00724207       7.26297730       2.03550413        2 6h      -0.00513629      -0.01413891      -0.00244035      -6.28256277
Ni      -1.26334805       5.09055386       2.04286245        2 6h       0.00158276       0.00111363      -0.00080430      -6.29449905
Al       1.10169931       5.17683213       1.96207105        2 6h       0.01339565      -0.00090197      -0.00335105      -5.10865395
Ni      -2.42098693       5.73389462       6.14598865        2 6h       0.00002510       0.00250491       0.00068020      -6.49637105
Ni      -1.14097933       7.93424365       6.13795095        2 6h       0.00200825      -0.00373310      -0.00316361      -6.48243529
Al      -3.50301560       7.82484327       6.13726404        2 6h      -0.00542417      -0.00094029      -0.00003919      -4.95720360
Nb       5.14680320       2.88689077       0.45882717        0 4f      -0.00033705       0.00025492       0.00703813      -9.42177269
Nb       7.58159450       1.45334474       4.61120938        0 4f      -0.00098242       0.00139920       0.00456637      -9.40517016
Nb       7.58423814       1.44575334       7.66630772        0 4f      -0.00382193       0.00338943      -0.00299509      -9.47625254
Nb       5.05520816       2.93702355       3.63642126        0 4f      -0.00276882       0.00158314      -0.00234225      -9.43786611
Al       4.91193713      -0.05341860       0.04447070        1 2a       0.00727813       0.00717211      -0.00739939      -5.09266719
Al       4.89745779      -0.06551743       4.04321477        1 2a       0.00238417       0.01126827       0.00685164      -5.08206484
Al       7.58579949       2.95776236       2.05064347        2 6h       0.00478646      -0.00554966       0.00631154      -4.94487726
Al       6.28874297       0.72862169       2.04976144        2 6h       0.00493855       0.00492444       0.00130583      -4.95067741
Al       8.81309781       0.76916209       2.04618860        2 6h      -0.00559806       0.00565672      -0.00269815      -4.65416595
Al       5.01143682       1.47483534       6.13105658        2 6h      -0.00457537      -0.00623075      -0.00185366      -4.80658688
Al       6.30994145       3.67359088       6.12308653        2 6h      -0.00077469       0.00594780      -0.00138896      -4.72451732
Al       3.81843910       3.73806614       6.32121728        2 6h      -0.01601255       0.00410025       0.00235670      -4.81576917
Nb       2.61065620       7.27109010       0.51113888        0 4f      -0.00054427       0.00533132       0.00892797      -9.48417210
Nb       5.08063938       5.82925823       4.59142910        0 4f      -0.00350926      -0.00355857       0.00046327      -9.54985750
Nb       5.13332377       5.86905318       7.68665765        0 4f       0.00178841      -0.00353629       0.00373370      -9.53360131
Nb       2.60731802       7.26855922       3.51585863        0 4f       0.00111239       0.00209926      -0.00019539      -9.48966342
Ni       2.50413196       4.43419750       0.08106663        1 2a      -0.00294726       0.00541712       0.00514908      -6.45148951
Al       2.52524307       4.43571679       4.12036176        1 2a       0.00401614      -0.01015503      -0.00719739      -4.88969286
Al       5.19316387       7.15353997       2.05279071        2 6h       0.01091207      -0.00029457       0.00005023      -4.73593884
Al       3.91343160       5.06553235       1.94501957        2 6h      -0.01392255      -0.00756552       0.00052867      -4.84962278
Ni       6.30863890       5.06940422       2.03952146        2 6h      -0.01361934      -0.00640554      -0.00070435      -6.36678041
Ni       2.53471711       5.80940136       6.15388808        2 6h       0.00424688       0.01051913      -0.00160238      -6.43632438
Al       3.78511869       7.83229754       6.12765423        2 6h       0.01333191       0.00506283       0.00333757      -4.80651063
Al       1.29253443       7.83253721       6.11789322        2 6h      -0.00008352       0.00921415       0.00067267      -4.96634557
