48
Lattice="9.649792538549292 0.015115377840667698 -0.0004090240731571494 -4.8118023571644395 8.376967707833012 0.00029913465133275016 -0.0003332519720386943 8.922615355493495e-05 7.894359973572629" Properties=species:S:1:pos:R:3:spacegroup_kinds:I:1:site:S:1:forces:R:3:energies:R:1 spacegroup="P 63/m m c" unit_cell=conventional energy=-351.6237334086005 stress="0.0009488504531017292 -0.0005834046030764874 1.6243661851497893e-05 -0.0005834046030764874 -0.00022997024777589406 -4.5079358472233024e-05 1.6243661851497893e-05 -4.5079358472233024e-05 2.6754059050930197e-05" free_energy=-351.6237334086005 pbc="T T T"
Nb       0.06186710       2.88923308       0.48829640        0 4f      -0.00755201      -0.00167070       0.01218678      -9.56107479
Nb       2.42134803       1.38720437       4.46434188        0 4f      -0.00178368       0.00325793       0.00446310      -9.60882547
Nb       2.32351906       1.43399844       7.35912660        0 4f       0.00576953      -0.00551972       0.00329076      -9.62058650
Nb       0.06711573       2.88663168       3.51046030        0 4f      -0.00506316       0.00404743       0.00278973      -9.58498797
Ni      -0.00319229       0.00522270       0.00444366        1 2a       0.00406910      -0.00280803       0.00179276      -6.29082433
Ni      -0.00293496       0.00177225       3.94295325        1 2a       0.00040030      -0.00165474      -0.00180949      -6.27660558
Ni       2.39310404       2.77895856       1.97761746        2 6h      -0.00077020       0.00100508       0.00192048      -6.35764933
Ni       1.27900198       0.67768295       1.97659013        2 6h      -0.00226924       0.00572588      -0.00106041      -6.31662424
Ni       3.65231926       0.75389389       1.98359217        2 6h       0.00222614      -0.01019636      -0.00092780      -6.36807844
Ni      -0.01479469       1.43201271       5.91697498        2 6h       0.00548454       0.00429210       0.00133001      -6.31712182
Ni       1.18348301       3.45233432       5.92957980        2 6h      -0.00454570      -0.00346147      -0.00170524      -6.31850409
Ni      -1.19804929       3.50651427       5.91454438        2 6h       0.00882616      -0.00701016      -0.00118411      -6.39732181
Nb      -2.48997666       6.96824322       0.52900471        0 4f      -0.00094500       0.01006773      -0.00082149      -9.58304947
Nb      -0.11336775       5.61872321       4.39328082        0 4f      -0.00434623      -0.00155931      -0.00190630      -9.53570879
Nb      -0.11911013       5.52301829       7.42477323        0 4f       0.00310166       0.00602300      -0.00395508      -9.54281198
Nb      -2.41063715       7.02939125       3.43858121        0 4f      -0.00460072      -0.00207781      -0.00392190      -9.55979196
Ni      -2.41729882       4.19514681      -0.00900013        1 2a       0.00022882      -0.00370017       0.01300097      -6.41331064
Ni      -2.41792469       4.19079632       3.94326316        1 2a       0.00264105      -0.00523992      -0.00977379      -6.38856989
Ni       0.00466765       6.98184451       1.96976010        2 6h      -0.00077665      -0.00932467       0.00142068      -6.40857234
Ni      -1.21160327       4.92378623       1.97058407        2 6h       0.01400985       0.00496134       0.00131419      -6.38004234
Ni       1.18601398       4.89773235       1.98217526        2 6h      -0.00545294       0.01052077       0.00070254      -6.39215254
Ni      -2.43173925       5.61274131       5.90865501        2 6h      -0.00262097       0.00557776       0.00044461      -6.37965114
Ni      -1.15837884       7.64736362       5.92171583        2 6h      -0.00049403       0.00913942      -0.00057613      -6.37131537
Ni      -3.52698989       7.72970993       5.91843876        2 6h       0.00095891      -0.00656459       0.00191868      -6.31965791
Nb       4.78422219       2.88776947       0.52513611        0 4f      -0.00124468      -0.00639697      -0.00381786      -9.56798338
Nb       7.14903623       1.51391820       4.46939913        0 4f      -0.00139831       0.00156924      -0.00094253      -9.56339408
Nb       7.24108528       1.56632472       7.35366021        0 4f       0.00540026       0.00204554      -0.00179404      -9.55494589
Nb       4.78924600       2.78420278       3.44361143        0 4f       0.00227142       0.00482229       0.00098976      -9.55419932
Al       4.84274363       0.01172606       0.00079894        1 2a      -0.00053967      -0.00153964       0.00272571      -5.09814844
Ni       4.85243715       0.00413918       3.95087320        1 2a      -0.00280747      -0.00223621      -0.00133057      -6.36382412
Ni       7.29385831       2.78766073       1.96771558        2 6h       0.00150765      -0.01270677       0.00293021      -6.35931120
Ni       6.09193722       0.69871045       1.97835461        2 6h       0.01106239       0.00882930      -0.00071476      -6.38140702
Al       8.47832789       0.71779755       1.97673379        2 6h       0.00053103       0.00776409       0.00015018      -5.13615930
Ni       4.89288511       1.38763663       5.92493154        2 6h      -0.00134155      -0.00792746       0.00157337      -6.36281358
Ni       6.01078284       3.50886555       5.91079321        2 6h      -0.00855939      -0.00966693      -0.00095967      -6.38211992
Ni       3.62562726       3.39241717       5.92226718        2 6h       0.00416950      -0.00123810      -0.00056071      -6.33055193
Nb       2.43898034       6.87824001       0.56759359        0 4f      -0.00135938       0.00162325       0.00776490      -9.56712814
Nb       4.92542811       5.54562071       4.36191560        0 4f      -0.00511496      -0.00231824      -0.00455002      -9.55613309
Nb       4.92391568       5.54242205       7.43099699        0 4f      -0.00616746      -0.00039228      -0.01305149      -9.54150929
Nb       2.33851803       6.93490566       3.39400701        0 4f      -0.00512881       0.00501127      -0.00748688      -9.58166319
Ni       2.41833515       4.19587541       0.01506713        1 2a       0.00041366       0.00236020       0.00072530      -6.36138549
Ni       2.41088221       4.18635756       3.94116846        1 2a       0.00226831       0.00459982      -0.00166289      -6.34061355
Ni       4.86385722       6.94940186       1.97601198        2 6h       0.00135259      -0.00469619      -0.00054267      -6.35633763
Ni       3.62291862       4.90096379       1.98420503        2 6h       0.00903486       0.00294815      -0.00022503      -6.39211770
Ni       6.00953060       4.85905521       1.96622958        2 6h      -0.01194159       0.00799620       0.00440727      -6.37740795
Al       2.39596688       5.49152380       5.91770112        2 6h       0.00573862       0.01228563      -0.00059839      -5.06417231
Al       3.67876529       7.73236939       5.91818659        2 6h      -0.01050229      -0.00717080      -0.00041027      -5.09996987
Ni       1.29272304       7.62593063       5.91639080        2 6h       0.00585975      -0.00939618      -0.00155245      -6.43759828
