48
Lattice="9.622075545840763 -0.01350598097190019 8.307804214326505e-17 -4.8227342955452945 8.326208869347774 3.2872192418261265e-16 6.732975609169641e-17 -4.4598048901723134e-17 7.89576433652367" Properties=species:S:1:pos:R:3:spacegroup_kinds:I:1:site:S:1:forces:R:3:energies:R:1 spacegroup="P 63/m m c" unit_cell=conventional energy=-353.75945499356857 stress="0.0003547365306995155 0.0005062029704644983 7.225017561749467e-18 0.0005062029704644983 0.0009392493734684119 -1.4718709129546207e-17 7.225017561749467e-18 -1.4718709129546207e-17 -0.000472804825348617" free_energy=-353.75945499356857 pbc="T T T"
Nb       0.05101390       2.68535538       0.45623287        0 4f       0.00245109       0.00352795       0.00618045      -9.58594587
Nb       2.42593124       1.40647591       4.46444854        0 4f       0.00157198       0.00102005      -0.00426925      -9.53828409
Nb       2.42593124       1.40647591       7.37919796        0 4f       0.00157198       0.00102005       0.00426925      -9.53828409
Nb       0.05101390       2.68535538       3.49164930        0 4f       0.00245109       0.00352795      -0.00618045      -9.58594587
Ni       0.01286183       0.00593316       0.00047328        1 2a      -0.00174566      -0.00160205      -0.00672212      -6.37610137
Ni       0.01286183       0.00593316       3.94740889        1 2a      -0.00174566      -0.00160205       0.00672212      -6.37610137
Ni       2.43295687       2.76882632       1.97394108        2 6h      -0.01140241      -0.00289453       0.00000000      -6.33880782
Ni       1.22379506       0.71427507       1.97394108        2 6h       0.00534332       0.00524365       0.00000000      -6.36760704
Ni       3.61277815       0.70192361       1.97394108        2 6h      -0.00485073      -0.00010673      -0.00000000      -6.35437594
Ni       0.07038100       1.38766466       5.92182325        2 6h      -0.00710710       0.00471572      -0.00000000      -6.34619003
Ni       1.19150179       3.47855233       5.92182325        2 6h      -0.01346694      -0.01306202      -0.00000000      -6.36344833
Ni      -1.18717703       3.40228479       5.92182325        2 6h       0.00725839      -0.00139685      -0.00000000      -6.31400629
Nb      -2.45110725       7.05561402       0.53018879        0 4f       0.00242214       0.00149688       0.00022204      -9.56960742
Nb       0.11348969       5.57494329       4.47807095        0 4f       0.00008527       0.00284608       0.00022204      -9.56960742
Nb       0.11348969       5.57494329       7.36557555        0 4f       0.00008527       0.00284608      -0.00022204      -9.56960742
Nb      -2.45110725       7.05561402       3.41769338        0 4f       0.00242214       0.00149688      -0.00022204      -9.56960742
Ni      -2.41029687       4.16495822      -0.00000000        1 2a      -0.00095904      -0.00166110       0.00000000      -6.27812908
Ni      -2.41029687       4.16495822       3.94788217        1 2a      -0.00095904      -0.00166110      -0.00000000      -6.27812908
Ni      -0.06049386       6.89428631       1.97394108        2 6h      -0.00394029      -0.00438379       0.00000000      -6.35678530
Al      -1.23459133       4.83387777       1.97394108        2 6h      -0.00170823      -0.00157564       0.00000000      -5.12859376
Ni       1.13942636       4.81701710       1.97394108        2 6h      -0.01046914      -0.00107886       0.00000000      -6.34959343
Al      -2.41884831       5.51760885       5.92182325        2 6h      -0.00051043      -0.00226719      -0.00000000      -5.12859376
Ni      -1.22153090       7.56461136       5.92182325        2 6h      -0.00182633      -0.00560428      -0.00000000      -6.35678530
Ni      -3.62045892       7.56513815       5.92182325        2 6h       0.00430025      -0.00960597      -0.00000000      -6.34959343
Nb       4.82720702       2.76559504       0.52351351        0 4f       0.00253741       0.00381066      -0.00045630      -9.60141683
Nb       7.20387697       1.39342400       4.47139568        0 4f       0.00203142       0.00410279      -0.00045630      -9.60141683
Nb       7.20387697       1.39342400       7.37225082        0 4f       0.00203142       0.00410279       0.00045630      -9.60141683
Nb       4.82720702       2.76559504       3.42436865        0 4f       0.00253741       0.00381066       0.00045630      -9.60141683
Ni       4.80382779      -0.01924105      -0.00000000        1 2a       0.00093062       0.00161189       0.00000000      -6.36593939
Ni       4.80382779      -0.01924105       3.94788217        1 2a       0.00093062       0.00161189       0.00000000      -6.36593939
Ni       7.15439754       2.71443358       1.97394108        2 6h       0.00841331      -0.00212212       0.00000000      -6.29065998
Ni       6.03737451       0.63145365       1.97394108        2 6h      -0.01152836       0.01268662       0.00000000      -6.33334523
Ni       8.42355259       0.71006017       1.97394108        2 6h      -0.00894024       0.00942890       0.00000000      -6.34953471
Ni       4.75057257       1.37438910       5.92182325        2 6h       0.01675112      -0.00364054      -0.00000000      -6.33334523
Ni       5.99597459       3.38324938       5.92182325        2 6h      -0.00604447       0.00622508      -0.00000000      -6.29065998
Ni       3.62555877       3.48018319       5.92182325        2 6h       0.01263579      -0.00302802      -0.00000000      -6.34953471
Nb       2.40474888       6.96050748       0.51656637        0 4f       0.00009741       0.00187140      -0.00426925      -9.53828409
Nb       4.69974965       5.54320847       4.40411504        0 4f       0.00182975       0.00388668       0.00618045      -9.58594587
Nb       4.69974965       5.54320847       7.43953146        0 4f       0.00182975       0.00388668      -0.00618045      -9.58594587
Nb       2.40474888       6.96050748       3.43131579        0 4f       0.00009741       0.00187140       0.00426925      -9.53828409
Ni       2.39837798       4.17045670      -0.00047328        1 2a      -0.00051458      -0.00231281       0.00672212      -6.37610137
Ni       2.39837798       4.17045670       3.94835545        1 2a      -0.00051458      -0.00231281      -0.00672212      -6.37610137
Ni       4.81643442       6.92749843       1.97394108        2 6h      -0.00457857      -0.01819372       0.00000000      -6.36344833
Ni       3.56623297       4.91113551       1.97394108        2 6h       0.00763749      -0.00379707       0.00000000      -6.34619003
Ni       5.93972420       4.82936838       1.97394108        2 6h      -0.00483890       0.00558752       0.00000000      -6.31400629
Ni       2.40635345       5.57332659       5.92182325        2 6h       0.00186947       0.00724928      -0.00000000      -6.36760704
Ni       3.58106612       7.64776706       5.92182325        2 6h       0.00319447      -0.01132204      -0.00000000      -6.33880782
Ni       1.20116523       7.63607091       5.92182325        2 6h       0.00233293      -0.00425422      -0.00000000      -6.35437594
