48
Lattice="9.999817429734103 -0.013218823336576296 -0.005425740063566285 -5.0113497609722675 8.511679755669986 0.027323860061040865 -0.004456084283504103 0.023192138674486995 7.944875365791296" Properties=species:S:1:pos:R:3:spacegroup_kinds:I:1:site:S:1:forces:R:3:energies:R:1 spacegroup="P 63/m m c" unit_cell=conventional energy=-338.27683857159246 stress="2.570105322736123e-06 -5.8991772702076516e-05 9.866926009340536e-05 -5.8991772702076516e-05 -6.882789265955925e-06 -0.0004727026346101623 9.866926009340536e-05 -0.0004727026346101623 -6.998706188953403e-05" free_energy=-338.27683857159246 pbc="T T T"
Nb       0.03694960       2.88095412       0.54460041        0 4f       0.00782704       0.00412076      -0.00073859      -9.59401515
Nb       2.52774810       1.31065965       4.52825232        0 4f      -0.00130448      -0.00042819       0.00324055      -9.54850438
Nb       2.51224270       1.46614338       7.44210838        0 4f       0.00125418       0.00436784       0.00051827      -9.61874696
Nb      -0.08056526       2.82162134       3.40483080        0 4f      -0.00006813      -0.00464993      -0.00031570      -9.54746922
Al      -0.00595933       0.01688595       0.01864151        1 2a       0.00507644      -0.00104175       0.00071551      -5.15543718
Al      -0.01489073       0.03642340       3.99465597        1 2a      -0.00198273      -0.00111303      -0.00633416      -5.10558642
Al       2.51954922       2.68469304       2.08054124        2 6h       0.00103678       0.00692765      -0.00548901      -5.04175015
Ni       1.27339995       0.70067573       1.99707482        2 6h      -0.01337093      -0.00745796       0.00082070      -6.38907033
Ni       3.75973822       0.69935738       1.91476135        2 6h       0.00433675      -0.00576650       0.00386135      -6.36243565
Ni      -0.02562372       1.48434802       5.98352617        2 6h      -0.00445214      -0.00715551      -0.00115826      -6.39216101
Al       1.22448505       3.51926574       5.83226929        2 6h       0.00616193       0.00759512       0.00041784      -4.87417696
Al      -1.24157909       3.50867222       5.99632971        2 6h      -0.00800130      -0.00085061      -0.00008680      -4.94492990
Nb      -2.41885427       7.24617255       0.55904043        0 4f      -0.00188095      -0.00479689      -0.00242157      -9.53509263
Nb      -0.02548871       5.70246746       4.53237008        0 4f      -0.00105864      -0.00729179       0.00061480      -9.53463542
Nb       0.01963325       5.74409121       7.43878760        0 4f       0.00477450      -0.00025269      -0.00144223      -9.59170171
Nb      -2.60076304       7.13768010       3.39366774        0 4f       0.00524449       0.00196492       0.00029085      -9.59430636
Ni      -2.52062786       4.27631181      -0.03437274        1 2a       0.00243744      -0.00117977      -0.00558490      -6.49677225
Ni      -2.51782658       4.28490144       4.06326517        1 2a      -0.00214896       0.00277933       0.00271237      -6.51377325
Ni      -0.08944209       7.01345623       1.96308185        2 6h       0.00111104       0.00417930      -0.00381195      -6.40231349
Al      -1.40405020       4.95491946       1.99868295        2 6h       0.00560167      -0.00205907      -0.00260417      -5.10604970
Al       1.16695046       5.04868935       2.08286183        2 6h      -0.00689511       0.00721506      -0.00143827      -4.87547918
Al      -2.50888703       5.85851401       5.98626100        2 6h       0.00195182       0.01309645      -0.00514224      -5.12290896
Ni      -1.26093779       7.82340085       5.92609502        2 6h      -0.00545993      -0.00355749       0.00183451      -6.45293496
Ni      -3.74766975       7.86355866       6.00446510        2 6h       0.00555910       0.00154612      -0.00259745      -6.36941685
Nb       4.99983108       2.82385189       0.53540423        0 4f       0.00269247       0.00203247      -0.00090437      -9.61620666
Nb       7.47246286       1.38480213       4.42953553        0 4f       0.00088056      -0.00180921      -0.00042127      -9.58144706
Nb       7.45961742       1.39706410       7.58896032        0 4f       0.00656536       0.00264844      -0.00068121      -9.48196537
Nb       5.11386527       2.80209923       3.43951242        0 4f       0.00001294       0.00154758      -0.00134168      -9.56283356
Ni       5.03126818      -0.07705051      -0.01629499        1 2a      -0.00566208      -0.00172214       0.01335350      -6.30555084
Al       4.98693988      -0.06937655       3.84952528        1 2a       0.00050345       0.00205734       0.00979926      -5.09469459
Ni       7.44403965       2.77420216       2.01187164        2 6h       0.00207138       0.00725956      -0.00207978      -6.35625907
Ni       6.27884550       0.64216475       1.94539560        2 6h      -0.00012541      -0.00214254       0.00342473      -6.43449167
Ni       8.72245267       0.70085128       1.99733072        2 6h       0.00422993      -0.00737533      -0.00431074      -6.49707786
Al       5.03014469       1.30990618       6.03994534        2 6h       0.00117986       0.00380448      -0.00296282      -4.96773396
Al       6.22862901       3.54925001       5.98740402        2 6h      -0.00301857      -0.00736096      -0.00320167      -4.71750602
Al       3.77274407       3.56481373       5.82826082        2 6h      -0.01437755      -0.00071076       0.00511267      -4.80720057
Nb       2.42408573       7.16596994       0.46885018        0 4f       0.00190933       0.00121602      -0.00146839      -9.56012607
Nb       5.00147990       5.74257137       4.55863826        0 4f       0.00509470       0.00111538      -0.00223887      -9.56053207
Nb       5.01671227       5.67826134       7.48587475        0 4f      -0.00732545       0.00070910      -0.00059597      -9.58827648
Nb       2.51031426       7.11866897       3.56483751        0 4f       0.00617343      -0.00141801       0.00704633      -9.56177280
Al       2.50808793       4.30180406       0.00220116        1 2a       0.00262232      -0.00669419      -0.00424558      -4.79822821
Ni       2.50204878       4.26127544       3.90878618        1 2a      -0.00008887      -0.00067039       0.00827878      -6.51222486
Ni       5.01589803       7.07742556       2.02558373        2 6h       0.00253063       0.01560345      -0.00501740      -6.39383633
Al       3.87314141       5.05047833       2.08298042        2 6h      -0.00764323       0.00033105       0.00023988      -4.96724606
Ni       6.19952759       4.92874835       1.99921183        2 6h       0.00663440      -0.00756804       0.00245779      -6.33137513
Ni       2.50968097       5.68937186       5.96836538        2 6h      -0.00097369      -0.00993993      -0.00098622      -6.49637016
Ni       3.70465896       7.80713597       6.00445256        2 6h      -0.00920676       0.00122936       0.00032312      -6.45491402
Ni       1.26424767       7.76821487       5.91058579        2 6h      -0.00042899       0.00166590       0.00455849      -6.45930111
