12
Lattice="4.89460076784749 0.18728160930857618 3.344246041445698e-16 -2.285109752600884 4.332489410993084 -1.555881082111358e-16 5.117447690044349e-16 -4.40041203178849e-16 8.334267124412754" Properties=species:S:1:pos:R:3:spacegroup_kinds:I:1:site:S:1:forces:R:3:energies:R:1 spacegroup="P 63/m m c" unit_cell=conventional energy=-80.27866307772149 stress="0.0007893318456709398 8.509229348309698e-07 4.68295895512555e-17 8.509229348309698e-07 0.0007903144068506714 -5.730217080917482e-17 4.68295895512555e-17 -5.730217080917482e-17 0.0009925916973305053" free_energy=-80.27866307772149 pbc="T T T"
Nb       0.15709235       2.92248337       0.51503306        0 4f       0.00936102      -0.00540458      -0.00246026      -9.48222366
Nb       2.45239867       1.59728765       4.68216662        0 4f      -0.00936102       0.00540458      -0.00246026      -9.48222366
Nb       2.45239867       1.59728765       7.81923407        0 4f      -0.00936102       0.00540458       0.00246026      -9.48222366
Nb       0.15709235       2.92248337       3.65210050        0 4f       0.00936102      -0.00540458       0.00246026      -9.48222366
Al       0.00000000      -0.00000000       0.00000000        1 2a       0.00000000      -0.00000000      -0.00000000      -4.88567793
Al       0.00000000      -0.00000000       4.16713356        1 2a      -0.00000000      -0.00000000       0.00000000      -4.88567793
Al       2.64202111       2.93327451       2.08356678        2 6h      -0.00375033       0.01851192       0.00000000      -4.86109134
Al       1.39021133       0.76507637       2.08356678        2 6h      -0.01790696      -0.00600808       0.00000000      -4.86109134
Ni       3.78104592       0.83019280       2.08356678        2 6h      -0.00013947       0.00008053       0.00000000      -6.56702361
Al      -0.03253009       1.58649651       6.25070034        2 6h       0.00375033      -0.01851192       0.00000000      -4.86109134
Al       1.21927969       3.75469465       6.25070034        2 6h       0.01790696       0.00600808      -0.00000000      -4.86109134
Ni      -1.17155490       3.68957822       6.25070034        2 6h       0.00013947      -0.00008053       0.00000000      -6.56702361
