12
Lattice="4.9418909953235 1.3071871390114362e-16 6.620973279702538e-18 -2.470945497661771 4.27980314468367 4.524691835923462e-15 -2.2918427063298665e-16 8.519511977495737e-15 7.711427210427893" Properties=species:S:1:pos:R:3:spacegroup_kinds:I:1:site:S:1:forces:R:3:energies:R:1 spacegroup="P 63/m m c" unit_cell=conventional energy=-87.18526005929748 stress="0.00040223711016001664 -1.5265052281249487e-15 -5.897099769415164e-17 -1.5265052281249487e-15 0.0004022371101420847 3.1568256707278534e-16 -5.897099769415164e-17 3.1568256707278534e-16 0.0004138427553023378" free_energy=-87.18526005929748 pbc="T T T"
Nb      -0.00000000       2.85320210       0.42989282        0 4f       0.00000000       0.00000000      -0.00382102      -9.53025640
Nb       2.47094550       1.42660105       4.28560642        0 4f      -0.00000000      -0.00000000      -0.00382102      -9.53025640
Nb       2.47094550       1.42660105       7.28153439        0 4f      -0.00000000      -0.00000000       0.00382102      -9.53025640
Nb      -0.00000000       2.85320210       3.42582079        0 4f       0.00000000       0.00000000       0.00382102      -9.53025640
Al       0.00000000      -0.00000000       0.00000000        1 2a       0.00000000      -0.00000000       0.00000000      -5.05336826
Al       0.00000000      -0.00000000       3.85571361        1 2a      -0.00000000       0.00000000      -0.00000000      -5.05336826
Ni       2.47094550       2.81729127       1.92785680        2 6h      -0.00000000       0.00562764       0.00000000      -6.49291632
Ni       1.26657244       0.73125594       1.92785680        2 6h      -0.00487368      -0.00281382       0.00000000      -6.49291632
Ni       3.67531856       0.73125594       1.92785680        2 6h       0.00487368      -0.00281382       0.00000000      -6.49291632
Ni      -0.00000000       1.46251188       5.78357041        2 6h      -0.00000000      -0.00562764      -0.00000000      -6.49291632
Ni       1.20437306       3.54854721       5.78357041        2 6h       0.00487368       0.00281382      -0.00000000      -6.49291632
Ni      -1.20437306       3.54854721       5.78357041        2 6h      -0.00487368       0.00281382      -0.00000000      -6.49291632
