12
Lattice="4.877850730088691 2.5242036831423373e-16 4.351899122839242e-19 -2.4389253650443647 4.376517299588375 -0.022482126373295663 1.3100316658686499e-15 -0.040604418393780775 8.150247323088184" Properties=species:S:1:pos:R:3:spacegroup_kinds:I:1:site:S:1:forces:R:3:energies:R:1 spacegroup="P 63/m m c" unit_cell=conventional energy=-86.84408333747703 stress="-0.0006369736151771316 -1.3849585555467567e-15 -1.0065886169794606e-16 -1.3849585555467567e-15 -0.0005110117837150572 0.0002717248044541094 -1.0065886169794606e-16 0.0002717248044541094 -0.0009320027058743813" free_energy=-86.84408333747703 pbc="T T T"
Nb       0.03135606       2.91767679       0.47408554        0 4f      -0.00956095       0.00964301      -0.00015245      -9.82550632
Nb       2.40211366       1.43186650       4.54490194        0 4f       0.00328129      -0.00039795       0.00157275      -9.53278933
Nb       2.47028143       1.41823609       7.65367966        0 4f      -0.00956095      -0.00964301       0.00015245      -9.82550632
Nb      -0.03681171       2.90404638       3.58286326        0 4f       0.00328129       0.00039795      -0.00157275      -9.53278933
Cr       0.04201303       0.00000000       0.00000000        1 2a       0.00216090       0.00000000      -0.00000000      -8.45087089
Ni      -0.03655190      -0.02030221       4.07512366        1 2a      -0.00490662      -0.00000000       0.00000000      -6.42122098
Al       2.41905016       2.89191686       2.07341121        2 6h       0.00455345       0.01000178      -0.01124519      -4.99621884
Ni       1.25204601       0.74450188       2.06812610        2 6h      -0.00233988       0.01041193      -0.00387205      -6.60267802
Al       3.64840501       0.73248718       2.07862674        2 6h       0.00543895       0.00639712       0.01133812      -5.02880322
Al      -0.01987521       1.44399602       6.05435399        2 6h       0.00455345      -0.01000178       0.01124519      -4.99621884
Al       1.20947965       3.60342570       6.04913845        2 6h       0.00543895      -0.00639712      -0.01133812      -5.02880322
Ni      -1.18687936       3.59141101       6.05963909        2 6h      -0.00233988      -0.01041193       0.00387205      -6.60267802
