48
Lattice="9.911945054070234 0.002520179444187345 -0.008074594942428676 -4.95379166820373 8.559340716115006 0.011719382185628107 -0.006588447395608871 0.007240018975739079 8.067518614865628" Properties=species:S:1:pos:R:3:spacegroup_kinds:I:1:site:S:1:forces:R:3:energies:R:1 spacegroup="P 63/m m c" unit_cell=conventional energy=-334.6987977043833 stress="-0.001136811634082977 -0.00022141985108885455 0.0007736270759259021 -0.00022141985108885455 0.0010174064006296776 -0.0007105556646201987 0.0007736270759259021 -0.0007105556646201987 0.0005893673869443617" free_energy=-334.6987977043833 pbc="T T T"
Nb      -0.04099741       2.84983300       0.50033821        0 4f       0.00154756       0.00169872      -0.00884914      -9.58749932
Nb       2.46975190       1.61198992       4.58849100        0 4f       0.00242643       0.00277001      -0.00194936      -9.46280833
Nb       2.57822624       1.40824058       7.54845296        0 4f      -0.00067235       0.00436287      -0.00083976      -9.49326031
Nb      -0.05542042       2.84065578       3.54904394        0 4f      -0.00601782      -0.00262982       0.00021193      -9.58045680
Ni      -0.01647648      -0.00401725      -0.00957529        1 2a      -0.00051599       0.00091933       0.00251566      -6.47225374
Ni      -0.05261194       0.01616705       4.03216496        1 2a      -0.00260890      -0.00165766      -0.00135076      -6.47281401
Ni       2.50017652       2.77462191       1.98181336        2 6h       0.00254540       0.00062387       0.00569384      -6.49370195
Al       1.24735434       0.69900480       2.01313778        2 6h       0.01537861      -0.00036656       0.00371669      -5.04511062
Al       3.80076646       0.72534415       2.16386947        2 6h      -0.01104020       0.00341659      -0.00502128      -5.10638876
Ni      -0.09286487       1.48979700       6.04898677        2 6h      -0.00460497       0.00182595       0.00067253      -6.34588922
Ni       1.21381845       3.54771693       6.01409767        2 6h       0.01454549       0.00408103      -0.00298580      -6.36836861
Ni      -1.21561603       3.63639100       6.05057951        2 6h      -0.00066706      -0.00054028      -0.00205615      -6.48008740
Nb      -2.44837757       7.13995827       0.47032783        0 4f      -0.00342653      -0.00373960      -0.00170201      -9.56707410
Nb       0.04406472       5.64248565       4.58824653        0 4f      -0.00444807       0.00141754      -0.00179387      -9.57448757
Nb       0.01890148       5.66634600       7.54145795        0 4f       0.00511261      -0.00096589       0.00169158      -9.55758198
Nb      -2.49676369       7.10804652       3.56361342        0 4f       0.00182984      -0.00233131       0.01047396      -9.51604304
Al      -2.47897407       4.20932048      -0.05873079        1 2a       0.00072687       0.00280864      -0.00462016      -4.84524433
Al      -2.49938076       4.21857960       4.09506163        1 2a       0.00117242       0.00172150       0.00410097      -4.86027985
Ni       0.08659117       7.06913401       2.09283618        2 6h      -0.00056923      -0.00353208       0.00265185      -6.41786879
Al      -1.18991998       5.11387712       2.01300522        2 6h       0.00468361      -0.00547135       0.00261511      -4.83761679
Al       1.31749184       4.94366094       2.08583318        2 6h       0.00700820      -0.01152640       0.00182852      -5.02624989
Al      -2.51839007       5.78487621       6.05379784        2 6h      -0.00204468      -0.01199562       0.00380521      -4.78979798
Al      -1.17998675       7.88519951       5.95459155        2 6h       0.00741891       0.00949316       0.00096757      -4.84101863
Al      -3.75385144       8.02461634       6.03922614        2 6h      -0.00966690       0.01164370       0.00094563      -4.96290313
Nb       4.95939685       2.85380644       0.51267144        0 4f       0.00331809       0.00146256      -0.00655473      -9.59299699
Nb       7.46335171       1.41089391       4.51847858        0 4f      -0.00698948      -0.00097512       0.00453007      -9.56584735
Nb       7.49275924       1.43755419       7.54566694        0 4f      -0.00233810      -0.00189945      -0.00242027      -9.52185502
Nb       4.88837176       2.97645650       3.54431682        0 4f      -0.00013365       0.00005077       0.00236976      -9.57069398
Al       5.07080865      -0.06974994       0.07232822        1 2a       0.00623910      -0.00002256      -0.00405991      -5.12893959
Ni       5.03208445       0.04328751       4.07572807        1 2a       0.01106125      -0.00157555       0.01221445      -6.25780757
Al       7.35638368       2.74485718       2.01016392        2 6h       0.00077084      -0.01527021      -0.00374761      -4.76285628
Ni       6.25808765       0.68458369       2.04157496        2 6h       0.00857289       0.00377856       0.00225613      -6.36528027
Al       8.61527564       0.57490635       1.99567539        2 6h      -0.00302927      -0.00116971       0.00197611      -5.04596398
Al       5.04942574       1.58068488       6.00383734        2 6h       0.00442884      -0.00074659       0.00318199      -5.05151420
Ni       6.14674725       3.65388071       6.04484010        2 6h      -0.00006162       0.00534297      -0.00159694      -6.45070409
Ni       3.71083533       3.55177101       6.00379663        2 6h      -0.01463058       0.00910783      -0.00384233      -6.35394805
Nb       2.53666710       7.01833752       0.54696202        0 4f       0.00131856      -0.00145539       0.00036537      -9.52053567
Nb       4.87015108       5.71298518       4.54453149        0 4f       0.00117853      -0.00003453      -0.00304380      -9.62486357
Nb       4.94758236       5.73720102       7.49469714        0 4f      -0.00030505       0.00782291      -0.00426526      -9.60395059
Nb       2.32770696       7.14393141       3.57598102        0 4f      -0.00888305      -0.00047158      -0.00104415      -9.55771065
Al       2.51849736       4.21261517      -0.09961159        1 2a      -0.00165260      -0.00417438      -0.00940462      -5.11116385
Ni       2.48303336       4.25906366       4.02396778        1 2a      -0.00000471      -0.00200379       0.00582674      -6.32756620
Ni       4.89948413       7.11213788       2.03029812        2 6h      -0.00359534      -0.01026432       0.00215342      -6.31878335
Ni       3.70300832       4.96042734       1.96567920        2 6h      -0.00132844       0.00150894      -0.00082149      -6.42277150
Al       6.04378445       5.11040025       1.99392868        2 6h      -0.01039222       0.00781189       0.00352938      -4.86515451
Ni       2.47783353       5.71387611       6.00684502        2 6h       0.00463518      -0.00699838       0.00029280      -6.39227158
Al       3.59688348       7.85416432       6.06659224        2 6h      -0.00073488       0.00218474      -0.00357373      -5.08892058
Ni       1.24875693       7.84030232       6.12597832        2 6h      -0.00555752       0.00596408      -0.00504414      -6.49189316
