12
Lattice="5.168544041323354 1.4038213436345695e-16 -3.4128364387065114e-18 -2.5842720206616927 4.476090440364637 -7.745066855014191e-15 1.4846113052016258e-15 -2.2248441664475132e-14 8.286094763592557" Properties=species:S:1:pos:R:3:spacegroup_kinds:I:1:site:S:1:forces:R:3:energies:R:1 spacegroup="P 63/m m c" unit_cell=conventional energy=-74.32658331315524 stress="0.0004899058032324652 -1.206590476297721e-15 1.260320105269301e-16 -1.206590476297721e-15 0.0004899058032193557 -4.84384035868145e-16 1.260320105269301e-16 -4.84384035868145e-16 0.000628553642986727" free_energy=-74.32658331315524 pbc="T T T"
Nb      -0.00000000       2.98406029       0.50981590        0 4f       0.00000000      -0.00000000      -0.00178321      -9.43449056
Nb       2.58427202       1.49203015       4.65286329        0 4f       0.00000000       0.00000000      -0.00178321      -9.43449056
Nb       2.58427202       1.49203015       7.77627886        0 4f      -0.00000000      -0.00000000       0.00178321      -9.43449056
Nb      -0.00000000       2.98406029       3.63323148        0 4f       0.00000000      -0.00000000       0.00178321      -9.43449056
Al       0.00000000       0.00000000       0.00000000        1 2a       0.00000000       0.00000000      -0.00000000      -4.57841959
Al       0.00000000      -0.00000000       4.14304738        1 2a      -0.00000000       0.00000000      -0.00000000      -4.57841959
Al       2.58427202       2.93115471       2.07152369        2 6h      -0.00000000      -0.00097632       0.00000000      -4.57196365
Al       1.33795359       0.77246786       2.07152369        2 6h       0.00084552       0.00048816      -0.00000000      -4.57196365
Al       3.83059045       0.77246786       2.07152369        2 6h      -0.00084552       0.00048816       0.00000000      -4.57196365
Al      -0.00000000       1.54493573       6.21457107        2 6h      -0.00000000       0.00097632      -0.00000000      -4.57196365
Al       1.24631843       3.70362258       6.21457107        2 6h      -0.00084552      -0.00048816       0.00000000      -4.57196365
Al      -1.24631843       3.70362258       6.21457107        2 6h       0.00084552      -0.00048816       0.00000000      -4.57196365
