12
Lattice="5.0810562376054635 1.3116003820285548e-16 -7.468677405425881e-18 -2.540528118802751 4.215252836526634 7.209427872781407e-15 5.099531737263026e-16 2.184855582543004e-14 7.982013266242802" Properties=species:S:1:pos:R:3:spacegroup_kinds:I:1:site:S:1:forces:R:3:energies:R:1 spacegroup="P 63/m m c" unit_cell=conventional energy=-83.74303253337885 stress="-0.0004197688634509537 -1.812899206920044e-15 5.767106558905797e-17 -1.812899206920044e-15 -0.0005619006760320904 8.516228184233983e-16 5.767106558905797e-17 8.516228184233983e-16 -0.0003050366025978032" free_energy=-83.74303253337885 pbc="T T T"
Nb      -0.00000000       2.82676830       0.42981064        0 4f      -0.00000000       0.00516226       0.00284470      -9.57330090
Nb       2.54052812       1.33746498       4.55849556        0 4f      -0.00000000      -0.00489723      -0.01364830      -9.46181323
Nb       2.54052812       1.33746498       7.41452434        0 4f      -0.00000000      -0.00489723       0.01364830      -9.46181323
Nb      -0.00000000       2.82676830       3.56119599        0 4f      -0.00000000       0.00516226      -0.00284470      -9.57330090
Al       0.00000000      -0.06683798      -0.12484751        1 2a       0.00000000      -0.00195665      -0.01571368      -5.06297472
Al       0.00000000      -0.06683798       4.11585414        1 2a       0.00000000      -0.00195665       0.01571368      -5.06297472
Ni       2.54052812       2.86024582       1.99550332        2 6h      -0.00000000      -0.00494861      -0.00000000      -6.66838822
Al       1.30085073       0.78830425       1.99550332        2 6h       0.01194257      -0.01315554      -0.00000000      -4.81726538
Al       3.78020550       0.78830425       1.99550332        2 6h      -0.01194257      -0.01315554       0.00000000      -4.81726538
Ni       0.00000000       1.43754132       5.98650995        2 6h       0.00000000       0.00819420      -0.00000000      -6.43079023
Ni       1.22074292       3.50353898       5.98650995        2 6h       0.00315458       0.01322436       0.00000000      -6.40657281
Ni      -1.22074292       3.50353898       5.98650995        2 6h      -0.00315458       0.01322436       0.00000000      -6.40657281
