12
Lattice="4.879256957952735 -0.004419217086865009 0.0038825089570950276 -2.443574419123697 4.36601730091264 0.0044353936900694176 0.006270652380504865 0.011536945066204429 7.881457699793586" Properties=species:S:1:pos:R:3:spacegroup_kinds:I:1:site:S:1:forces:R:3:energies:R:1 spacegroup="P 63/m m c" unit_cell=conventional energy=-82.47176836603774 stress="9.534682565195161e-05 0.0002542901857189473 -7.3733399667636024e-06 0.0002542901857189473 -0.000195709793276665 -0.0004910121553967191 -7.3733399667636024e-06 -0.0004910121553967191 5.9738809171928514e-05" free_energy=-82.47176836603774 pbc="T T T"
V       -0.02610234       2.92597377       0.53943727        0 4f       0.00221823       0.00081208      -0.00619165      -8.46223116
Nb       2.42495210       1.45492886       4.45078503        0 4f       0.00226388      -0.00250770       0.00262647      -9.61142695
Nb       2.41361207       1.43162522       7.40767321        0 4f       0.00278773      -0.00031027       0.00288282      -9.47785879
Nb      -0.00790627       2.93826777       3.41021722        0 4f      -0.00392948      -0.00191997       0.00416072      -9.56159295
Ni      -0.03343249       0.00514266      -0.00322566        1 2a       0.00554380       0.00238214       0.01631260      -6.40026571
Ni      -0.00872333      -0.01422333       3.93455069        1 2a      -0.00901501      -0.00185949       0.00944384      -6.43778802
Al       2.43391179       2.92824054       1.94274981        2 6h      -0.00182867      -0.00489828       0.00297489      -4.84214594
Ni       1.29371970       0.78266113       1.93709800        2 6h       0.00050929       0.00273585      -0.01215155      -6.51447456
Al       3.69620115       0.77422654       1.96712041        2 6h      -0.00208206       0.00847428      -0.00024044      -4.84449917
Al      -0.01820488       1.45313118       5.91742958        2 6h       0.00085775       0.00775339      -0.00986607      -4.89973400
Al       1.21606731       3.60888040       5.93467060        2 6h      -0.00655937      -0.00750512      -0.00920592      -4.93108029
Ni      -1.17119353       3.58258888       5.95110068        2 6h       0.00923390      -0.00315692      -0.00074571      -6.48867083
