48
Lattice="9.966633905203965 0.031377089820130245 0.018255609802051563 -4.956124988772163 8.524305727926688 0.0462069550120009 0.014888827425656524 0.05213148883433864 8.05246507327226" Properties=species:S:1:pos:R:3:spacegroup_kinds:I:1:site:S:1:forces:R:3:energies:R:1 spacegroup="P 63/m m c" unit_cell=conventional energy=-334.57500290722146 stress="0.00021569095659346442 0.0001871806371194844 -0.00011755420860273747 0.0001871806371194844 5.203779763409573e-05 -0.00038524799988548465 -0.00011755420860273747 -0.00038524799988548465 -6.541517862876057e-06" free_energy=-334.57500290722146 pbc="T T T"
Nb       0.07776344       2.87414289       0.46057473        0 4f      -0.00210726      -0.00604903      -0.00269246      -9.54549965
Nb       2.49267036       1.60638451       4.65092061        0 4f      -0.00382018       0.00171403      -0.00044304      -9.51875512
Nb       2.45523513       1.58583581       7.51210355        0 4f      -0.00380825       0.00330929       0.00142867      -9.51518786
Nb       0.05938059       2.87655583       3.73071853        0 4f      -0.00119986      -0.00364153       0.00082873      -9.50220087
Al       0.01498826       0.03943350      -0.04036146        1 2a       0.00261342      -0.00535977       0.01292580      -4.80243107
Ni       0.04313501       0.04746363       4.00037368        1 2a       0.01081680       0.00147201      -0.00078775      -6.52851562
Al       2.45451756       2.89833003       2.03885211        2 6h      -0.00823307      -0.00314707      -0.00268658      -4.92938565
Al       1.41483684       0.67630166       2.11386286        2 6h      -0.00457215       0.00308110      -0.00385138      -4.83537466
Ni       3.73664256       0.81450022       2.02193540        2 6h       0.00781659       0.00608113      -0.00561043      -6.42218870
Ni       0.07951828       1.46931316       6.04998593        2 6h       0.00111406      -0.00360975      -0.00063973      -6.54181851
Ni       1.28247030       3.61216997       6.08062452        2 6h       0.01313647       0.01002658       0.00297281      -6.41687764
Ni      -1.16425064       3.55911401       6.05333475        2 6h      -0.01332700      -0.00353510      -0.00169349      -6.43507417
Nb      -2.53750134       7.03612651       0.57932435        0 4f       0.00403507      -0.00272924      -0.00419039      -9.57621453
Nb       0.04592757       5.59943165       4.69055109        0 4f      -0.00134934       0.00542880       0.00025672      -9.57080217
Nb       0.12619938       5.64589732       7.56799625        0 4f      -0.00216302       0.00102643      -0.00171091      -9.51474333
Nb      -2.44309589       6.99369953       3.57294167        0 4f      -0.00212413      -0.00392060      -0.00522358      -9.51282652
Al      -2.41137298       4.23319291      -0.04620361        1 2a      -0.00059060       0.00169325       0.00175505      -4.99628379
Ni      -2.41208936       4.28349734       4.02593262        1 2a       0.00304803      -0.00845104       0.00813160      -6.37860890
Ni       0.03306956       7.15578139       2.07569395        2 6h      -0.00720721       0.00999479      -0.00217217      -6.43230022
Al      -1.07345841       4.99330812       2.11202946        2 6h      -0.00475013      -0.00598105      -0.00435667      -5.04329780
Ni       1.24683177       5.04330669       2.04885516        2 6h      -0.00234404       0.00042103      -0.00189757      -6.34859355
Ni      -2.46508546       5.70225687       6.04365417        2 6h       0.00788603      -0.00450588      -0.00496135      -6.36323693
Ni      -1.19690385       7.79211835       6.11078586        2 6h      -0.00519712      -0.00516313      -0.00267925      -6.41339905
Al      -3.55429362       7.82085301       5.98580796        2 6h       0.00254894      -0.00138182       0.00168136      -5.02409715
Nb       4.93694886       2.93415542       0.46158603        0 4f       0.00000038      -0.00938642       0.00307714      -9.51986983
Nb       7.42687470       1.46029538       4.53003051        0 4f       0.00007068      -0.00013687       0.00262300      -9.46514939
Nb       7.48741647       1.46396599       7.52497904        0 4f      -0.00586099       0.00241703       0.00077417      -9.53316026
Nb       4.89471319       2.89043877       3.56080576        0 4f      -0.00218667      -0.00404771       0.00291382      -9.52431614
Al       4.81357674       0.01033088       0.00922309        1 2a      -0.00220333       0.00062973       0.01019949      -5.12541155
Al       4.82448512       0.03225551       4.04292266        1 2a      -0.00079135       0.00130174      -0.00702711      -5.12983770
Ni       7.50426053       2.88238640       2.01393410        2 6h       0.00247248      -0.00111557      -0.00329887      -6.53323302
Al       6.19876971       0.85311182       2.00239305        2 6h       0.00054753       0.00066360      -0.00021322      -4.97900309
Al       8.71495876       0.89167542       2.11424830        2 6h      -0.00349782      -0.00979449      -0.00649766      -4.88722380
Ni       5.00470032       1.47443656       6.04820727        2 6h      -0.00199156       0.00488810      -0.00056001      -6.48664430
Al       6.21363194       3.57904036       5.95078570        2 6h       0.00210835      -0.00113550       0.00767103      -5.07215947
Ni       3.77749751       3.62108561       6.07434240        2 6h      -0.00270958       0.00428817      -0.00226117      -6.39573647
Nb       2.53964230       7.22084570       0.55041972        0 4f       0.00044701       0.00559521      -0.00304937      -9.54555868
Nb       4.93825466       5.68462462       4.58042862        0 4f       0.00231917      -0.00114551       0.00576821      -9.53356883
Nb       5.01859094       5.77403195       7.59426229        0 4f       0.00691046       0.00195375      -0.00097480      -9.64017114
Nb       2.43703344       7.17148612       3.53669491        0 4f      -0.00031378       0.00138685       0.00284422      -9.54634765
Ni       2.52541811       4.27368109       0.03236317        1 2a       0.00022286       0.00376636      -0.00432359      -6.39693892
Ni       2.53077662       4.28912736       4.05665836        1 2a      -0.00480836       0.00617132       0.00540373      -6.43411473
Al       5.00597709       7.11314799       2.16336272        2 6h       0.00382849       0.00961660      -0.00353900      -4.66042892
Al       3.65356757       5.06658627       2.02532097        2 6h       0.00770471      -0.00034313       0.00523902      -4.81278645
Al       6.23379916       4.90496348       2.13100135        2 6h       0.00846050      -0.00393909      -0.00158219      -4.90360200
Ni       2.53141948       5.76002037       6.06842509        2 6h      -0.00732143       0.00018319      -0.00057216      -6.41588515
Al       3.77005554       7.85726500       5.95568204        2 6h      -0.00611266       0.00104522       0.00444131      -4.92997340
Al       1.27124658       7.80394176       6.10403677        2 6h       0.01248287       0.00036399      -0.00143998      -4.93616856
