12
Lattice="5.0387669512104365 0.06409095860404913 -2.9134276342808284e-16 -2.4621661892056883 4.397218558210194 -8.21707596510606e-15 -6.244720543676676e-17 2.4396456138370085e-15 7.861744263162646" Properties=species:S:1:pos:R:3:spacegroup_kinds:I:1:site:S:1:forces:R:3:energies:R:1 spacegroup="P 63/m m c" unit_cell=conventional energy=-86.76852750192558 stress="-0.00019255072611425633 -0.00011371117490201438 -1.839828407113674e-16 -0.00011371117490201438 0.00045855073815827046 -2.8608761535405006e-16 -1.839828407113674e-16 -2.8608761535405006e-16 -0.00043622800688178907" free_energy=-86.76852750192558 pbc="T T T"
Nb       0.04982471       2.98503900       0.52973674        0 4f      -0.00913313       0.00455898      -0.00121750      -9.86602995
Nb       2.52369209       1.48996313       4.42866535        0 4f       0.00547167       0.00112768       0.00001397      -9.67669054
Nb       2.52369209       1.48996313       7.36395104        0 4f       0.00547167       0.00112768      -0.00001397      -9.67669054
Nb       0.04982471       2.98503900       3.40113539        0 4f      -0.00913313       0.00455898       0.00121750      -9.86602995
Ni      -0.02839930       0.00480469       0.00185820        1 2a      -0.00372977      -0.00249837       0.00058708      -6.70145533
Ni      -0.02839930       0.00480469       3.92901393        1 2a      -0.00372977      -0.00249837      -0.00058708      -6.70145533
Al       2.55068123       2.99382719       1.96543607        2 6h      -0.01011114      -0.01443765      -0.00000000      -4.96804423
V        1.28851917       0.80580148       1.96543607        2 6h       0.00953753       0.00091445      -0.00000000      -7.93393305
Al       3.77219135       0.81728408       1.96543607        2 6h      -0.00757952       0.00516264      -0.00000000      -4.93113104
Al       0.02558226       1.44376369       5.89630820        2 6h       0.00746661       0.01200526       0.00000000      -5.01455777
Al       1.30820431       3.67418979       5.89630820        2 6h       0.00679430      -0.00288760       0.00000000      -4.97330898
Ni      -1.15240952       3.61206771       5.89630820        2 6h       0.00867468      -0.00713370       0.00000000      -6.45920078
