12
Lattice="4.792061890204916 -6.234283854852771e-18 -3.566234518517956e-18 -2.3960309451024573 4.1500473334243795 2.6212452409257734e-14 7.971521229478055e-17 5.3410700779057336e-14 7.8615194416310725" Properties=species:S:1:pos:R:3:spacegroup_kinds:I:1:site:S:1:forces:R:3:energies:R:1 spacegroup="P 63/m m c" unit_cell=conventional energy=-88.90649041368363 stress="0.000697692836000181 4.530710038750994e-17 5.289041605804415e-17 4.530710038750994e-17 0.0006976928359313477 -2.8744564744523065e-15 5.289041605804415e-17 -2.8744564744523065e-15 -8.747830193158236e-05" free_energy=-88.90649041368363 pbc="T T T"
Nb       0.00000000       2.76669822       0.51736859        0 4f       0.00000000       0.00000000      -0.00973288      -9.56975301
Nb       2.39603095       1.38334911       4.44812831        0 4f      -0.00000000       0.00000000      -0.00973288      -9.56975301
Nb       2.39603095       1.38334911       7.34415085        0 4f      -0.00000000      -0.00000000       0.00973288      -9.56975301
Nb       0.00000000       2.76669822       3.41339113        0 4f       0.00000000       0.00000000       0.00973288      -9.56975301
Ni       0.00000000       0.00000000      -0.00000000        1 2a       0.00000000      -0.00000000       0.00000000      -6.34449142
Ni       0.00000000       0.00000000       3.93075972        1 2a       0.00000000       0.00000000       0.00000000      -6.34449142
Ni       2.39603095       2.75189468       1.96537986        2 6h      -0.00000000       0.00900955      -0.00000000      -6.32308259
Ni       1.21083572       0.69907633       1.96537986        2 6h      -0.00780250      -0.00450478       0.00000000      -6.32308259
Ni       3.58122617       0.69907633       1.96537986        2 6h       0.00780250      -0.00450478       0.00000000      -6.32308259
Ni       0.00000000       1.39815266       5.89613958        2 6h       0.00000000      -0.00900955      -0.00000000      -6.32308259
Ni       1.18519522       3.45097100       5.89613958        2 6h       0.00780250       0.00450478      -0.00000000      -6.32308259
Ni      -1.18519522       3.45097100       5.89613958        2 6h      -0.00780250       0.00450478      -0.00000000      -6.32308259
