32
Lattice="-0.0023117579080258483 3.522381712233246 3.5197393477787395 7.04286704732133 -0.0037363372185207854 7.038591516892884 7.0377073978624995 7.038716578786681 0.0014233550966471639" Properties=species:S:1:pos:R:3:initial_magmoms:R:1:forces:R:3:energies:R:1 energy=-182.9777886822335 stress="-0.0006219838513354095 0.0014978751793526736 -4.6269864037906266e-05 0.0014978751793526736 -0.0009470900353914627 -0.0003583006172937719 -4.6269864037906266e-05 -0.0003583006172937719 0.0010530870395560486" free_energy=-182.9777886822335 pbc="T T T"
Ni      -0.00062068      -0.00064209       0.00792558       0.60000000       0.00241471      -0.00292204       0.00237674      -5.72885828
Ni       1.74445303       1.77933797       0.00694173       0.60000000       0.00102385      -0.01350305      -0.00315628      -5.76361992
Ni       3.51853320       3.52037027       0.00488341       0.60000000      -0.00082845       0.00142893      -0.00153450      -5.73781177
Ni       5.27762050       5.27386690       0.00830019       0.60000000       0.01051176       0.00083880      -0.00222728      -5.70402298
Ni       1.74129507       0.00212894       1.78038616       0.60000000      -0.00390069      -0.00234423      -0.00527316      -5.76598038
Ni       3.51043293       1.78056682       1.79290061       0.60000000       0.00420389       0.00598128       0.00387356      -5.90334014
Ni       5.27838935       3.52139127       1.77793397       0.60000000       0.00104061       0.00150087       0.00036991      -5.85453490
Ni       7.03494266       5.27898277       1.76794657       0.60000000      -0.00280839      -0.00062090      -0.01051052      -5.70971820
Ni       3.51972364      -0.01640420       3.51529056       0.60000000      -0.00442980       0.00720676      -0.00007241      -5.78381834
Al       5.34513688       1.69042187       3.51453427       0.60000000      -0.00122913       0.01450457       0.00326879      -5.09486954
Ni       7.05833081       3.52060415       3.51223047       0.60000000      -0.00429635      -0.00132971      -0.00346951      -5.77880282
Ni       8.80617325       5.27730821       3.51321878       0.60000000       0.00616082      -0.01677580       0.00248902      -5.70431256
Ni       5.28573067      -0.02224506       5.29779274       0.60000000      -0.00006007       0.00025170      -0.00732197      -5.76172077
Ni       7.05834246       1.75061262       5.28807628       0.60000000       0.00084365      -0.00320995      -0.00681482      -5.77644425
Ni       8.80756493       3.51841215       5.27419107       0.60000000       0.00646425       0.00728333      -0.01058711      -5.71620512
Ni      10.56240213       5.27324859       5.28280087       0.60000000      -0.00777800      -0.00481074      -0.01123994      -5.70483437
Ni      -0.00771683       1.75933474       1.76533392       0.60000000      -0.00646425      -0.00728333       0.01058711      -5.71620512
Ni       1.74150565       3.52713427       1.75144871       0.60000000      -0.00084365       0.00320995       0.00681482      -5.77644425
Ni       3.51411744       5.29999195       1.74173225       0.60000000       0.00006007      -0.00025170       0.00732197      -5.76172077
Ni       5.27515337       7.04321488       1.75814747       0.60000000       0.00777800       0.00481074       0.01123994      -5.70483437
Ni       1.74151730       1.75714274       3.52729452       0.60000000       0.00429635       0.00132971       0.00346951      -5.77880282
Al       3.45471123       3.58732502       3.52499071       0.60000000       0.00122913      -0.01450457      -0.00326879      -5.09486954
Ni       5.28012446       5.29415109       3.52423443       0.60000000       0.00442980      -0.00720676       0.00007241      -5.78381834
Ni       7.03138225       7.03915526       3.52772956       0.60000000      -0.00616082       0.01677580      -0.00248902      -5.70431256
Ni       3.52145875       1.75635562       5.26159101       0.60000000      -0.00104061      -0.00150087      -0.00036991      -5.85453490
Ni       5.28941518       3.49718007       5.24662438       0.60000000      -0.00420389      -0.00598128      -0.00387356      -5.90334014
Ni       7.05855303       5.27561795       5.25913883       0.60000000       0.00390069       0.00234423       0.00527316      -5.76598038
Ni       8.80261285       7.03748071       5.27300177       0.60000000       0.00280839       0.00062090       0.01051052      -5.70971820
Ni       5.28131490       1.75737662       7.03464158       0.60000000       0.00082845      -0.00142893       0.00153450      -5.73781177
Ni       7.05539507       3.49840893       7.03258326       0.60000000      -0.00102385       0.01350305       0.00315628      -5.76361992
Ni       8.80046879       5.27838899       7.03159940       0.60000000      -0.00241471       0.00292204      -0.00237674      -5.72885828
Ni      10.55993500       7.04259657       7.03264816       0.60000000      -0.01051176      -0.00083880       0.00222728      -5.70402298
