32
Lattice="0.014692014641957818 3.5210079054782937 3.546783754411701 7.201637445285259 0.008417253696208857 7.1146280664399235 7.253981631336263 7.115681389688629 -0.04410420697332035" Properties=species:S:1:pos:R:3:initial_magmoms:R:1:forces:R:3:energies:R:1 energy=-179.4910309083458 stress="-0.0012090431102472225 0.0010234551080219464 -0.0003019007905103768 0.0010234551080219464 0.000914081187106296 -0.001095006781598076 -0.0003019007905103768 -0.001095006781598076 2.382983932299244e-05" free_energy=-179.4910309083458 pbc="T T T"
Ni       0.01741418      -0.00843874       0.05115213       0.60000000      -0.00020745      -0.00349290      -0.00302155      -5.80783559
Ni       1.82313894       1.77322170      -0.00554017       0.60000000       0.00218093       0.00030558      -0.00248027      -5.79504378
Ni       3.62431092       3.55756189       0.00623147       0.60000000       0.00037524      -0.00076229       0.00484695      -5.69959274
Ni       5.42456798       5.32980515      -0.05102779       0.60000000      -0.00221288       0.01123438       0.00123539      -5.74653074
Ni       1.80304841       0.01705609       1.77050211       0.60000000       0.00422061      -0.00983576      -0.00282576      -5.73667467
Ni       3.57655950       1.80411340       1.79353552       0.60000000       0.00354606       0.00177896      -0.00418775      -5.70063824
Ni       5.38356995       3.54958707       1.73030909       0.60000000      -0.00093386       0.00826183      -0.00258215      -5.79829927
Ni       7.23989756       5.28211616       1.65961757       0.60000000       0.00416305       0.00227888       0.00493621      -5.91884026
Ni       3.65153890      -0.02304658       3.53957521       0.60000000       0.00306438       0.00609151       0.00200436      -5.96934498
Ni       5.46934746       1.88944884       3.63423831       0.60000000      -0.00839368       0.00824849       0.00383272      -5.94653961
Al       7.16542062       3.66028708       3.42805278       0.60000000       0.00266117      -0.00738543      -0.00044132      -4.82252230
Ni       9.04625307       5.29332691       3.43715308       0.60000000      -0.00560798      -0.00266134      -0.00829048      -6.01046268
Ni       5.40117772       0.05417857       5.39603950       0.60000000      -0.00544035       0.00152498       0.00244015      -5.90214086
Al       7.26736238       1.60930230       5.35640541       0.60000000       0.00002713       0.01364356      -0.00937664      -4.94022097
Al       9.14112698       3.63042658       5.38584812       0.60000000      -0.00759839      -0.00597084      -0.00310055      -4.99099993
Ni      10.86624060       5.32678160       5.34755658       0.60000000       0.00770994      -0.00853851      -0.00653097      -5.73905788
Ni       0.04718082       1.80620209       1.79478824       0.60000000       0.00382074      -0.00557826      -0.00118827      -5.74888341
Ni       1.84627646       3.51901878       1.77243938       0.60000000      -0.00141090       0.00322863       0.00000950      -5.68862510
Ni       3.61755380       5.30800004       1.74103589       0.60000000       0.00585833      -0.00188575       0.00403933      -5.71628465
Ni       5.40417106       7.01742709       1.74042750       0.60000000      -0.00815475       0.00710786      -0.01624489      -5.72620767
Ni       1.80876122       1.73892017       3.56099773       0.60000000      -0.00418129      -0.01046499       0.00502447      -5.82564102
Ni       3.60980706       3.56944831       3.54300498       0.60000000       0.00659791      -0.00199788       0.00127541      -5.79140483
Ni       5.37243497       5.30941830       3.49446956       0.60000000      -0.00379129      -0.00191960       0.00601540      -5.82035221
Al       7.15255152       7.07202659       3.39721584       0.60000000       0.01288859      -0.00796845       0.00963632      -5.06897458
Al       3.59802530       1.80189381       5.25012470       0.60000000       0.00960008       0.00280093       0.00825104      -4.90885632
Al       5.37851864       3.76762479       5.36767257       0.60000000       0.00084535       0.00147726      -0.00287476      -4.89020273
Ni       7.25291009       5.34494453       5.28870199       0.60000000      -0.00081212      -0.00481478      -0.00325845      -6.05682535
Al       9.11964538       6.97587674       5.22403442       0.60000000      -0.01777681       0.00173638      -0.00261372      -4.95922766
Al       5.42271235       1.70000650       7.32322503       0.60000000      -0.01256304       0.00256652       0.00234738      -4.95605985
Ni       7.19771977       3.49154675       7.03775758       0.60000000       0.01258362       0.00018981       0.00463475      -5.95213385
Ni       8.99733934       5.38662088       7.15532816       0.60000000      -0.00486078      -0.00595058      -0.00230584      -5.98764736
Ni      10.85838209       7.10254359       7.04968387       0.60000000       0.00380245       0.00675177       0.01079398      -5.86895981
