32
Lattice="0.006731325459657423 3.5285521131161484 3.540127597811587 7.087479949737539 0.02625754291812562 7.067476549352188 7.105586179808213 7.062442185480699 0.00813133066537273" Properties=species:S:1:pos:R:3:initial_magmoms:R:1:forces:R:3:energies:R:1 energy=-182.20152884975488 stress="4.518026792708799e-05 0.00018170926237019665 -1.3502483163396377e-05 0.00018170926237019665 0.0016334052869247078 0.00015424120472295214 -1.3502483163396377e-05 0.00015424120472295214 0.000778335292571051" free_energy=-182.20152884975488 pbc="T T T"
Ni       0.02279388      -0.00069082       0.02196294       0.60000000      -0.00046413      -0.00069971      -0.00012779      -5.75785868
Ni       1.78940894       1.76513474      -0.00407099       0.60000000       0.00003174       0.00090646      -0.00219092      -5.72604241
Ni       3.55745360       3.53183007      -0.00336940       0.60000000      -0.00363620       0.00535676      -0.01106752      -5.75490585
Ni       5.34347290       5.31165556       0.02532172       0.60000000      -0.00228831       0.00770167       0.00187208      -5.82822037
Ni       1.76510135      -0.00702809       1.74449999       0.60000000       0.00036521      -0.00212556       0.00455829      -5.73585750
Ni       3.54666161       1.79014590       1.74716618       0.60000000       0.00100413      -0.01150820      -0.00450405      -5.73476521
Ni       5.31981455       3.53955368       1.76375220       0.60000000      -0.00042968      -0.00240574       0.00078880      -5.67992583
Ni       7.09171733       5.30511966       1.78022743       0.60000000      -0.00347739       0.00340013       0.00241032      -5.69065186
Al       3.48485238       0.00295594       3.45859490       0.60000000       0.00971494      -0.01105693       0.00156423      -5.06965992
Ni       5.32028018       1.76932550       3.51689247       0.60000000      -0.00218789      -0.00754914      -0.00208317      -5.84277386
Ni       7.06997013       3.54612053       3.53210078       0.60000000      -0.00370698       0.00070268      -0.00476001      -5.75870492
Ni       8.83540730       5.31796782       3.54367502       0.60000000       0.00205520       0.00033245       0.00389720      -5.80901284
Al       5.46174787       0.02478621       5.29820021       0.60000000      -0.01744561      -0.00296052       0.00057727      -5.02214455
Ni       7.10102549       1.80707663       5.31582514       0.60000000       0.00043009       0.00720765       0.00124135      -5.78825952
Ni       8.85812140       3.54315596       5.28320956       0.60000000       0.00773291       0.00167877      -0.00061229      -5.86946158
Ni      10.66460394       5.38911605       5.36790761       0.60000000       0.00026399       0.00735770       0.00336593      -6.00510851
Ni       0.03507170       1.73927146       1.77650313       0.60000000       0.00396456      -0.00031022       0.00195849      -5.75284851
Ni       1.77765691       3.51109006       1.79015206       0.60000000       0.00268711       0.00283655      -0.00510527      -5.77058698
Ni       3.55534436       5.28361480       1.76986620       0.60000000      -0.00347580       0.00693188      -0.00154818      -5.82132188
Ni       5.35049383       7.07426011       1.80269901       0.60000000       0.00241874       0.00305540       0.00314103      -5.75505255
Ni       1.76183894       1.76490869       3.53830432       0.60000000       0.00123959      -0.00184096       0.00157716      -5.74302647
Ni       3.55294623       3.52909904       3.53419991       0.60000000      -0.00058325      -0.00348457       0.00596203      -5.70401002
Ni       5.31840430       5.30317103       3.53279801       0.60000000       0.00038018      -0.00207117      -0.00098517      -5.67654605
Ni       7.10058229       7.07015900       3.55083537       0.60000000       0.00072888       0.00214872       0.00476928      -5.69783642
Ni       3.55469272       1.73043134       5.26511586       0.60000000       0.00151481      -0.00774782       0.00444495      -5.96973657
Ni       5.31716042       3.53552584       5.28635328       0.60000000      -0.00037745      -0.00927989      -0.00177546      -5.77114392
Ni       7.07113028       5.30460654       5.28872472       0.60000000      -0.00812939       0.00332901      -0.00152307      -5.74924762
Ni       8.84187921       7.07881915       5.33637229       0.60000000       0.00564594      -0.00014031       0.00050711      -5.86784560
Ni       5.34516493       1.79315632       7.07616200       0.60000000      -0.00460828      -0.00219040       0.00072440      -5.94151545
Ni       7.10353937       3.52394170       7.04463197       0.60000000      -0.00271695       0.00144696      -0.00184678      -5.77986013
Al       8.79716825       5.25012432       7.08180316       0.60000000       0.01321617       0.01058459      -0.00590900      -5.07503016
Al      10.65513757       7.16440892       7.16189830       0.60000000       0.00013314       0.00039377       0.00067879      -5.05256713
