32
Lattice="0.005199717578065616 3.5272336610919153 3.535552247542777 7.082888337140822 0.01598689815740964 7.065523936430143 7.096112376334382 7.062117057024608 0.002754294506682183" Properties=species:S:1:pos:R:3:initial_magmoms:R:1:forces:R:3:energies:R:1 energy=-182.2811989666698 stress="-0.00010212365338186058 -4.990445761160173e-05 1.62492429499708e-05 -4.990445761160173e-05 0.0017747485060405326 -1.3653421171256843e-05 1.62492429499708e-05 -1.3653421171256843e-05 0.0008469519771255003" free_energy=-182.2811989666698 pbc="T T T"
Ni       0.00896575       0.06466774       0.05338439       0.60000000      -0.00162349       0.00257069      -0.00275510      -5.94495159
Al       1.84707304       1.76302569      -0.05161639       0.60000000       0.00003265       0.00405005       0.00461316      -5.09668856
Ni       3.56829448       3.54195642      -0.01028643       0.60000000      -0.00361427      -0.00350817      -0.00329574      -5.78075871
Ni       5.31324201       5.28936943       0.02465931       0.60000000      -0.00102278       0.00601200      -0.00726589      -5.77221762
Ni       1.78387119       0.01598517       1.78057882       0.60000000      -0.00290745       0.01654840       0.00522559      -5.83787435
Ni       3.56385800       1.77127650       1.77260460       0.60000000       0.01001707      -0.00527383      -0.00776739      -5.76097816
Ni       5.32668605       3.52453584       1.77196487       0.60000000      -0.00176109      -0.00536831       0.00299131      -5.69165985
Ni       7.08608526       5.30822803       1.76151415       0.60000000       0.00370314       0.00606848       0.00022667      -5.71879636
Ni       3.52849455       0.02832606       3.53378367       0.60000000      -0.00170404      -0.00319003       0.00572955      -5.76146428
Ni       5.32346913       1.76216925       3.53757979       0.60000000      -0.00167401       0.00067092       0.00041058      -5.71113453
Ni       7.08818304       3.53996995       3.52054240       0.60000000      -0.00353314       0.01548946       0.00855766      -5.70077131
Ni       8.84434279       5.30935288       3.52230868       0.60000000      -0.00861231       0.00151016       0.00025683      -5.76120688
Ni       5.30591661       0.01730851       5.30976657       0.60000000       0.00361926      -0.00100995       0.00136695      -5.91112280
Ni       7.09520646       1.77683407       5.27064243       0.60000000      -0.00151659      -0.01085363       0.00875078      -5.81934676
Ni       8.83097472       3.55359688       5.29698177       0.60000000      -0.00535744      -0.00479718      -0.01601354      -5.78150140
Ni      10.61718365       5.28677101       5.26258167       0.60000000      -0.00416932       0.00324484       0.00168330      -5.89201143
Al       0.01984243       1.77632487       1.91706770       0.60000000      -0.00550951      -0.00272827       0.00110612      -5.03536099
Ni       1.79864533       3.50846430       1.75636933       0.60000000      -0.00383311       0.00407349       0.00187508      -5.88365042
Ni       3.57582154       5.27200569       1.76505870       0.60000000       0.00503889      -0.00072124       0.00699295      -5.76973711
Ni       5.31572276       7.07827666       1.75372839       0.60000000      -0.00032999       0.01276290      -0.01226779      -5.89867864
Ni       1.79204749       1.77926395       3.56624271       0.60000000      -0.00064607       0.00931420      -0.00443790      -5.75150912
Ni       3.57273367       3.51344427       3.53776474       0.60000000       0.00319161       0.00271340       0.00918871      -5.74458976
Ni       5.32271859       5.30461487       3.52221547       0.60000000       0.00376735      -0.01380223       0.00666537      -5.70155136
Ni       7.08476567       7.03805799       3.55236473       0.60000000       0.00645650      -0.01009246       0.00876136      -5.72759423
Ni       3.53488079       1.77370500       5.30702580       0.60000000       0.00245472       0.00141883       0.01060236      -5.82886746
Ni       5.32679178       3.55974637       5.27450928       0.60000000      -0.00254717      -0.00250068      -0.01147400      -5.73186962
Ni       7.08254697       5.29197161       5.30650591       0.60000000       0.00277533      -0.00385191      -0.01922058      -5.68770428
Ni       8.83897926       7.06117961       5.28381935       0.60000000      -0.00668395      -0.00902338      -0.01259962      -5.74735184
Al       5.30865843       1.84856531       7.00517831       0.60000000       0.00783107       0.00299715       0.00380113      -5.06810832
Ni       7.09605368       3.51624706       7.08499965       0.60000000       0.00265200      -0.01015215       0.00121181      -5.90921647
Ni       8.83942411       5.27830626       7.06020667       0.60000000       0.00172383       0.00314269      -0.00087200      -5.76563692
Al      10.54812706       7.00156953       7.05370971       0.60000000       0.00378229      -0.00571425       0.00795229      -5.08728783
