32
Lattice="7.020527713882012 -8.273757691493424e-18 -6.246509784170891e-18 -1.1503586690885278e-17 7.020527713881164 5.283599825198777e-13 2.2921319491540294e-18 5.740365732936343e-13 7.020527713881648" Properties=species:S:1:pos:R:3:initial_magmoms:R:1:forces:R:3:energies:R:1 energy=-183.42071066673316 stress="-0.00013428322054784321 -1.1508266198387364e-17 -4.878439107447182e-18 -1.1508266198387364e-17 -0.0001342832206234786 9.580083502443779e-14 -4.878439107447182e-18 9.580083502443779e-14 -0.0001342832205803391" free_energy=-183.42071066673316 pbc="T T T"
Ni       0.00000000       0.00000000       0.00000000       0.60000000      -0.00000000      -0.00000000      -0.00000000      -5.73189721
Ni       0.00000000       1.75513193       1.75513193       0.60000000      -0.00000000      -0.00000000      -0.00000000      -5.73189721
Ni       1.75513193       0.00000000       1.75513193       0.60000000      -0.00000000      -0.00000000      -0.00000000      -5.73189721
Ni       1.75513193       1.75513193       0.00000000       0.60000000      -0.00000000      -0.00000000      -0.00000000      -5.73189721
Ni       0.00000000       0.00000000       3.51026386       0.60000000      -0.00000000      -0.00000000      -0.00000000      -5.73189721
Ni       0.00000000       1.75513193       5.26539579       0.60000000      -0.00000000      -0.00000000       0.00000000      -5.73189721
Ni       1.75513193       0.00000000       5.26539579       0.60000000      -0.00000000      -0.00000000       0.00000000      -5.73189721
Ni       1.75513193       1.75513193       3.51026386       0.60000000      -0.00000000      -0.00000000      -0.00000000      -5.73189721
Ni       0.00000000       3.51026386       0.00000000       0.60000000      -0.00000000      -0.00000000      -0.00000000      -5.73189721
Ni       0.00000000       5.26539579       1.75513193       0.60000000      -0.00000000       0.00000000      -0.00000000      -5.73189721
Ni       1.75513193       3.51026386       1.75513193       0.60000000      -0.00000000      -0.00000000      -0.00000000      -5.73189721
Ni       1.75513193       5.26539579       0.00000000       0.60000000      -0.00000000       0.00000000      -0.00000000      -5.73189721
Ni       0.00000000       3.51026386       3.51026386       0.60000000      -0.00000000      -0.00000000      -0.00000000      -5.73189721
Ni       0.00000000       5.26539579       5.26539579       0.60000000      -0.00000000       0.00000000       0.00000000      -5.73189721
Ni       1.75513193       3.51026386       5.26539579       0.60000000      -0.00000000      -0.00000000       0.00000000      -5.73189721
Ni       1.75513193       5.26539579       3.51026386       0.60000000      -0.00000000       0.00000000      -0.00000000      -5.73189721
Ni       3.51026386       0.00000000       0.00000000       0.60000000      -0.00000000      -0.00000000      -0.00000000      -5.73189721
Ni       3.51026386       1.75513193       1.75513193       0.60000000      -0.00000000      -0.00000000      -0.00000000      -5.73189721
Ni       5.26539579       0.00000000       1.75513193       0.60000000       0.00000000      -0.00000000      -0.00000000      -5.73189721
Ni       5.26539579       1.75513193       0.00000000       0.60000000       0.00000000      -0.00000000      -0.00000000      -5.73189721
Ni       3.51026386       0.00000000       3.51026386       0.60000000      -0.00000000      -0.00000000      -0.00000000      -5.73189721
Ni       3.51026386       1.75513193       5.26539579       0.60000000      -0.00000000      -0.00000000       0.00000000      -5.73189721
Ni       5.26539579       0.00000000       5.26539579       0.60000000       0.00000000      -0.00000000       0.00000000      -5.73189721
Ni       5.26539579       1.75513193       3.51026386       0.60000000       0.00000000      -0.00000000      -0.00000000      -5.73189721
Ni       3.51026386       3.51026386       0.00000000       0.60000000      -0.00000000      -0.00000000      -0.00000000      -5.73189721
Ni       3.51026386       5.26539579       1.75513193       0.60000000      -0.00000000       0.00000000      -0.00000000      -5.73189721
Ni       5.26539579       3.51026386       1.75513193       0.60000000       0.00000000      -0.00000000      -0.00000000      -5.73189721
Ni       5.26539579       5.26539579       0.00000000       0.60000000       0.00000000       0.00000000      -0.00000000      -5.73189721
Ni       3.51026386       3.51026386       3.51026386       0.60000000      -0.00000000      -0.00000000      -0.00000000      -5.73189721
Ni       3.51026386       5.26539579       5.26539579       0.60000000      -0.00000000       0.00000000       0.00000000      -5.73189721
Ni       5.26539579       3.51026386       5.26539579       0.60000000       0.00000000      -0.00000000       0.00000000      -5.73189721
Ni       5.26539579       5.26539579       3.51026386       0.60000000       0.00000000       0.00000000      -0.00000000      -5.73189721
