4
Lattice="3.51027977250832 -2.2383356863135706e-18 -5.478285958166304e-18 -2.23846248168437e-18 3.5102797725082953 2.860352938414329e-14 4.495411524225304e-19 3.0198104550967455e-14 3.5102797725082904" Properties=species:S:1:pos:R:3:initial_magmoms:R:1:forces:R:3:energies:R:1 energy=-22.927588907079972 stress="-0.00011638470517859031 -1.0773847069441338e-18 2.1340905714285836e-19 -1.0773847069441338e-18 -0.00011638470518305457 1.0143642593107109e-14 2.1340905714285836e-19 1.0143642593107109e-14 -0.00011638470518378771" free_energy=-22.927588907079972 pbc="T T T"
Ni       0.00000000       0.00000000      -0.00000000       0.60000000      -0.00000000      -0.00000000      -0.00000000      -5.73189723
Ni       0.00000000       1.75513989       1.75513989       0.60000000      -0.00000000       0.00000000       0.00000000      -5.73189723
Ni       1.75513989       0.00000000       1.75513989       0.60000000       0.00000000      -0.00000000       0.00000000      -5.73189723
Ni       1.75513989       1.75513989       0.00000000       0.60000000       0.00000000       0.00000000      -0.00000000      -5.73189723
