128
Lattice="12.898607424392424 6.337643440460323e-20 -1.6137974207028318e-19 1.6411152013138124e-17 12.898607424392631 9.135823919625997e-14 9.459441588363314e-18 2.796337939095597e-13 12.89860742438749" Properties=species:S:1:pos:R:3:forces:R:3:energies:R:1 energy=-471.96358249119186 stress="0.00020636225859505607 2.1078177488906053e-18 -3.849680347641706e-18 2.1078177488906053e-18 0.0002063622585932074 6.5660512491425816e-15 -3.849680347641706e-18 6.5660512491425816e-15 0.00020636225863887372" free_energy=-471.96358249119186 pbc="T T T"
Al      -0.00000000      -0.00000000      -0.00000000       0.00000000       0.00000000       0.00000000      -3.68721549
Al       1.61232593       1.61232593       1.61232593      -0.00000000      -0.00000000      -0.00000000      -3.68721549
Al      -0.00000000       0.00000000       3.22465186       0.00000000      -0.00000000       0.00000000      -3.68721549
Al       1.61232593       1.61232593       4.83697778      -0.00000000      -0.00000000      -0.00000000      -3.68721549
Al      -0.00000000       0.00000000       6.44930371       0.00000000      -0.00000000      -0.00000000      -3.68721549
Al       1.61232593       1.61232593       8.06162964      -0.00000000      -0.00000000       0.00000000      -3.68721549
Al      -0.00000000       0.00000000       9.67395557       0.00000000       0.00000000       0.00000000      -3.68721549
Al       1.61232593       1.61232593      11.28628150      -0.00000000      -0.00000000      -0.00000000      -3.68721549
Al      -0.00000000       3.22465186       0.00000000       0.00000000       0.00000000       0.00000000      -3.68721549
Al       1.61232593       4.83697778       1.61232593      -0.00000000      -0.00000000      -0.00000000      -3.68721549
Al      -0.00000000       3.22465186       3.22465186       0.00000000       0.00000000       0.00000000      -3.68721549
Al       1.61232593       4.83697778       4.83697778      -0.00000000      -0.00000000       0.00000000      -3.68721549
Al      -0.00000000       3.22465186       6.44930371       0.00000000       0.00000000      -0.00000000      -3.68721549
Al       1.61232593       4.83697778       8.06162964      -0.00000000      -0.00000000      -0.00000000      -3.68721549
Al      -0.00000000       3.22465186       9.67395557       0.00000000      -0.00000000       0.00000000      -3.68721549
Al       1.61232593       4.83697778      11.28628150      -0.00000000      -0.00000000      -0.00000000      -3.68721549
Al      -0.00000000       6.44930371       0.00000000       0.00000000      -0.00000000       0.00000000      -3.68721549
Al       1.61232593       8.06162964       1.61232593      -0.00000000       0.00000000      -0.00000000      -3.68721549
Al      -0.00000000       6.44930371       3.22465186       0.00000000      -0.00000000       0.00000000      -3.68721549
Al       1.61232593       8.06162964       4.83697778      -0.00000000       0.00000000       0.00000000      -3.68721549
Al      -0.00000000       6.44930371       6.44930371       0.00000000      -0.00000000      -0.00000000      -3.68721549
Al       1.61232593       8.06162964       8.06162964      -0.00000000       0.00000000      -0.00000000      -3.68721549
Al      -0.00000000       6.44930371       9.67395557       0.00000000      -0.00000000       0.00000000      -3.68721549
Al       1.61232593       8.06162964      11.28628150      -0.00000000       0.00000000      -0.00000000      -3.68721549
Al      -0.00000000       9.67395557       0.00000000       0.00000000      -0.00000000       0.00000000      -3.68721549
Al       1.61232593      11.28628150       1.61232593      -0.00000000      -0.00000000      -0.00000000      -3.68721549
Al      -0.00000000       9.67395557       3.22465186       0.00000000      -0.00000000       0.00000000      -3.68721549
Al       1.61232593      11.28628150       4.83697778      -0.00000000      -0.00000000       0.00000000      -3.68721549
Al      -0.00000000       9.67395557       6.44930371       0.00000000      -0.00000000      -0.00000000      -3.68721549
Al       1.61232593      11.28628150       8.06162964      -0.00000000      -0.00000000      -0.00000000      -3.68721549
Al      -0.00000000       9.67395557       9.67395557       0.00000000       0.00000000       0.00000000      -3.68721549
Al       1.61232593      11.28628150      11.28628150      -0.00000000      -0.00000000      -0.00000000      -3.68721549
Al       3.22465186      -0.00000000      -0.00000000       0.00000000       0.00000000       0.00000000      -3.68721549
Al       4.83697778       1.61232593       1.61232593       0.00000000      -0.00000000      -0.00000000      -3.68721549
Al       3.22465186       0.00000000       3.22465186       0.00000000       0.00000000       0.00000000      -3.68721549
Al       4.83697778       1.61232593       4.83697778      -0.00000000      -0.00000000      -0.00000000      -3.68721549
Al       3.22465186       0.00000000       6.44930371       0.00000000      -0.00000000      -0.00000000      -3.68721549
Al       4.83697778       1.61232593       8.06162964      -0.00000000      -0.00000000       0.00000000      -3.68721549
Al       3.22465186       0.00000000       9.67395557       0.00000000       0.00000000       0.00000000      -3.68721549
Al       4.83697778       1.61232593      11.28628150      -0.00000000      -0.00000000      -0.00000000      -3.68721549
Al       3.22465186       3.22465186       0.00000000       0.00000000       0.00000000       0.00000000      -3.68721549
Al       4.83697778       4.83697778       1.61232593      -0.00000000      -0.00000000      -0.00000000      -3.68721549
Al       3.22465186       3.22465186       3.22465186       0.00000000       0.00000000       0.00000000      -3.68721549
Al       4.83697778       4.83697778       4.83697778       0.00000000      -0.00000000      -0.00000000      -3.68721549
Al       3.22465186       3.22465186       6.44930371       0.00000000       0.00000000      -0.00000000      -3.68721549
Al       4.83697778       4.83697778       8.06162964      -0.00000000      -0.00000000      -0.00000000      -3.68721549
Al       3.22465186       3.22465186       9.67395557       0.00000000      -0.00000000       0.00000000      -3.68721549
Al       4.83697778       4.83697778      11.28628150      -0.00000000       0.00000000      -0.00000000      -3.68721549
Al       3.22465186       6.44930371       0.00000000       0.00000000      -0.00000000      -0.00000000      -3.68721549
Al       4.83697778       8.06162964       1.61232593      -0.00000000       0.00000000      -0.00000000      -3.68721549
Al       3.22465186       6.44930371       3.22465186       0.00000000      -0.00000000       0.00000000      -3.68721549
Al       4.83697778       8.06162964       4.83697778      -0.00000000       0.00000000      -0.00000000      -3.68721549
Al       3.22465186       6.44930371       6.44930371      -0.00000000      -0.00000000      -0.00000000      -3.68721549
Al       4.83697778       8.06162964       8.06162964      -0.00000000       0.00000000      -0.00000000      -3.68721549
Al       3.22465186       6.44930371       9.67395557       0.00000000      -0.00000000       0.00000000      -3.68721549
Al       4.83697778       8.06162964      11.28628150      -0.00000000       0.00000000      -0.00000000      -3.68721549
Al       3.22465186       9.67395557       0.00000000       0.00000000      -0.00000000       0.00000000      -3.68721549
Al       4.83697778      11.28628150       1.61232593       0.00000000      -0.00000000      -0.00000000      -3.68721549
Al       3.22465186       9.67395557       3.22465186       0.00000000      -0.00000000       0.00000000      -3.68721549
Al       4.83697778      11.28628150       4.83697778      -0.00000000       0.00000000       0.00000000      -3.68721549
Al       3.22465186       9.67395557       6.44930371       0.00000000      -0.00000000      -0.00000000      -3.68721549
Al       4.83697778      11.28628150       8.06162964      -0.00000000       0.00000000      -0.00000000      -3.68721549
Al       3.22465186       9.67395557       9.67395557      -0.00000000      -0.00000000       0.00000000      -3.68721549
Al       4.83697778      11.28628150      11.28628150       0.00000000      -0.00000000      -0.00000000      -3.68721549
Al       6.44930371      -0.00000000      -0.00000000      -0.00000000      -0.00000000       0.00000000      -3.68721549
Al       8.06162964       1.61232593       1.61232593       0.00000000      -0.00000000      -0.00000000      -3.68721549
Al       6.44930371       0.00000000       3.22465186      -0.00000000       0.00000000       0.00000000      -3.68721549
Al       8.06162964       1.61232593       4.83697778       0.00000000      -0.00000000       0.00000000      -3.68721549
Al       6.44930371       0.00000000       6.44930371      -0.00000000      -0.00000000      -0.00000000      -3.68721549
Al       8.06162964       1.61232593       8.06162964       0.00000000      -0.00000000       0.00000000      -3.68721549
Al       6.44930371       0.00000000       9.67395557      -0.00000000       0.00000000       0.00000000      -3.68721549
Al       8.06162964       1.61232593      11.28628150       0.00000000      -0.00000000      -0.00000000      -3.68721549
Al       6.44930371       3.22465186       0.00000000      -0.00000000       0.00000000       0.00000000      -3.68721549
Al       8.06162964       4.83697778       1.61232593       0.00000000      -0.00000000      -0.00000000      -3.68721549
Al       6.44930371       3.22465186       3.22465186      -0.00000000       0.00000000       0.00000000      -3.68721549
Al       8.06162964       4.83697778       4.83697778       0.00000000      -0.00000000      -0.00000000      -3.68721549
Al       6.44930371       3.22465186       6.44930371      -0.00000000       0.00000000      -0.00000000      -3.68721549
Al       8.06162964       4.83697778       8.06162964       0.00000000      -0.00000000      -0.00000000      -3.68721549
Al       6.44930371       3.22465186       9.67395557      -0.00000000      -0.00000000       0.00000000      -3.68721549
Al       8.06162964       4.83697778      11.28628150       0.00000000      -0.00000000      -0.00000000      -3.68721549
Al       6.44930371       6.44930371       0.00000000      -0.00000000      -0.00000000      -0.00000000      -3.68721549
Al       8.06162964       8.06162964       1.61232593       0.00000000       0.00000000      -0.00000000      -3.68721549
Al       6.44930371       6.44930371       3.22465186      -0.00000000      -0.00000000       0.00000000      -3.68721549
Al       8.06162964       8.06162964       4.83697778       0.00000000       0.00000000       0.00000000      -3.68721549
Al       6.44930371       6.44930371       6.44930371      -0.00000000      -0.00000000      -0.00000000      -3.68721549
Al       8.06162964       8.06162964       8.06162964       0.00000000       0.00000000       0.00000000      -3.68721549
Al       6.44930371       6.44930371       9.67395557      -0.00000000      -0.00000000       0.00000000      -3.68721549
Al       8.06162964       8.06162964      11.28628150       0.00000000       0.00000000      -0.00000000      -3.68721549
Al       6.44930371       9.67395557       0.00000000      -0.00000000       0.00000000       0.00000000      -3.68721549
Al       8.06162964      11.28628150       1.61232593       0.00000000      -0.00000000      -0.00000000      -3.68721549
Al       6.44930371       9.67395557       3.22465186      -0.00000000      -0.00000000      -0.00000000      -3.68721549
Al       8.06162964      11.28628150       4.83697778       0.00000000       0.00000000       0.00000000      -3.68721549
Al       6.44930371       9.67395557       6.44930371      -0.00000000       0.00000000      -0.00000000      -3.68721549
Al       8.06162964      11.28628150       8.06162964       0.00000000      -0.00000000      -0.00000000      -3.68721549
Al       6.44930371       9.67395557       9.67395557       0.00000000      -0.00000000       0.00000000      -3.68721549
Al       8.06162964      11.28628150      11.28628150       0.00000000      -0.00000000      -0.00000000      -3.68721549
Al       9.67395557      -0.00000000      -0.00000000       0.00000000       0.00000000       0.00000000      -3.68721549
Al      11.28628150       1.61232593       1.61232593      -0.00000000      -0.00000000      -0.00000000      -3.68721549
Al       9.67395557       0.00000000       3.22465186      -0.00000000       0.00000000       0.00000000      -3.68721549
Al      11.28628150       1.61232593       4.83697778      -0.00000000      -0.00000000       0.00000000      -3.68721549
Al       9.67395557       0.00000000       6.44930371      -0.00000000       0.00000000      -0.00000000      -3.68721549
Al      11.28628150       1.61232593       8.06162964      -0.00000000      -0.00000000      -0.00000000      -3.68721549
Al       9.67395557       0.00000000       9.67395557      -0.00000000       0.00000000       0.00000000      -3.68721549
Al      11.28628150       1.61232593      11.28628150      -0.00000000      -0.00000000      -0.00000000      -3.68721549
Al       9.67395557       3.22465186       0.00000000      -0.00000000       0.00000000       0.00000000      -3.68721549
Al      11.28628150       4.83697778       1.61232593      -0.00000000       0.00000000      -0.00000000      -3.68721549
Al       9.67395557       3.22465186       3.22465186      -0.00000000       0.00000000       0.00000000      -3.68721549
Al      11.28628150       4.83697778       4.83697778      -0.00000000      -0.00000000       0.00000000      -3.68721549
Al       9.67395557       3.22465186       6.44930371      -0.00000000       0.00000000      -0.00000000      -3.68721549
Al      11.28628150       4.83697778       8.06162964      -0.00000000      -0.00000000      -0.00000000      -3.68721549
Al       9.67395557       3.22465186       9.67395557      -0.00000000      -0.00000000       0.00000000      -3.68721549
Al      11.28628150       4.83697778      11.28628150      -0.00000000      -0.00000000      -0.00000000      -3.68721549
Al       9.67395557       6.44930371       0.00000000      -0.00000000      -0.00000000       0.00000000      -3.68721549
Al      11.28628150       8.06162964       1.61232593      -0.00000000       0.00000000      -0.00000000      -3.68721549
Al       9.67395557       6.44930371       3.22465186      -0.00000000      -0.00000000       0.00000000      -3.68721549
Al      11.28628150       8.06162964       4.83697778      -0.00000000       0.00000000       0.00000000      -3.68721549
Al       9.67395557       6.44930371       6.44930371       0.00000000      -0.00000000      -0.00000000      -3.68721549
Al      11.28628150       8.06162964       8.06162964      -0.00000000       0.00000000      -0.00000000      -3.68721549
Al       9.67395557       6.44930371       9.67395557      -0.00000000       0.00000000       0.00000000      -3.68721549
Al      11.28628150       8.06162964      11.28628150      -0.00000000       0.00000000      -0.00000000      -3.68721549
Al       9.67395557       9.67395557       0.00000000      -0.00000000      -0.00000000       0.00000000      -3.68721549
Al      11.28628150      11.28628150       1.61232593      -0.00000000      -0.00000000      -0.00000000      -3.68721549
Al       9.67395557       9.67395557       3.22465186      -0.00000000      -0.00000000      -0.00000000      -3.68721549
Al      11.28628150      11.28628150       4.83697778      -0.00000000       0.00000000       0.00000000      -3.68721549
Al       9.67395557       9.67395557       6.44930371      -0.00000000      -0.00000000       0.00000000      -3.68721549
Al      11.28628150      11.28628150       8.06162964      -0.00000000      -0.00000000      -0.00000000      -3.68721549
Al       9.67395557       9.67395557       9.67395557      -0.00000000      -0.00000000       0.00000000      -3.68721549
Al      11.28628150      11.28628150      11.28628150      -0.00000000      -0.00000000      -0.00000000      -3.68721549
