125
Lattice="11.5123461468451 0.0006131668880462877 -5.691614479042394e-17 0.0006131669248327061 11.512410606362248 -6.99931910052124e-17 -5.691682084985007e-17 -6.926742437178938e-17 11.51165456621419" Properties=species:S:1:pos:R:3:forces:R:3:energies:R:1 energy=-673.6446263932012 stress="0.0010373881120443477 -0.00020289076713616105 2.0875457696516827e-17 -0.00020289076713616105 0.0010103777374886591 1.2293912195024633e-17 2.0875457696516827e-17 1.2293912195024633e-17 0.0012031446336562706" free_energy=-673.6446263932012 pbc="T T T"
Ni      -0.03307114      -0.00643623       0.00000000      -0.00293704       0.00464823       0.00000000      -6.20452938
Al       1.46666042       1.41117656       1.41220651       0.00573901       0.00301700       0.00044339      -4.53398327
Ni       0.02055850       0.00252337       2.85936005       0.00028540      -0.00286518      -0.00496081      -6.24998882
Al       1.44276047       1.44038870       4.31110576       0.00070220       0.00043854       0.00116965      -4.62002181
Ni      -0.00296724       0.00137670       5.75582728       0.00837991      -0.00073179       0.00000000      -6.24287980
Al       1.44276047       1.44038870       7.20054881       0.00070220       0.00043854      -0.00116965      -4.62002181
Ni       0.02055850       0.00252337       8.65229452       0.00028540      -0.00286518       0.00496081      -6.24998882
Al       1.46666042       1.41117656      10.09944805       0.00573901       0.00301700      -0.00044339      -4.53398327
Ni       0.01915124       2.86242322       0.00000000      -0.00064170      -0.00542950       0.00000000      -6.25604649
Al       1.43383872       4.32020780       1.44141110      -0.00562934       0.00592840      -0.00775034      -4.62329472
Ni       0.01861573       2.87638455       2.87914202      -0.00897379      -0.00010633      -0.00052517      -6.25033047
Al       1.47763531       4.33472992       4.33409864       0.00837728      -0.00548329       0.00196144      -4.52205364
Ni       0.02599117       2.89620379       5.75582728       0.00147822       0.00499318       0.00000000      -6.24922932
Al       1.47763531       4.33472992       7.17755593       0.00837728      -0.00548329      -0.00196144      -4.52205364
Ni       0.01861573       2.87638455       8.63251255      -0.00897379      -0.00010633       0.00052517      -6.25033047
Al       1.43383872       4.32020780      10.07024347      -0.00562934       0.00592840       0.00775034      -4.62329472
Ni      -0.00500943       5.75962531       0.00000000       0.00859992      -0.00373484       0.00000000      -6.24470021
Al       1.44029612       7.18840223       1.43967895       0.00236640      -0.00661151      -0.01175219      -4.62008301
Ni       0.02349401       5.75376302       2.90122214      -0.00285446       0.00436682       0.00706459      -6.25000737
Al       1.47793197       7.16404169       4.34069878       0.00068700       0.01001185       0.00421710      -4.51625389
Ni      -0.02833779       5.75154371       5.75582728      -0.00442156       0.00116911      -0.00000000      -6.20186676
Al       1.47793197       7.16404169       7.17095579       0.00068700       0.01001185      -0.00421710      -4.51625389
Ni       0.02349401       5.75376302       8.61043243      -0.00285446       0.00436682      -0.00706459      -6.25000737
Al       1.44029612       7.18840223      10.07197562       0.00236640      -0.00661151       0.01175219      -4.62008301
Ni       0.01868228       8.64742229       0.00000000       0.00451415       0.01152160       0.00000000      -6.24984431
Al       1.46840082      10.09525934       1.41761262       0.00963535      -0.00032507      -0.00311545      -4.52154576
Ni       0.01769876       8.63047518       2.88351822      -0.00765825       0.00564489      -0.00112836      -6.24851714
Al       1.44127716      10.07841701       4.31331876      -0.00246162       0.00310053       0.01143432      -4.61404367
Ni       0.02516544       8.61539831       5.75582728       0.00219463      -0.00104003       0.00000000      -6.24849222
Al       1.44127716      10.07841701       7.19833581      -0.00246162       0.00310053      -0.01143432      -4.61404367
Ni       0.01769876       8.63047518       8.62813635      -0.00765825       0.00564489       0.00112836      -6.24851714
Al       1.46840082      10.09525934      10.09404195       0.00963535      -0.00032507       0.00311545      -4.52154576
Al       4.31412545       1.44402681       1.36885941      -0.00514113       0.00292256      -0.01081003      -4.40337047
Ni       2.88806926       0.01070266       2.89590351      -0.00662326      -0.00726196       0.00833761      -6.20404181
Al       4.31950486       1.43729833       4.31720200       0.00240397      -0.00344058       0.00587244      -4.62434452
Ni       2.88161312       0.00362379       5.75582728      -0.00737359      -0.00799423       0.00000000      -6.25125028
Al       4.31950486       1.43729833       7.19445257       0.00240397      -0.00344058      -0.00587244      -4.62434452
Ni       2.88806926       0.01070266       8.61575105      -0.00662326      -0.00726196      -0.00833761      -6.20404181
Al       4.31412545       1.44402681      10.14279515      -0.00514113       0.00292256       0.01081003      -4.40337047
Ni       2.84286111       2.91132393       0.00000000       0.00237807      -0.00158090       0.00000000      -6.14032916
Al       4.35289004       4.28766336       1.40374016       0.00055775       0.00182270       0.00054057      -4.53710586
Ni       2.90262471       2.87175806       2.84505013      -0.00029129       0.00578669       0.00731170      -6.26913083
Al       4.28324755       4.34102871       4.34273074      -0.00675656       0.00060736      -0.00236728      -4.52519165
Ni       2.87767440       2.84459321       5.75582728       0.00065288      -0.00085417       0.00000000      -6.20051997
Al       4.28324755       4.34102871       7.16892383      -0.00675656       0.00060736       0.00236728      -4.52519165
Ni       2.90262471       2.87175806       8.66660444      -0.00029129       0.00578669      -0.00731170      -6.26913083
Al       4.35289004       4.28766336      10.10791440       0.00055775       0.00182270      -0.00054057      -4.53710586
Ni       2.89774344       5.73744809       0.00000000      -0.00258205       0.00141743       0.00000000      -6.26051966
Al       4.31870197       7.19660825       1.43871681       0.00039340      -0.00105463      -0.00182555      -4.62029087
Ni       2.89188830       5.74456437       2.83919629      -0.00557032       0.00687982      -0.00116952      -6.20634634
Al       4.29052613       7.16688607       4.34011200      -0.00324461      -0.00043829      -0.00843141      -4.52192191
Al       4.29052613       7.16688607       7.17154257      -0.00324461      -0.00043829       0.00843141      -4.52192191
Ni       2.89188830       5.74456437       8.67245827      -0.00557032       0.00687982       0.00116952      -6.20634634
Al       4.31870197       7.19660825      10.07293776       0.00039340      -0.00105463       0.00182555      -4.62029087
Ni       2.87223066       8.60149840       0.00000000       0.00407712      -0.00387652       0.00000000      -6.20325270
Al       4.28341916      10.09430021       1.41277637      -0.00627890      -0.00087670       0.00140647      -4.53357565
Ni       2.88169342       8.63277243       2.87989880      -0.00245459       0.00018232       0.00020109      -6.26049940
Al       4.32372059      10.08239486       4.31082307       0.00410050       0.00333140       0.00066632      -4.62008419
Ni       2.88082344       8.66755638       5.75582728      -0.00187683       0.00258465       0.00000000      -6.20168388
Al       4.32372059      10.08239486       7.20083149       0.00410050       0.00333140      -0.00066632      -4.62008419
Ni       2.88169342       8.63277243       8.63175576      -0.00245459       0.00018232      -0.00020109      -6.26049940
Al       4.28341916      10.09430021      10.09887820      -0.00627890      -0.00087670      -0.00140647      -4.53357565
Ni       5.78826714      -0.03432780       0.00000000      -0.00043990       0.00484370       0.00000000      -6.14273269
Al       7.16223327       1.47783692       1.40926726       0.00792901      -0.00860980      -0.00795795      -4.52900437
Ni       5.72913021       0.02651569       2.82533206       0.00178005      -0.00228268       0.00102077      -6.25780125
Al       7.18422572       1.44070536       4.31363429      -0.00585712      -0.00143768       0.00668854      -4.61862122
Ni       5.76066845      -0.00076299       5.75582728      -0.00655818       0.00206214       0.00000000      -6.24418614
Al       7.18422572       1.44070536       7.19802027      -0.00585712      -0.00143768      -0.00668854      -4.61862122
Ni       5.72913021       0.02651569       8.68632250       0.00178005      -0.00228268      -0.00102077      -6.25780125
Al       7.16223327       1.47783692      10.10238730       0.00792901      -0.00860980       0.00795795      -4.52900437
Al       7.16439668       4.29393725       1.41548885      -0.00621065       0.00307186      -0.00253676      -4.52276922
Ni       5.73723952       2.88015826       2.90472832       0.00566486      -0.00019622       0.00619264      -6.20930317
Al       7.19427474       4.31278085       4.31247521       0.00710516       0.00380202       0.01300390      -4.61415176
Ni       5.73160696       2.89788530       5.75582728       0.00471388       0.00366802       0.00000000      -6.25576083
Al       7.19427474       4.31278085       7.19917936       0.00710516       0.00380202      -0.01300390      -4.61415176
Ni       5.73723952       2.88015826       8.60692625       0.00566486      -0.00019622      -0.00619264      -6.20930317
Al       7.16439668       4.29393725      10.09616572      -0.00621065       0.00307186       0.00253676      -4.52276922
Ni       5.76452805       5.79144781       0.00000000      -0.00912826       0.00194218       0.00000000      -6.20372062
Al       7.19058257       7.20098833       1.44520321      -0.00641380       0.00068085      -0.00549730      -4.61849617
Ni       5.73347282       5.73755761       2.87909228      -0.00154245      -0.00338558      -0.00076878      -6.26008371
Al       7.19050007       7.19736432       4.30957038       0.00440758      -0.00848366       0.00173191      -4.61255811
Ni       5.78795704       5.75585540       5.75582728       0.00655185      -0.00455347       0.00000000      -6.20227317
Al       7.19050007       7.19736432       7.20208419       0.00440758      -0.00848366      -0.00173191      -4.61255811
Ni       5.73347282       5.73755761       8.63256229      -0.00154245      -0.00338558       0.00076878      -6.26008371
Al       7.19058257       7.20098833      10.06645135      -0.00641380       0.00068085       0.00549730      -4.61849617
Ni       5.73698927       8.64998052       0.00000000       0.00203745       0.00657578       0.00000000      -6.25596338
Al       7.19553108      10.06702562       1.44600163       0.00861081      -0.00477484      -0.00643357      -4.61627366
Ni       5.73629071       8.63366967       2.87955500       0.00887985       0.00052966      -0.00192492      -6.25024014
Al       7.18252604      10.07973636       4.30535302      -0.00972288       0.00413822       0.00768327      -4.61588242
Ni       5.73596018       8.62189901       5.75582728      -0.00421839      -0.00886701       0.00000000      -6.24951116
Al       7.18252604      10.07973636       7.20630155      -0.00972288       0.00413822      -0.00768327      -4.61588242
Ni       5.73629071       8.63366967       8.63209957       0.00887985       0.00052966       0.00192492      -6.25024014
Al       7.19553108      10.06702562      10.06565293       0.00861081      -0.00477484       0.00643357      -4.61627366
Ni       8.61562083       0.01960461       0.00000000      -0.00116818       0.00034879       0.00000000      -6.25404553
Al      10.07675763       1.44313171       1.44338033      -0.00142026      -0.00295180      -0.00147212      -4.61321264
Ni       8.62306673       0.01376202       2.86861051       0.00946190      -0.00864603       0.00200575      -6.24552719
Al      10.07679432       1.44374503       4.31212163       0.00365233       0.00213577      -0.00379815      -4.61585370
Ni       8.62710322       0.00344812       5.75582728       0.00619707      -0.00301727       0.00000000      -6.23869990
Al      10.07679432       1.44374503       7.19953294       0.00365233       0.00213577       0.00379815      -4.61585370
Ni       8.62306673       0.01376202       8.64304406       0.00946190      -0.00864603      -0.00200575      -6.24552719
Al      10.07675763       1.44313171      10.06827423      -0.00142026      -0.00295180       0.00147212      -4.61321264
Ni       8.66867169       2.88501851       0.00000000       0.00064111      -0.00568785       0.00000000      -6.20401362
Al      10.08504373       4.31870739       1.44536708       0.00785540       0.00274613      -0.00438719      -4.61842644
Ni       8.61391102       2.87711180       2.85830456      -0.00031092       0.00120819      -0.00543155      -6.25019567
Al      10.07077562       4.30818924       4.30942662      -0.01059016       0.00034382       0.00059892      -4.61235770
Ni       8.63334481       2.87410123       5.75582728      -0.00393008       0.00685502       0.00000000      -6.24299853
Al      10.07077562       4.30818924       7.20222795      -0.01059016       0.00034382      -0.00059892      -4.61235770
Ni       8.61391102       2.87711180       8.65335001      -0.00031092       0.00120819       0.00543155      -6.25019567
Al      10.08504373       4.31870739      10.06628749       0.00785540       0.00274613       0.00438719      -4.61842644
Ni       8.62042296       5.74238888       0.00000000      -0.00962488      -0.00947653       0.00000000      -6.24934468
Al      10.07843278       7.19403188       1.44322305       0.00370017      -0.00521271      -0.00811559      -4.61538951
Ni       8.62673803       5.74908645       2.87053214       0.00401954       0.00366716       0.00903030      -6.24654732
Al      10.07172105       7.19702017       4.31407294      -0.00628342      -0.00149569       0.00492061      -4.60631381
Ni       8.63114448       5.75306297       5.75582728       0.00210724       0.00162244      -0.00000000      -6.24466716
Al      10.07172105       7.19702017       7.19758163      -0.00628342      -0.00149569      -0.00492061      -4.60631381
Ni       8.62673803       5.74908645       8.64112242       0.00401954       0.00366716      -0.00903030      -6.24654732
Al      10.07843278       7.19403188      10.06843151       0.00370017      -0.00521271       0.00811559      -4.61538951
Ni       8.63795894       8.63202110       0.00000000      -0.00348295       0.00333192       0.00000000      -6.24354541
Al      10.07053818      10.07196285       1.44405211      -0.00853241       0.00505840      -0.00869417      -4.61257039
Ni       8.63321195       8.63574207       2.88031864       0.00480905      -0.00268450       0.00147695      -6.24026638
Al      10.07777531      10.07719978       4.31291426       0.01011140      -0.00057107       0.00327905      -4.61047200
Ni       8.63062245       8.64170642       5.75582728      -0.00096634      -0.00519440       0.00000000      -6.24132940
Al      10.07777531      10.07719978       7.19874031       0.01011140      -0.00057107      -0.00327905      -4.61047200
Ni       8.63321195       8.63574207       8.63133593       0.00480905      -0.00268450      -0.00147695      -6.24026638
Al      10.07053818      10.07196285      10.06760245      -0.00853241       0.00505840       0.00869417      -4.61257039
