128
Lattice="12.236956768479526 0.03546502503573939 0.16980730795230645 0.03565538830714351 12.492659656230254 -0.005990453583335 0.17148093370451967 -0.006704946765675028 12.640667635571363" Properties=species:S:1:pos:R:3:forces:R:3:energies:R:1 energy=-585.7064523354171 stress="-4.118067413351397e-05 -0.0006331543927087808 1.0864493047593799e-05 -0.0006331543927087808 0.00014368613944254642 -0.00046658296921934633 1.0864493047593799e-05 -0.00046658296921934633 -0.0006176894641212391" free_energy=-585.7064523354171 pbc="T T T"
Al      -0.31173375       0.11177882       0.55353388       0.00262708      -0.00182830       0.00708110      -3.82987990
Al       2.11564847       1.78372312       1.97947834       0.00559916      -0.00011475       0.00141733      -4.27262590
Al      -0.35462494       0.45490221       3.23357828      -0.00487038      -0.01086404       0.00688142      -3.72581446
Al       1.57220185       1.83905107       4.65534656      -0.00219560       0.00849220       0.00131861      -4.36205376
Ni      -0.26571557       0.33962699       5.66943558      -0.00221740       0.00056915       0.00632726      -5.98620441
Al       1.35384162       1.46512675       7.29915810      -0.01213976      -0.00503378       0.00817976      -4.42689864
Ni      -0.02281100       0.07729743       9.07634984       0.00088310      -0.00708140      -0.00500713      -6.04902222
Al       1.79952273       1.25799149      10.18911309       0.00267969      -0.00484802      -0.00798416      -4.33510429
Ni       1.00609061       2.04721314      -0.16125596      -0.00327955      -0.00015210      -0.00092621      -6.00405703
Al       1.05898997       4.30447159       0.89055483       0.00014219       0.00270440      -0.00639571      -4.25417049
Al      -0.17880734       3.31474166       3.26712664      -0.00936708      -0.00117029       0.00210006      -4.00253784
Al       1.36562942       4.57052539       5.25344518      -0.00291824      -0.00143388      -0.00314833      -4.15622138
Ni      -0.30093268       2.91245941       5.86092922       0.00755509      -0.00435000       0.00252908      -6.03937636
Al       1.69869231       4.45111187       8.30726061      -0.00041697      -0.00429548      -0.00430020      -4.11352042
Ni       0.20295413       2.70107602       9.03572791       0.00198949      -0.00109670       0.00307009      -5.86537858
Al       1.19602162       3.94878944      10.89970303      -0.00248933       0.01073368       0.00079361      -4.20488812
Ni       0.25003988       6.05879187      -0.78608444      -0.00353469       0.00160616       0.00139371      -5.78266364
Al       0.97494632       7.60441892       0.99458658       0.00302683      -0.00374226       0.00046730      -3.84148039
Al       0.34097888       6.10439955       3.20259782      -0.00375705      -0.00236500      -0.00262418      -3.89214395
Al       2.82133582       7.80033504       5.43367467       0.00529627      -0.00472154       0.00579915      -4.16983820
Al       0.71370942       6.64623158       6.85356481      -0.00595335      -0.00117473      -0.00348458      -4.04668068
Al       1.59523210       8.82240256       8.26323793       0.00509626       0.00222338       0.00725839      -4.10081348
Al      -0.02674521       6.48620856       9.50244996       0.00546964       0.00169060       0.00494720      -3.97077425
Al       1.05419710       8.45052572      10.95944241       0.00226007      -0.00142890      -0.01073059      -3.93178864
Al      -0.23277840       9.99548279       0.31649126      -0.00098918       0.00005721      -0.00076966      -3.68332791
Al       1.78995264      11.27622426       2.14235399       0.00677358      -0.00935273       0.00622046      -3.82274167
Al       1.09320776       8.97717963       3.58232864      -0.00248614       0.00159217       0.00717076      -3.84290629
Al       1.79441741      11.58140840       4.85301518       0.00722383       0.00065983      -0.00967668      -4.34864914
Ni       0.71796708       8.96246232       5.98307200      -0.00057698      -0.00294588      -0.00870091      -5.92633571
Al       0.76781100      11.13981411       7.25284981      -0.00634609       0.00336887       0.00884433      -4.47922969
Ni      -0.26322403      10.04598137       9.29620982      -0.00945633      -0.00296144       0.00366856      -5.99164043
Al       1.63268187      11.02994729      10.28054758       0.01310917       0.00746929       0.00366657      -4.24177813
Al       2.51509233      -0.00391122      -0.19914543      -0.00174523       0.00476791       0.00020091      -4.06869624
Al       5.57228137       1.09276707       1.81703193      -0.00183865       0.00331399       0.00556257      -4.19120778
Ni       3.57569346       0.15681880       3.27096584      -0.00292189       0.00064218      -0.00218560      -5.98124301
Al       4.17563461       2.43649947       4.14743791       0.00230376       0.00552629      -0.00397800      -4.29136252
Ni       3.41167257       0.78896321       5.74312566       0.00313171       0.01274450       0.00073451      -5.99007265
Al       5.45174930       1.39526648       6.82513215       0.00873453       0.00038619       0.00164193      -4.15419386
Ni       3.74599242      -0.33360195      10.21508573      -0.00057630       0.00293186       0.00926767      -6.04003432
Al       5.53802291       0.74510292      11.74722720      -0.00141204      -0.00142689      -0.00180840      -4.24939644
Al       3.33885426       2.74744222      -0.58907413      -0.00295513       0.00176069       0.00368389      -4.11677775
Al       4.41813421       3.70538582       1.86767553       0.00187203       0.00086420      -0.00461509      -4.04057587
Ni       2.25731810       4.01727606       3.03913222      -0.00429166       0.00580319       0.00860549      -6.12247608
Al       3.97949205       5.17685220       4.50912308      -0.00713510       0.00515795       0.01031938      -4.17471989
Al       3.51812270       3.20994710       6.81243148      -0.00397770       0.00296206      -0.00042775      -4.11415627
Al       6.04244590       3.71392167       8.27393833       0.00031359       0.00836116      -0.00233800      -4.05043350
Al       4.23109957       1.92065085       9.34836587      -0.00398512      -0.00523837      -0.00099705      -3.97806291
Al       4.97684095       5.17944152      12.30255068      -0.00174477       0.01148173      -0.00097238      -4.02009865
Al       2.51980805       6.28287263      -1.06508050       0.01025401       0.00123644      -0.00209577      -3.90163771
Al       5.59047519       6.91059943       1.89622623      -0.00264185       0.00317081       0.00199730      -4.12279338
Al       3.01224396       6.00434915       1.85419576      -0.00132517       0.00243483      -0.00261640      -3.76872980
Al       5.74291106       7.34733443       4.52319390      -0.00441608      -0.00161458       0.00264388      -3.99358476
Ni       2.94900975       5.64706687       6.66703293      -0.00545375      -0.00377034      -0.00592812      -5.84086366
Al       3.38838434       6.90343517       8.81063253       0.00252710      -0.00015372      -0.00220479      -4.02385730
Al       3.87703838       4.45702493       9.92110144      -0.00049524      -0.00051504       0.00477684      -3.59299225
Al       4.75582827       7.99513442      11.12964509       0.00081041       0.00222201      -0.00019092      -4.03426945
Al       2.57330007       9.60422175       0.10594523       0.00713062      -0.00349500      -0.00492152      -3.61219289
Al       4.57950454      11.01915723       1.74766251       0.00430415       0.00389296      -0.00063389      -4.21913381
Al       3.46386239       8.52833931       2.50171453       0.01173345      -0.00374581      -0.00601898      -3.84412478
Al       4.21698822      10.45322436       4.45651167      -0.00475959       0.00072475       0.00220285      -4.36061719
Ni       2.95627589      10.09435133       6.55976147       0.00024109      -0.00108501       0.00484807      -5.97461372
Al       3.44766080      12.11759527       7.82314708      -0.00024796       0.01102938       0.00440859      -4.30329444
Al       4.06852992       9.84256557       9.06807657      -0.00048480      -0.00743739      -0.00536988      -4.17925257
Al       4.94852559      10.65597330      11.61489949       0.01442620       0.00214107      -0.00300163      -3.99898448
Ni       6.49732693      -0.95911665       0.43784138       0.00490149      -0.01013408       0.00314765      -5.88931548
Al       7.97653709       2.35928614       0.96798796      -0.00549140       0.00651451       0.00704242      -3.96469832
Al       5.81452213       0.12378304       4.42032813       0.00107083       0.00388238      -0.00215212      -4.10832931
Al       7.61751796       2.28406718       5.64076635       0.00324644      -0.00596453       0.00205902      -3.91479973
Ni       5.39497396      -1.17016809       6.48700975      -0.00935828      -0.00283165      -0.01241622      -6.17896010
Al       8.13358878       1.83318139       8.27162415       0.00285867      -0.00079125      -0.01054244      -4.30304992
Al       5.96304184      -0.08692574       9.07035617       0.01083326      -0.00414235      -0.00293209      -4.32749675
Al       8.64378123       1.08495264      10.81934856      -0.00290247       0.00411822      -0.00256920      -4.01548309
Ni       5.74328614       2.91938859       0.05232832      -0.01050287       0.00854894       0.00346688      -5.87586392
Al       7.13472106       4.98129962       1.08414957       0.00049854       0.00082166      -0.01116665      -4.26732866
Al       6.57252786       3.62167530       3.54487678      -0.01039523      -0.00118164       0.00817845      -4.03335850
Al       7.72084542       5.01314619       5.90303753       0.00598849      -0.00513503       0.01142529      -4.28025076
Ni       5.63582314       3.75260100       5.83675309      -0.00444092       0.00456839      -0.01028538      -6.02423239
Al       8.62584447       4.87853244       8.71472877      -0.00531353       0.00964609       0.00030204      -4.29930439
Ni       6.54885658       2.15208366      10.09451134      -0.00393826      -0.00420646       0.00165277      -5.76878975
Al       7.90033652       3.79164756      11.16983754       0.00349749       0.00019545       0.00590659      -4.36265356
Ni       6.43318393       6.89895050      -0.41623762      -0.00073370      -0.00096967      -0.00626530      -5.80325888
Al       8.14858367       8.00049749       2.51675826       0.00078935      -0.00229521       0.00773644      -4.28198783
Ni       7.46136919       5.87822624       3.46045768      -0.00727242      -0.00191636      -0.00119877      -5.88402352
Al       8.45129929       7.40209293       5.17401083       0.00620546       0.00611795      -0.00364395      -4.25215365
Al       5.33210051       6.08014644       7.06100172      -0.00056417      -0.00189103      -0.00816561      -4.18748719
Al       7.94872680       7.54782987       7.88016803       0.00048416      -0.00036706       0.00438750      -4.31828090
Al       6.26941015       5.88460629       9.90615527       0.00330530       0.00474165       0.00347267      -4.03093919
Al       7.62389019       8.23810255      10.43876539       0.00188226      -0.00050256      -0.00502113      -4.31329495
Al       6.47407989       9.11130976       0.50863402      -0.00025888       0.01266910      -0.00147867      -4.34767259
Al       7.58949594      10.86509402       2.55256038       0.00605729      -0.00007767      -0.00272206      -4.14377852
Ni       5.76065530       9.18460309       2.87820379       0.00234930      -0.00485500       0.00345767      -6.01219564
Al       6.93325857       9.92807333       4.94717593      -0.00315010       0.00195541      -0.00079759      -4.19611867
Al       5.06393411       8.86087391       6.67463582      -0.00553342      -0.00138919      -0.00183607      -4.13787304
Al       6.90354807      10.03015468       8.27855241       0.00637412      -0.00686315       0.00635229      -4.39800421
Ni       5.67211957       7.93628989       8.78870496      -0.00191902       0.00127612       0.00144759      -6.01789094
Al       7.95828404      10.84556158      11.10048622      -0.00338533      -0.00351402       0.00105955      -4.23352093
Al       8.91423733      -0.13764333       0.58414985       0.00444255       0.00663453       0.00523913      -3.79029329
Al      10.93630823       2.65484856       1.05024154      -0.00281221       0.00181145      -0.00039679      -4.00097798
Al       8.17509276       1.06215042       3.29242557       0.00415736      -0.00367965       0.00231385      -3.55034927
Al      10.12508883       1.88494811       4.98580768      -0.00792780      -0.00829378      -0.00082829      -4.10426184
Al       7.67987737      -0.30242515       6.61813005      -0.00345542       0.00045562      -0.00360896      -3.86037533
Al      10.84054701       1.60273984       7.76219974       0.00438621      -0.00789129      -0.00345085      -4.44257379
Ni       8.28853702      -0.57833307       9.02212585      -0.00589585      -0.01194147      -0.00812483      -5.84276194
Al      11.36085105       1.69124230      11.06169910       0.00275681       0.00346425      -0.00593584      -4.25925170
Ni       9.28513177       4.29958588       0.35790308       0.00171299      -0.00048731       0.00874810      -5.78453411
Al      10.82334466       5.93167082       1.17122316       0.00264541       0.00675715       0.00480043      -4.21648505
Al       9.26173198       4.25656042       2.81981907       0.00356999       0.00542167      -0.01548277      -4.15616525
Al      10.65921351       4.88854727       5.22560982      -0.00671296      -0.00102592       0.00457052      -4.41229218
Ni       9.43358680       3.45834936       6.84610426      -0.00258789      -0.00272285       0.00652637      -6.08767865
Al      11.27443017       4.47086646       7.97262884      -0.01333734      -0.00095771       0.00117609      -4.49323962
Ni       9.86612119       2.96768779       9.55457559      -0.00532869      -0.00120320       0.00221763      -5.93588127
Al      10.65862907       4.76581789      10.94044940      -0.00201395      -0.00510757       0.00023513      -4.28196897
Al       8.79534798       6.54378716      -0.64573152      -0.00522751      -0.00338983      -0.00969087      -4.13010433
Al      10.94633507       8.49050529       2.46532550       0.00221311       0.00861136      -0.00570147      -4.02208248
Ni      10.05201996       6.51719515       3.46374266      -0.00083533      -0.00360300      -0.00304205      -5.94829638
Al      11.06001764       7.81458926       5.28584115       0.00388117       0.00077875       0.00282882      -4.38893266
Ni       9.73579348       6.22319662       6.98690462       0.00265704      -0.00286675       0.00532351      -6.06169451
Al      11.00049872       8.36043143       7.95809105      -0.00556943      -0.00079707      -0.00296667      -4.44510302
Ni       9.69782277       6.92051799       9.56537102       0.00409668      -0.00189557      -0.00056222      -5.95339646
Al      10.58613421       8.66471328      10.91539669       0.00169399       0.00323227      -0.00825096      -4.11780300
Al       9.28578606       9.56871278       0.47926784       0.00096894      -0.00507681       0.00386834      -3.62241637
Al      10.30514570      11.12517128       2.52101095       0.00179191      -0.00531449      -0.00298944      -3.76906762
Ni       9.37047890       9.48018224       4.10972220       0.00580648      -0.00339224      -0.00123597      -6.01324126
Al      11.32021954      10.64207312       5.11581456       0.00231031      -0.00518805      -0.00377619      -4.17846937
Al       9.06848446       9.74800529       6.50756312       0.00224290      -0.00257453      -0.00891468      -3.93142356
Al      10.42712283      11.47235666       7.98840634       0.01628568       0.00136122       0.00573379      -4.32046125
Ni       9.23393650       9.56268834       9.06350036      -0.00807853       0.00368400       0.00543718      -6.16301636
Al      10.65637992      11.50315113      10.85480073       0.00486898      -0.00611086       0.00206226      -4.19446224
