119
Lattice="11.39446236651074 -0.0013198592153888915 -0.001078510036285376 -0.0013201300418713895 11.385184023160049 -0.0014288576538830674 -0.0010782549466051372 -0.0014285716322199084 11.40013284642366" Properties=species:S:1:pos:R:3:forces:R:3:energies:R:1 energy=-643.2697014181881 stress="0.00010972239877300454 0.0003749899718844425 0.00032292020561010276 0.0003749899718844425 0.0014684651274419825 0.0003521333554302128 0.00032292020561010276 0.0003521333554302128 -0.0010916665065691402" free_energy=-643.2697014181881 pbc="T T T"
Ni      -0.04861804       0.05146806      -0.05939516       0.00171745      -0.00112958      -0.00193436      -6.00975892
Al       1.41253093       1.37945400       1.39645860      -0.00001543       0.00639460       0.00273004      -4.64110009
Ni       0.01695630      -0.02938637       2.82435387       0.00211421       0.00022587       0.00804984      -5.82387472
Al       1.42311185       1.37569779       4.26107862      -0.00062774       0.01856456       0.00587075      -4.62388525
Ni       0.00408955      -0.00052418       5.71055661      -0.00054054       0.00443769      -0.00279544      -6.07400716
Al       1.44532035       1.44648853       7.16487144       0.00618332       0.00746874      -0.00276469      -4.69992255
Ni      -0.02126487       0.02866110       8.58019643       0.00532283      -0.00376708      -0.00174464      -6.09930003
Al       1.42473676       1.46081767       9.96357939       0.00773574      -0.00167186      -0.00099693      -4.65002577
Ni      -0.00694010       2.85105088      -0.01015673       0.00001839      -0.00495603       0.00493111      -5.82978756
Al       1.38500712       4.25418459       1.41045148       0.00979359       0.00012663       0.00167926      -4.64263946
Ni       0.00197358       2.85311422       2.83609772      -0.00628698       0.00495869      -0.00518035      -6.10195323
Al       1.42088644       4.26916414       4.27816875       0.00147521      -0.00060513      -0.00191238      -4.68875691
Ni      -0.00138672       2.83394848       5.69169824      -0.00354709       0.00346764      -0.00009167      -6.30258072
Al       1.44977342       4.25649022       7.14217246      -0.00984905       0.00011597      -0.00326837      -4.63928274
Ni      -0.04499282       2.84167758       8.56983735      -0.00620710       0.00096455      -0.00203278      -6.11957349
Al       1.42217324       4.25716373       9.97053404      -0.01108529       0.00051284       0.00043894      -4.63734399
Ni      -0.01788577       5.66151405       0.00722426      -0.00019686       0.00150742       0.00146221      -6.11924551
Al       1.42453227       7.13234487       1.40872701       0.00062918      -0.00655866      -0.00212033      -4.62911909
Ni       0.00491662       5.67691705       2.83857741       0.00057169      -0.00786761      -0.00426095      -6.10031447
Al       1.42832728       7.16165410       4.26475702      -0.00255887      -0.01793610       0.00340967      -4.62591737
Ni       0.00456947       5.70561313       5.69594778      -0.00047752      -0.00431125       0.00349174      -6.30217323
Al       1.45482874       7.08146508       7.15701982       0.00343121      -0.00940588       0.00464296      -4.70086438
Ni      -0.02989314       5.68136430       8.55981388      -0.00639231       0.00381091       0.00325255      -6.32618742
Al       1.43768481       7.06878035       9.97478528       0.00094811       0.00162433       0.00049083      -4.72335539
Ni      -0.00348624       8.51848347      -0.02605414       0.00159577       0.00258247      -0.00331122      -6.07787929
Ni       0.03957976       8.59000003       2.82523463      -0.00395816      -0.00376493       0.00301487      -5.82856045
Ni       0.01441695       8.53850889       5.71836477       0.00270701      -0.00544701       0.00371228      -6.07262752
Al       1.41633991       9.97266757       7.13994760      -0.00089434      -0.00037507       0.00442965      -4.61832821
Ni       0.00106591       8.50494808       8.56815362       0.00072631      -0.00332768       0.00187064      -6.29670624
Al       1.41245399       9.97502112      10.00504697       0.00190585      -0.00070855      -0.00226851      -4.60773140
Ni       2.87017668       0.01465660      -0.03135722       0.00133890       0.00412653      -0.00203835      -6.08079980
Al       4.28378610       1.43666304       1.40862836       0.00307871      -0.00532866      -0.00055541      -4.73507200
Ni       2.80336862      -0.05116789       2.83043221      -0.00086983       0.00283794       0.00075493      -5.81328335
Al       4.25645710       1.41139733       4.24749846       0.00523308      -0.00192390       0.00019697      -4.70212745
Ni       2.85555465      -0.00237397       5.73309996       0.00213203      -0.00125815       0.00149025      -6.07535432
Al       4.28950370       1.49235805       7.14704004       0.00367606      -0.01091650      -0.00377108      -4.63435312
Ni       2.88733637       0.00068233       8.56827994       0.00215132      -0.00110067       0.00058893      -6.30333487
Al       4.30512989       1.51443867      10.00367073       0.00658579      -0.01092697      -0.00075456      -4.65890246
Ni       2.84620589       2.86684124       0.00707333       0.00259060      -0.00304082       0.00311583      -6.13444458
Al       4.28464247       4.26561405       1.41242312      -0.00463119       0.00044551       0.00827250      -4.55163065
Ni       2.83458864       2.84917081       2.84025135       0.00618094      -0.00192238      -0.01000722      -6.32284916
Al       4.27183056       4.27673813       4.30277386      -0.00237137      -0.00320207      -0.00990372      -4.62896532
Ni       2.84905460       2.84403959       5.68960092       0.00373410       0.00419634      -0.00241523      -6.08733300
Ni       2.92777967       2.92950944       8.57112169      -0.00255188      -0.00470723       0.00205978      -5.86177085
Ni       2.84882896       5.65223238       0.00067660      -0.00189832      -0.00038313       0.00169862      -6.12817154
Al       4.27913412       7.10030814       1.40338255       0.00113484       0.00514684      -0.00173948      -4.73749938
Ni       2.83984548       5.68445026       2.84401731       0.00892764      -0.00212776      -0.00736673      -6.32390344
Al       4.26780969       7.13259255       4.25477239       0.00007238      -0.00104308      -0.00017456      -4.71870064
Ni       2.85593184       5.69679568       5.69582558       0.00476557      -0.00515528       0.00178341      -6.09208442
Al       4.36573465       7.00265607       7.17580085      -0.00581569       0.00991125       0.00275125      -4.59241341
Ni       2.89900918       5.61291612       8.57457238      -0.00073159      -0.00045395       0.00203833      -5.87257250
Al       4.29360632       7.04216095      10.00057558       0.00087333       0.01494286       0.00271649      -4.66374860
Ni       2.84611151       8.53149271      -0.02153014       0.00267544      -0.00076538      -0.00100874      -6.08294867
Al       4.24622937       9.96232293       1.40673182       0.01037370       0.00165144       0.00185193      -4.59993567
Ni       2.80770211       8.58010614       2.82736378       0.00638422      -0.00432477       0.00400110      -5.81715868
Al       4.24233958       9.94192277       4.28418541       0.01220187       0.00629873      -0.00656137      -4.61597576
Ni       2.86538662       8.51761326       5.75222991      -0.00383724       0.00152526      -0.00034317      -6.07979668
Al       4.30642113       9.95344046       7.13189315       0.00013285      -0.00016832       0.00355246      -4.67730221
Ni       2.86932880       8.52894291       8.55751130      -0.00207750       0.00362601      -0.00404129      -6.30173496
Al       4.29556931       9.94100574       9.97397041      -0.00195891       0.00125752       0.00357455      -4.69007179
Ni       5.71835291       0.01593425      -0.02694889      -0.00038363      -0.00297269      -0.00017945      -6.31105992
Al       7.11065630       1.50252520       1.39857993      -0.00666358      -0.01217258       0.00064246      -4.64784450
Ni       5.71883850       0.00107255       2.83996213       0.00532273       0.00228695      -0.00254921      -6.28725117
Al       7.13525311       1.46214107       4.24748789      -0.00035784      -0.00236577       0.00118518      -4.70550248
Ni       5.70578588       0.02781001       5.69985953       0.00388337      -0.00278392       0.00140633      -6.28653672
Al       7.09506362       1.47279053       7.16546562      -0.00217421      -0.00544101      -0.00287661      -4.72052058
Ni       5.70604235       0.03185821       8.58615007      -0.00179500      -0.00288593      -0.00216862      -6.31238248
Al       7.19984875       1.59097653      10.01256704      -0.00741629      -0.01422926       0.00192697      -4.62607723
Ni       5.72672712       2.97400322      -0.02639620       0.00401749      -0.00318013      -0.00167238      -5.58451837
Ni       5.68925732       2.86981277       2.84844157      -0.00272845      -0.00296156       0.00354015      -6.11191456
Al       7.13377395       4.27839333       4.25334414      -0.00213478      -0.00155791       0.00642251      -4.63218610
Ni       5.69239645       2.85977040       5.68567058       0.00132496       0.00082513       0.00030231      -6.10019447
Al       7.05096516       4.33630703       7.16285892       0.00618400      -0.00553421      -0.01064437      -4.56274308
Ni       5.67103661       2.92767947       8.60035215      -0.00248949       0.00425725       0.00379397      -5.59386375
Ni       5.72036874       5.56751397      -0.01901515       0.00104433       0.00291948      -0.01010299      -5.58657200
Al       7.10527644       7.01752837       1.39171919      -0.00525766       0.01114475      -0.00353107      -4.64364036
Ni       5.68393203       5.67619546       2.84597836       0.00013278       0.00023702       0.00045084      -6.12362072
Al       7.14211436       7.08326659       4.25727628       0.00059674       0.00134054      -0.00416405      -4.64402460
Ni       5.70520810       5.69383327       5.66380462      -0.00335994       0.00003583      -0.00003497      -5.80388964
Ni       5.55802728       5.46996760       8.69330607       0.00177396       0.00715589      -0.00494821      -5.34180332
Al       7.09042988       6.94586498       9.91577106      -0.00124318       0.01331378       0.00582816      -4.62762111
Ni       5.72952029       8.52438515      -0.01397362       0.00089249       0.00514047       0.00293657      -6.31140590
Al       7.13092903       9.98304787       1.38807077      -0.00283344       0.00274397       0.00317520      -4.68639797
Ni       5.72432873       8.53457958       2.81791526       0.00371159      -0.00501734      -0.00192936      -6.29556657
Al       7.11879604       9.95143957       4.28575391      -0.00552985       0.00042192      -0.00392843      -4.67015269
Ni       5.72053058       8.49565015       5.72605770      -0.00193453       0.00302081      -0.00098978      -6.08902179
Al       7.13500723       9.96272884       7.14437987       0.00201457       0.00410396       0.00030924      -4.61442262
Ni       5.72503552       8.51600324       8.55678500      -0.00277488       0.01052966       0.00193293      -6.07583636
Al       7.13824697       9.96098647       9.95764275      -0.00180987      -0.00087134       0.00260855      -4.67127134
Ni       8.55038557       0.01836047      -0.02799106      -0.00238741      -0.00366164       0.00291257      -6.08528835
Al       9.94117146       1.49456897       1.35430655      -0.00676440      -0.00911626       0.00934823      -4.60766674
Ni       8.53957517      -0.01135629       2.82799567       0.00191868       0.00243603       0.00204343      -6.29595538
Al       9.96953869       1.42491557       4.22390607      -0.00669033       0.00875879       0.00153612      -4.72264034
Ni       8.53836147       0.02622558       5.69028670      -0.00567998       0.00175964      -0.00359738      -6.28655833
Al       9.96445533       1.42623626       7.15109232       0.00434214      -0.00627691      -0.01260576      -4.61209557
Ni       8.54651116       0.06023845       8.58947820      -0.00904320       0.00486996      -0.00282061      -6.09076977
Ni       8.44759373       3.04865441       0.15128694       0.00507225      -0.00763866      -0.00330630      -5.34083380
Ni       8.54966845       2.91349710       2.80002595      -0.00122217       0.00126910       0.00170120      -5.87462172
Al       9.95724236       4.28090612       4.24847764       0.00116499      -0.00152089       0.01457911      -4.63346945
Ni       8.54413058       2.84685397       5.70947489      -0.00977074       0.00053192       0.00962684      -6.32276223
Al       9.97174956       4.27086236       7.11006090       0.00833888      -0.00069391      -0.00653348      -4.71308393
Ni       8.54302657       2.89443237       8.50867937       0.00121049       0.00122825      -0.00800032      -5.82067481
Al       9.90007231       4.20731806      10.02543957       0.01237252       0.00698282      -0.00954395      -4.54884954
Ni       8.51540807       5.60927724       0.04668757      -0.00080235       0.00364679       0.00084470      -5.59089163
Al       9.96874688       7.08010722       1.41752425       0.00053784       0.00698377      -0.00051995      -4.65797088
Ni       8.55416688       5.61904570       2.77067175      -0.00366167       0.00230355       0.00336166      -5.86325595
Al       9.96359233       7.12010182       4.23037162      -0.00114283      -0.01061723      -0.00146013      -4.71688538
Ni       8.53158522       5.70694541       5.72137016      -0.00360962      -0.00154273       0.00814562      -6.11526742
Al       9.94083752       7.11199541       7.12519502       0.00927702       0.00350026      -0.00507877      -4.61481907
Ni       8.56594295       5.65285909       8.53441610       0.00223836      -0.00092470      -0.00289267      -5.82348360
Al       9.92452205       7.06724262      10.00654327       0.00163177       0.00663853      -0.00091327      -4.74421039
Ni       8.51527141       8.51058411      -0.00474187       0.00103934       0.00164464       0.00555080      -6.31686069
Al      10.01775263       9.97240395       1.38441481      -0.01031135       0.00107993       0.00352633      -4.61699547
Ni       8.52819016       8.55543426       2.80861495      -0.00230367      -0.00063338      -0.00199869      -6.30024410
Al      10.00202703       9.94924070       4.27414746      -0.01218319       0.00219297       0.00096878      -4.61364497
Ni       8.52889352       8.51462760       5.70451648       0.00437852       0.00661882      -0.00832349      -6.08668490
Al       9.95189345       9.95924853       7.14275191      -0.00591436      -0.00071780       0.00739455      -4.68138820
Ni       8.50283987       8.47261196       8.54919670       0.00090887      -0.00487311       0.00547165      -6.09053461
Al       9.94484427       9.95314081       9.95902069      -0.00469521      -0.00388001      -0.00471985      -4.61640995
