121
Lattice="11.427818209820572 0.00011140886629173836 -0.0005428121941986 0.00011139761488528764 11.43213555125921 0.0015816378936884864 -0.0005428347220231011 0.0015817005555743455 11.425996050796751" Properties=species:S:1:pos:R:3:forces:R:3:energies:R:1 energy=-655.1512146256449 stress="0.0002571502295931924 6.322700485260601e-06 9.070001817259132e-05 6.322700485260601e-06 -0.0004201358496527346 -0.00023377702529511294 9.070001817259132e-05 -0.00023377702529511294 0.0004583090312179291" free_energy=-655.1512146256449 pbc="T T T"
Ni       0.03112229      -0.03418650       0.03247643      -0.00179995       0.00407099       0.00165427      -6.11126044
Al       1.42703498       1.41637148       1.42446073       0.00316104       0.00189580      -0.00190279      -4.58502494
Ni       0.03577470      -0.02691759       2.82241119      -0.00778463       0.00194710      -0.00284392      -6.10650228
Al       1.39450881       1.40339812       4.30270641      -0.00045520       0.00441527       0.00336480      -4.68879052
Ni      -0.04404621      -0.03574233       5.73855736       0.01183576       0.00094550       0.00150565      -6.10797799
Al       1.39816843       1.41202970       7.14580725       0.00262475       0.00025963       0.00072383      -4.69072563
Ni      -0.05500125      -0.04091669       8.54736425       0.00240199       0.00065226       0.00020690      -6.12352403
Al       1.38824914       1.39946293       9.97941804      -0.00177367       0.00277613      -0.00271039      -4.70153315
Ni      -0.00707925       2.84998485      -0.00752769       0.00275335      -0.00301783      -0.00129271      -6.29502723
Al       1.41264603       4.30177685       1.41514499      -0.00021569       0.00355560      -0.00162637      -4.68157721
Ni      -0.00215812       2.85634897       2.85576537       0.00080903       0.00077128      -0.00010579      -6.28718316
Al       1.41012666       4.30071755       4.30676215      -0.00017612      -0.00573767      -0.00097165      -4.65825474
Ni      -0.02142203       2.85537403       5.71434997       0.00227892       0.00532207       0.00234354      -6.08596727
Al       1.38019829       4.31932478       7.15062496      -0.00401092       0.01243211      -0.00134465      -4.57635411
Ni      -0.02820082       2.85377931       8.57250205       0.00094978       0.00248340      -0.00546730      -6.10464381
Al       1.40159543       4.30699001       9.97385982       0.00449116      -0.00856931       0.00581044      -4.68158086
Ni      -0.01730622       5.72927717      -0.01052446       0.00245007      -0.00166256       0.00508754      -6.09340279
Al       1.41866360       7.16952403       1.42106091      -0.00499785      -0.00256500      -0.00277679      -4.60033632
Ni      -0.01069860       5.72882697       2.85741667      -0.00264308      -0.00043005      -0.00519727      -6.30029726
Al       1.39054008       7.17049212       4.35168833       0.00035259      -0.00107451      -0.00056344      -4.64261279
Ni      -0.02644717       5.71825075       5.73000123      -0.00194850       0.00006409      -0.00074405      -5.82689504
Ni      -0.02423898       5.70755199       8.55109806      -0.00666951       0.00747151       0.00546153      -5.50942194
Al       1.32756008       7.17397510       9.93333030       0.00198819       0.00255564       0.00021593      -4.61230857
Ni       0.03470909       8.62052720       0.04024484       0.00378142      -0.00695348      -0.00518879      -6.02927079
Ni       0.01924748       8.59856764       2.83144035       0.00183866      -0.00010426      -0.00012449      -6.11663959
Al       1.41010375       9.99796041       4.29014233       0.00098268      -0.00659888       0.00823257      -4.60943734
Ni      -0.05001542       8.61347281       5.73525836       0.00387136      -0.00793439      -0.00059122      -5.84056753
Al       1.38971513       9.94902440       7.15393603      -0.00226597       0.00692219      -0.00013837      -4.59406911
Ni      -0.05324306       8.61684749       8.55708832       0.00091240      -0.01053453       0.00298537      -5.50904070
Al       1.40257555       9.99382584       9.99106223       0.00770838      -0.00055326       0.00142430      -4.62498271
Ni       2.80850514      -0.03335274       0.01860830      -0.00408742       0.00331909      -0.00320919      -6.09190801
Al       4.30980080       1.40961042       1.42352399       0.00515462      -0.00302341       0.00476453      -4.60028206
Ni       2.81401532      -0.02638282       2.83617858      -0.00099431       0.00207272       0.00069170      -6.09122461
Al       4.30063503       1.39034629       4.23740870       0.00121569      -0.00126013      -0.00299060      -4.67624460
Ni       2.86639295      -0.00447467       5.71455323       0.00195724       0.00093190       0.00436333      -6.28228411
Al       4.28478221       1.42974542       7.14407126       0.00090112      -0.00066001       0.00096460      -4.63060818
Ni       2.86562392      -0.00364793       8.57408331       0.00410059       0.00183389      -0.00476143      -6.28351533
Al       4.29999309       1.38729937      10.04912140       0.00221306      -0.00571219       0.00014692      -4.67766259
Ni       2.84137943       2.86204489      -0.01727412      -0.00285502      -0.00401637       0.00044307      -6.27305833
Al       4.29054414       4.28656504       1.42150360      -0.00114026      -0.00195903       0.00255620      -4.64870124
Ni       2.84365195       2.86266730       2.86546890      -0.00154136      -0.00308584      -0.00120382      -6.27167954
Al       4.28729745       4.28600556       4.28702472      -0.00310831       0.00244335      -0.00123957      -4.65415860
Ni       2.85490568       2.83632104       5.70267835       0.00181655       0.00763445       0.00335771      -6.27052113
Al       4.27319702       4.29575665       7.15081849      -0.00228032       0.00052910      -0.00068895      -4.66110606
Ni       2.85177944       2.83355536       8.58718844       0.00594674       0.00494102      -0.00339261      -6.27243625
Al       4.28459827       4.28994175       9.99221613      -0.00427994       0.00099175       0.00040353      -4.66660845
Ni       2.84654335       5.72415118      -0.01485305       0.00050521       0.00216254       0.00170500      -6.27836487
Al       4.27733999       7.16908746       1.42396536       0.00406325      -0.00039735       0.00127002      -4.67676917
Ni       2.84523364       5.72142693       2.86183820       0.00141491      -0.00371313      -0.00471741      -6.27562443
Al       4.27291576       7.17804772       4.26686801       0.00019824      -0.00033844      -0.00644620      -4.67475726
Ni       2.84792754       5.73107051       5.71968075       0.00713462      -0.00365210      -0.00519815      -6.06863027
Al       4.25110292       7.15211589       7.14611195       0.00962420      -0.00165241       0.00019667      -4.57553951
Ni       2.83788471       5.74374487       8.57150021       0.00888789       0.00054685       0.00207347      -6.08592499
Al       4.27034642       7.18004112      10.01740993      -0.00210610       0.00441826      -0.00059269      -4.69445449
Ni       2.81807058       8.59681324       0.00936477      -0.00111482       0.00438938       0.00193767      -6.09474659
Al       4.30807223      10.00259215       1.42592113       0.00273746       0.00375879       0.00183667      -4.47362525
Ni       2.81994848       8.59776313       2.84219215       0.00277512       0.00520732      -0.00086648      -6.08992244
Al       4.30117810      10.01359288       4.24847243      -0.00276396      -0.00001733       0.00549207      -4.69907817
Ni       2.86509040       8.58801702       5.71457757      -0.00437973      -0.00390045       0.00323885      -6.07672272
Al       4.28401115       9.99118750       7.15063081      -0.00778667       0.00094943      -0.00059293      -4.66378898
Ni       2.85560075       8.57733665       8.57726808       0.00234598      -0.00820075      -0.00218157      -6.09212092
Al       4.29916438      10.01139887      10.03644410      -0.00353592      -0.00090620      -0.00991268      -4.71205403
Ni       5.80037205      -0.00858450       0.06153839      -0.00231479       0.00615348       0.00524030      -5.83820630
Ni       5.79317943      -0.00271966       2.79483316      -0.00186402       0.00626179      -0.00647908      -5.83843012
Al       7.17085881       1.41405138       4.27400062      -0.00366073       0.00554335       0.00815737      -4.62192665
Ni       5.71527348      -0.00444370       5.72759526      -0.00153653      -0.00130928       0.00842942      -6.28533382
Al       7.16973409       1.42579297       7.14650438      -0.00420413      -0.00411320      -0.00138461      -4.68453850
Ni       5.71529090      -0.00373584       8.56165327      -0.00552216       0.00116241      -0.00643050      -6.28677390
Al       7.17524484       1.41084004      10.01181364       0.00029889       0.00040471      -0.01145365      -4.63302116
Ni       5.74001766       2.85381099       0.00350453      -0.00368859       0.00020637       0.00271204      -6.06630551
Al       7.15783691       4.29002370       1.41542857      -0.00388270       0.00543164       0.00048710      -4.61188479
Ni       5.73825242       2.85471516       2.84344120      -0.00222374      -0.00174984      -0.00016842      -6.06559767
Al       7.16015425       4.28973595       4.28845277       0.00211056      -0.00257411       0.00262773      -4.65750176
Ni       5.71589202       2.85025966       5.71374617       0.00034054       0.00186845       0.00164450      -6.27357037
Al       7.18775105       4.29549237       7.15269770      -0.00401972       0.00385693      -0.00004135      -4.60823397
Ni       5.71832594       2.84827089       8.57773753      -0.00693452      -0.00270840      -0.00067010      -6.27607002
Al       7.16806793       4.29544337       9.99117700      -0.00015419      -0.00295790       0.00216894      -4.67434551
Ni       5.71430655       5.73142518      -0.02317403      -0.00033734       0.00478963      -0.00259547      -6.28433181
Al       7.15045630       7.14463927       1.42115524       0.00048324      -0.00048814      -0.00310692      -4.58847336
Ni       5.71502892       5.72834246       2.86758015       0.00026622       0.00030382       0.00309595      -6.27811793
Al       7.18253658       7.15795137       4.31430692       0.00109313       0.00337452       0.00166109      -4.70044660
Ni       5.71808927       5.72993942       5.71570453       0.00175062      -0.00441997      -0.00274863      -6.27694873
Al       7.18301466       7.15439405       7.15064696      -0.00350741      -0.00070276      -0.00446613      -4.70583753
Ni       5.72079912       5.73858024       8.58028831      -0.00294595      -0.00254453       0.00228158      -6.29095992
Al       7.24093666       7.16425559       9.97369514      -0.00606217       0.00620436       0.00271939      -4.63163756
Ni       5.75580843       8.57136864       0.00469025       0.00129775      -0.00219484      -0.00130740      -6.09194776
Ni       5.75434312       8.57253610       2.84436834      -0.00148689      -0.00110512       0.00648493      -6.08304568
Al       7.15830149      10.00971374       4.26303912       0.00419469      -0.00712056       0.00885438      -4.60984410
Ni       5.71755969       8.57594897       5.71506806       0.00279700       0.00556712      -0.00118502      -6.28849047
Al       7.17904414       9.98897261       7.15414082      -0.00637530      -0.00266794       0.00016975      -4.62286361
Ni       5.71948473       8.56955228       8.58070728      -0.00480004       0.00312981       0.00315786      -6.30110057
Al       7.16413241      10.00685741      10.01622766       0.00144737      -0.00106961      -0.00040448      -4.61947048
Ni       8.50604164      -0.01238696       0.06504187      -0.00088246      -0.00391992       0.00386047      -5.85932424
Al       9.96876108       1.40728005       1.42499374       0.00960296      -0.00697274       0.00229301      -4.62089050
Ni       8.49675219      -0.00314910       2.78359582       0.00627701      -0.00170937      -0.00532372      -5.85233767
Al       9.98527954       1.38481788       4.25360145       0.00124646      -0.00366895      -0.01029285      -4.72202256
Ni       8.59717220      -0.03091163       5.74120293      -0.00754100       0.00234317      -0.00206698      -6.10973912
Al       9.99503289       1.43721178       7.14051847       0.00889255      -0.00593410       0.00332721      -4.44320101
Ni       8.60730825      -0.03282356       8.54636693       0.00190476       0.00069049       0.00635805      -6.11682491
Al       9.98645683       1.37639137      10.02899952       0.00386572      -0.00886588       0.00276669      -4.74867774
Ni       8.57203118       2.84822509       0.00568166      -0.00443782       0.00481461      -0.00551428      -6.09344169
Al       9.99731385       4.28845582       1.41991154      -0.00085253       0.00182529      -0.00118267      -4.68387867
Ni       8.56502296       2.85163172       2.83845987      -0.00502866       0.00663028       0.00507425      -6.08304355
Al      10.00027505       4.28434735       4.30829926      -0.00114104       0.00328602      -0.00420436      -4.61541375
Ni       8.58726594       2.86438724       5.71588072      -0.00016394      -0.00238002      -0.00408396      -6.09052746
Ni       8.59346186       2.85849217       8.57332590       0.00218085      -0.00242443       0.00201991      -6.10054499
Al      10.00154373       4.31671220       9.96541969      -0.00299374      -0.00339177       0.00370638      -4.57562696
Ni       8.59692518       5.72831501      -0.00935331      -0.00363957      -0.00446525       0.00257177      -6.09199437
Al      10.00627759       7.18085763       1.37447061       0.00209278      -0.01108469       0.01224470      -4.61428285
Ni       8.59343010       5.73283640       2.85939594       0.00296519       0.00077063       0.00122639      -6.29707001
Al      10.01067184       7.18482170       4.28063172      -0.00300142      -0.00287388      -0.00902241      -4.74558326
Ni       8.60718798       5.70902318       5.72839294       0.00149325       0.00197464      -0.00013003      -6.09782363
Al      10.05010099       7.15066688       7.18338204      -0.00429513       0.00491489      -0.00549686      -4.41397329
Ni       8.60881151       5.71005130       8.55352399       0.00301832       0.00283178       0.00121087      -5.83536357
Ni       8.52587857       8.60561052       0.04832504      -0.00177601      -0.00387710      -0.00980725      -6.01614980
Al       9.97836006      10.00655598       1.43032012      -0.00260533       0.01379590       0.00587304      -4.48022614
Ni       8.54725986       8.57543601       2.83109378      -0.00217199       0.00084689       0.00375201      -6.10338525
Al       9.98437638      10.01717982       4.25744729       0.00094802      -0.00504519      -0.00250568      -4.67484042
Ni       8.61220740       8.60945705       5.73598655       0.00107662      -0.00299383      -0.00200609      -6.11489453
Ni       8.61760796       8.60489351       8.55026044       0.00272716      -0.00257693       0.00390508      -5.83726096
Al       9.98599502       9.95928562      10.03279701       0.00021106       0.00448770      -0.00887766      -4.63828253
