250
Lattice="15.971836402983934 -0.14155540987370557 -0.3913291246158627 -0.1450487788182925 15.724551264763608 -0.0322615960714411 -0.3941152148926716 -0.0336080132047353 15.793305666327884" Properties=species:S:1:pos:R:3:forces:R:3:energies:R:1 rep=5 n_sites=250 energy=-1082.77294921875 stress="0.0006491792155429721 -0.00026125795557163656 0.00013593726907856762 -0.00026125795557163656 -0.00010445650696055964 0.00025514178560115397 0.00013593726907856762 0.00025514178560115397 -0.0008479905663989484" free_energy=-1082.77294921875 pbc="T T T"
Al      -0.15159184       0.07690268      -0.09768887       0.00526277       0.00384220       0.00145211      -3.83341134
Al       0.46930208       2.04426776       1.93239371      -0.00041911      -0.00679931       0.00069211      -4.07742262
Al       0.53773945      -0.71763893       3.60484889       0.00288060       0.00747298      -0.00111169      -3.87544602
Al       1.59668969       1.91521241       4.46859271       0.00587684       0.00648484      -0.00610688      -3.86844218
Al       0.95250535      -0.16130727       6.36501638      -0.00308510      -0.00124026       0.00134578      -3.73085165
Al       1.63604225       2.25759668       7.19312899       0.00117076      -0.00078048       0.00736803      -3.73376644
Al       0.53059849       0.75468069       9.15293611      -0.00704766       0.00519661       0.00437219      -3.68681729
Al       1.27473724       1.64470092      11.81199542       0.00172840       0.00158030       0.00448362      -3.54484510
Al      -0.29058358      -0.36505477      12.94860859      -0.00518965      -0.00035220      -0.00367516      -3.92584813
Al       0.38975695       2.08136852      14.28151874      -0.00355220       0.00258706      -0.00058407      -3.85382384
Ni      -0.90867744       2.56834007       0.10364358      -0.00291786      -0.00610255       0.00460171      -5.97373015
Al       1.79311354       4.32191961       2.56923097       0.01341888       0.00388759       0.00554267      -4.05917555
Ni      -0.11900098       3.57504630       3.85818511      -0.00585362       0.00726166       0.00847948      -5.96082538
Al       2.05795793       4.64109968       5.34743766      -0.00211924       0.00089402      -0.00713852      -4.01482022
Al      -0.42634578       3.76035930       6.20725306      -0.00995748       0.00630577      -0.00485265      -3.95360935
Al       1.68704058       4.68554252       8.16994444      -0.00346399       0.00244522       0.00355294      -3.94555223
Al      -0.29418936       3.25034853       9.41573438       0.00142796       0.00345368      -0.00813647      -3.67980802
Al       1.81399879       6.08825635      11.74878692       0.00339982       0.00144795       0.00649668      -4.24114662
Al      -0.25700244       4.15683904      12.04920770      -0.00324959       0.00300394      -0.01002368      -3.88741356
Al       0.66660536       4.42081448      15.80797484       0.01004073      -0.00621383       0.00126120      -3.95264292
Al       0.03222558       7.23167225      -0.16829566      -0.00545804      -0.00002092      -0.00416262      -4.00009012
Al       1.77005973       8.66228735       1.67367846      -0.00371300      -0.00551212      -0.00097799      -4.14156091
Al      -0.45302837       5.92919046       4.17127446       0.00742045       0.00684885      -0.00294197      -4.10099941
Al       2.06669251       7.17131024       4.15017489      -0.00551657       0.00359783       0.00166728      -3.95573217
Al      -0.20099568       6.36782281       6.88840638      -0.00884970       0.00261888       0.00525993      -3.59543622
Al       0.84862504       8.47513065       8.29109082       0.00124221      -0.00220731      -0.00841695      -3.85872209
Al      -0.33266255       6.04712034       9.70938011       0.00720236       0.00145085       0.00168973      -3.84046149
Al       1.72397030       8.65956999      10.93306319      -0.00231304       0.00487569      -0.00120214      -4.02927232
Ni       0.37866411       5.72804655      13.77169002       0.00643800      -0.00116300       0.00468269      -6.02753615
Al       0.63900676       8.18457246      13.40920067      -0.00370902      -0.00901698       0.00225887      -4.24872392
Ni       0.64486174       9.64343080      -0.32016297       0.00797429       0.00393190       0.00376972      -6.02284527
Al       1.82064469      11.37687053       0.97406983       0.01236232      -0.00474042      -0.00151497      -4.32946992
Ni      -0.10676152       8.26193713       3.46389989       0.00403760      -0.00075980      -0.00178643      -5.91141284
Al       1.41335523      10.19702033       3.86916525      -0.00140461      -0.00218687       0.00243890      -4.29412395
Al      -0.24381837       8.88395950       5.81671305       0.00405370      -0.00060719       0.00167081      -3.93861318
Al       0.65517487      11.13771872       7.66389165       0.00009260       0.00281090      -0.00410876      -4.09139431
Al      -1.50156653       8.68280508       9.73419523      -0.00175104       0.00397129       0.00021586      -3.83299196
Al       0.31176904      10.95420221      10.70798058      -0.00056310      -0.00876212       0.00087307      -4.40604687
Ni      -0.93663256       9.30108036      11.93422796       0.00353252       0.00892009      -0.00753840      -5.89484280
Al       0.49940720      11.01973969      13.44060814      -0.00428682       0.00026802      -0.00640543      -4.34166515
Al      -0.68594905      11.76781556      -0.01151043      -0.00526291       0.00488478      -0.00806436      -4.00816780
Al       1.47434963      14.11181591       1.32989717       0.01391940       0.00304112       0.00201438      -3.84548926
Al      -0.24763533      12.28986403       3.09377066      -0.00616348       0.00694316      -0.00640777      -4.12623209
Al       1.41571420      13.02426830       5.37735623       0.00038442       0.00386319      -0.00310425      -4.09413224
Al      -1.01684803      11.79497164       5.74429528      -0.00034113       0.00111279       0.00606963      -3.67954421
Al       1.89490327      13.64415324       8.18114577      -0.00689828      -0.00390071      -0.00032422      -4.23371595
Ni       0.00871787      12.82310489       9.36967795       0.00026664       0.01060526      -0.01639588      -5.71691591
Al       1.28569075      14.70463896      10.75928917       0.00585882      -0.00346148       0.00109294      -4.26337677
Ni       0.24093595      13.08469780      12.14163243       0.00560242       0.00094405      -0.00741237      -5.97005814
Al       0.65596264      13.55347894      14.54959145       0.00272393      -0.00720730       0.00922474      -4.02849525
Al       2.72358320       0.24364853      -0.60681847       0.00132281      -0.00078757      -0.00594323      -3.63503373
Al       5.13639959       1.51447660       1.34963460      -0.00053207       0.01719093       0.00029438      -3.70768499
Al       2.76036345       0.74685284       2.32992029       0.00257096      -0.00024046      -0.00377591      -3.59978080
Al       6.15845469       1.93495618       5.18220175       0.00039616       0.00418072       0.00202921      -3.95090991
Al       3.69336889       0.74400279       5.66427639      -0.00046557       0.00075929       0.00077429      -3.93433827
Al       6.03896161       0.99591244       7.62515716      -0.00323805      -0.00312262       0.00167826      -3.92394060
Al       3.21578100       0.36667640       8.32053589      -0.00304563       0.00075269       0.00508674      -3.71269453
Al       4.48933237       2.93928740      12.05379939      -0.00178698      -0.00297763       0.00069982      -3.83719993
Al       3.51793431       0.13324931      12.37209202       0.00927932      -0.00476298       0.00631667      -3.61397278
Al       4.86849970       1.24435320      14.42283866      -0.00855005      -0.00089863       0.00132188      -3.90957147
Al       3.11609305       2.80350167       0.22192011      -0.00309872       0.00142866       0.00087758      -3.63338029
Al       5.07784907       4.31470559       1.65881332       0.00171305       0.00389779       0.00066517      -3.82968247
Al       4.06100037       2.83304936       3.69056231      -0.00380902       0.00373560       0.00126437      -3.88551295
Al       4.88325441       4.93850934       5.61490570      -0.00008920       0.00888130      -0.00115336      -4.23523283
Al       4.15403793       3.12668448       7.63874014      -0.00101459       0.00726281       0.00141460      -3.95352960
Al       5.80386903       5.81391484       8.03032870       0.00163083       0.00583777       0.01153683      -4.30238193
Al       2.67314207       2.58283701       9.82214888       0.00089314       0.00220631      -0.00068520      -3.65719473
Al       3.76333739       5.03342331       9.98602767       0.00492433       0.00091434      -0.00230419      -4.06066352
Al       2.22177588       3.85414736      13.43132271      -0.00017071       0.00360180      -0.00184201      -3.80965781
Al       4.72971824       4.25089168      14.63184498       0.01076806      -0.00144130      -0.00050263      -3.88166767
Al       3.31777221       6.41839994       1.52119790      -0.01126210      -0.00498754       0.00708321      -3.73419774
Al       4.59256270       8.74132963       1.25342559      -0.00575921       0.00427048       0.00273884      -3.88707596
Ni       3.70279235       5.22750091       3.57880172      -0.01660385      -0.00410756      -0.00707367      -5.76953852
Al       4.29209571       8.83181884       4.09354784       0.00038270      -0.00020704       0.00690204      -3.97659469
Al       2.85659865       6.85499282       6.98269098      -0.00708044      -0.00231486       0.00136515      -3.79965019
Al       5.31286115       8.06809652       6.44962573       0.00123996       0.00479468      -0.00163528      -3.92800283
Ni       2.01380014       6.69940900       9.36935918      -0.00209050       0.00232540      -0.00249794      -5.84158993
Al       4.24835168       7.80148950       9.17361205       0.00515430       0.00189120       0.00474180      -4.12980574
Al       2.67221472       6.31696770      14.65360148      -0.00224173      -0.00110549      -0.01162872      -4.07640046
Al       4.97293860       8.37752691      14.24925829      -0.00386731      -0.00586666      -0.00276872      -4.16809541
Al       2.96970410       9.59639693      -1.00747144       0.00091597       0.00072256      -0.00101542      -4.25043499
Al       4.46462748      11.84389597       0.81032277      -0.01111388      -0.00275478      -0.00920118      -4.17665720
Ni       3.42906833      10.43520918       2.53676560      -0.00566838       0.00826122      -0.00857927      -5.86751437
Al       3.87186603      11.57122397       4.67639837       0.00722724       0.00078717      -0.00326116      -4.38199914
Al       2.46425028       9.43873285       6.28906682       0.00432326      -0.00033289      -0.00177278      -3.88878733
Al       4.89228928      10.62045608       7.20355667      -0.00796838       0.00077838       0.00434522      -4.20049721
Al       2.92286020      10.55049748       9.11116450       0.01183298       0.00526258       0.00583715      -4.20120871
Al       4.42414459      11.68418032      11.08347100      -0.00697063       0.00576022       0.00229812      -3.94641525
Ni       2.99346373       7.94439507      12.95129174       0.00661541      -0.00586811       0.00415482      -5.74997735
Al       4.61882927      11.14021661      13.83170887       0.00563788       0.00573601      -0.00734003      -3.90386260
Ni       3.00372229      12.08941755      -1.07560360      -0.00212057      -0.00298420       0.00505440      -5.81601226
Al       4.24116932      14.62252948       1.25882460       0.00326658       0.00840794       0.00127346      -3.58919990
Ni       2.11988225      12.55417749       3.13645069       0.00394076      -0.00291336       0.00315630      -5.85741085
Al       3.79880077      14.28091574       3.97180547      -0.00283462      -0.00245859       0.00105447      -3.99677902
Ni       2.83201432      11.79601814       6.88640824       0.00198071       0.00117257      -0.00262478      -5.79972333
Al       4.30735828      13.76148509       6.98105501      -0.00512222      -0.01024800      -0.00139439      -4.10735977
Ni       2.23683310      12.55343301      10.39143893       0.01566884      -0.00659406      -0.00396557      -5.77014965
Al       4.06863699      14.20204411      10.05395192       0.00231367       0.00079840      -0.00454360      -3.92030030
Al       2.62504246      13.07869933      12.60354861      -0.00061533      -0.00947987       0.00039104      -4.21136403
Al       4.30408553      14.04727744      14.39531460       0.00096270      -0.00778677      -0.00745546      -3.83693516
Al       6.79936946      -0.40382099       0.21006003       0.00887480       0.00031669       0.00416810      -3.70504141
Al       8.65021011       0.66378070       1.90432396       0.00025076       0.00442877      -0.00053039      -4.06539941
Al       6.26907067      -0.10193885       3.24542285       0.00046328       0.00530497       0.00525221      -3.90795386
Al       9.54470059       2.18779571       4.32980814       0.00101967      -0.00323687       0.00216356      -4.38559651
Ni       5.77081975      -0.50360520       5.61125574       0.00515839       0.00313497      -0.01082652      -6.00855231
Al       8.66309579       2.23294847       7.05299008       0.00171888      -0.00469777       0.00589713      -4.29980886
Al       5.03881395       1.10990867      10.12810065      -0.01001176      -0.00650142      -0.00784177      -3.60139894
Al       7.34570551       2.07172094      11.47907111       0.00351965      -0.00078189      -0.00972059      -4.14335811
Al       6.17215869      -0.63562968      11.96317290       0.00010478      -0.00725558      -0.00255350      -3.81640065
Al       7.67949741       0.82093483      13.92037732       0.00354384      -0.00525753      -0.00687501      -4.05578250
Al       7.42806558       2.86742714       0.09836849       0.00676110      -0.00006306       0.00532198      -4.21857482
Al       7.86271533       5.15594091       1.74360250       0.00187288      -0.00642920      -0.00938636      -4.03802693
Al       6.98702219       2.67081845       2.82349935      -0.00884935       0.00613572       0.00474264      -3.87250823
Al       7.69322045       4.27315863       4.94105400      -0.00718673       0.00074279       0.00308472      -4.29956543
Ni       6.38414285       3.53535877       6.96839588      -0.00014226      -0.00416245      -0.01079148      -6.04389632
Al       8.37534664       4.84578756       7.57237635       0.00655489       0.00576702       0.00035003      -4.26012719
Al       6.45161796       3.56696305       9.43785318      -0.00338299      -0.00270416       0.00011247      -4.07953233
Al       6.81206714       4.86688667      12.41110957      -0.00138934      -0.00024781       0.00230644      -4.18892592
Ni       6.43875700       2.86359136      13.58139181      -0.01044847       0.00666908       0.00246243      -5.78339696
Al       5.60138060       6.45982249      16.08002899      -0.00919344      -0.00342262      -0.00287027      -3.79397213
Ni       7.54075481       8.15740002      -0.62014798       0.01020356      -0.00897676       0.00211976      -5.78613210
Al       7.90508390       8.23178360       1.95591280      -0.00243928      -0.00254853      -0.00161349      -4.18736064
Al       5.80088192       6.49967428       3.51798995       0.00185011       0.00005268      -0.00240970      -4.23835611
Al       7.56673147       8.46550890       4.87915218       0.00269419       0.00205791      -0.00724827      -4.38875747
Ni       6.92870481       6.31760308       5.92628170       0.00238027       0.00365245      -0.00765947      -6.12534797
Al       8.03686377       7.70252324       7.59130382       0.00125027       0.00711566      -0.00157687      -3.91591936
Ni       5.89966629       5.98660655      10.41719663      -0.00281695      -0.00256386      -0.00763166      -5.84398574
Al       6.90197568       8.19350501      10.06384568       0.00845648      -0.00194447       0.00244321      -4.21650392
Al       4.51098108       6.17347158      12.44033453      -0.00756188      -0.00283450       0.00024916      -4.08686489
Al       7.38820947       7.46086949      12.71608843       0.00224087       0.00481113       0.00341439      -4.13130331
Al       6.62231084      10.17872798       0.17488498       0.00027050      -0.00432578      -0.00548595      -3.91528857
Al       8.40088215      11.54350570       1.58418746      -0.01157311       0.00207588      -0.00305059      -3.92498296
Al       5.95495204      10.65114255       2.81775851       0.00965121       0.00461045       0.00564411      -4.07481903
Al       8.46748490      11.00905421       4.35612833      -0.00267521      -0.00569281       0.00229200      -4.17706162
Ni       6.13372013      10.33220236       5.16807076      -0.00552788       0.00270989      -0.00092106      -5.95440948
Al       7.68337286      10.62654694       7.02551167       0.00904012      -0.00266135       0.00073144      -4.23712558
Ni       5.26246786      10.00699494       9.56471410      -0.00647071       0.00081711      -0.00739777      -5.80853248
Al       7.46028596      10.83574857      10.41276913       0.00182380      -0.00343266       0.00786333      -4.34140950
Al       4.62734382       9.09262451      11.66028898      -0.00172745      -0.00742524       0.01061969      -4.10908991
Al       7.55460068       9.97665930      13.49786533      -0.00412111      -0.01040294       0.00582871      -4.34896630
Al       6.96635701      12.69118299      -0.58084774       0.00293003      -0.00422439      -0.00483144      -3.75942600
Al       8.98175619      14.01924107       0.63802430       0.00523853      -0.00021126       0.00199689      -3.86128348
Al       6.40217310      13.24772673       2.01651535       0.00656262       0.00179428       0.00551444      -3.68723655
Al       8.14034131      15.47268567       5.29507215      -0.01365668       0.00087240       0.00214571      -4.36216193
Al       6.36628534      12.90942021       4.87837211       0.00477685      -0.00539864      -0.00434992      -4.22188967
Al       6.98866725      14.20687195       7.42490351      -0.00222586       0.00225368       0.00464576      -4.10739487
Al       5.92920946      12.39353010       8.97908346       0.00278793       0.00101814       0.00036215      -3.92057830
Al       8.03254792      13.57426256      10.60984176      -0.00415836      -0.00293948       0.00269128      -4.23536330
Al       6.46145147      12.46637131      12.56504551       0.00019562       0.00532763       0.00427027      -3.74772978
Al       8.49696349      13.93998463      13.57205176      -0.00057955       0.00094346       0.00594278      -4.20919394
Ni      11.11990506      -1.91861654      -0.57472658      -0.00656592      -0.00116065       0.00386824      -5.92678583
Al      11.66652012      -0.88326757       1.80412963      -0.00140972       0.00056722      -0.00121266      -4.13028723
Ni      10.16874504      -0.02512418       3.58621646       0.00073148      -0.00319929       0.00322398      -5.83610624
Al      12.32402081       0.60220506       4.32629168      -0.00044826      -0.00136581       0.00783010      -4.26062143
Ni      10.45009220       0.64401683       6.09006502       0.00625293      -0.00089975      -0.00055058      -6.09048510
Al      10.75103838       1.26741137       8.57835097       0.00650883      -0.00415306       0.00362757      -3.96570146
Al       8.14824852       0.53489603       9.43877139      -0.00663412      -0.00083724       0.00077069      -3.96152276
Al      10.19850336       1.69406124      11.33453469      -0.00959432      -0.00605682      -0.00797282      -4.15761596
Ni       8.58592291      -0.09080889      11.82424942      -0.00013210       0.00985637       0.00156445      -6.00197613
Al      10.53387570       0.13125988      13.61141592      -0.00219367       0.00396053      -0.01034521      -4.16096717
Al      10.13234856       1.99948998      -0.24913589      -0.00684916      -0.00033991       0.00289984      -3.93986028
Al      10.54633325       4.65913398       0.76265719       0.00786605      -0.00712742      -0.00270121      -4.14732152
Ni       9.17552317       3.03086881       1.82418858      -0.00051842      -0.00454769      -0.00345738      -6.02792478
Al       9.98098366       4.72590248       3.48808153      -0.00844094      -0.00056970      -0.00010974      -4.13856155
Ni      10.06529207       4.03337430       5.88278849      -0.00557855       0.00082414      -0.00370868      -6.03509009
Al      10.86362937       4.18645175       8.25588786       0.00460327      -0.00300820      -0.00339983      -3.93048477
Ni       9.00946344       3.04752895       9.52442743       0.00062729      -0.00206067      -0.00002476      -6.09050763
Al      10.46275336       4.29328005      11.15685885       0.00627638       0.00438623       0.00407422      -4.21664828
Al       8.80268887       3.59533659      13.60376177       0.00698629      -0.00691541       0.00396875      -4.21793938
Al      11.12426916       4.96638055      13.97303928      -0.00041721      -0.00502499       0.00503615      -4.43723270
Al       8.95934888       6.23567263      -0.82176316      -0.00485206       0.00764593       0.00026503      -3.99935132
Al      11.38306681       7.25427534       0.40626964       0.00199278       0.00218138       0.00027003      -3.90549541
Ni       8.20098112       6.52613435       3.66618107      -0.00462401      -0.00203380      -0.00930300      -5.82825929
Al      10.36171514       7.76572317       3.39316904      -0.00199768      -0.00081146       0.00429542      -4.03472817
Al       9.51842924       6.42211008       5.68046800      -0.00487447       0.00609675       0.00469360      -4.19336957
Al      10.71643731       7.01685156       8.10130595       0.00293276      -0.00445972       0.00553705      -3.62949419
Al       8.26762940       5.46752290      10.19195810       0.00358678       0.00523504       0.00073516      -4.10688245
Al      10.21065585       7.28048745      10.72062830      -0.01063779       0.00055256       0.00044850      -4.15483510
Ni       9.19304814       5.77831010      12.57229127       0.00014290       0.00755949       0.00261512      -6.06372404
Al      10.26180728       7.76734336      13.33866020      -0.01066703       0.01530778       0.00049290      -4.15132970
Al       9.58052863       9.26523021       0.13485117      -0.00446695      -0.00170729      -0.01186642      -4.01991892
Al      11.11103353      12.00899036       1.52706931       0.00108388      -0.00362013       0.00237563      -4.08080518
Ni       9.88242143       9.97965361       2.51487851       0.00658704      -0.00332005      -0.00002460      -5.75018907
Al      11.26919627      10.73217580       4.32295732       0.00904498      -0.00532644       0.00198564      -3.81870103
Al      10.32209491       8.99520301       6.30463035       0.00479911       0.00037739       0.00462701      -3.62906432
Al      10.28860967      11.60415799       7.17893815      -0.00306070      -0.00483245      -0.00267413      -4.06296754
Al       9.42447839       9.40518219       9.07313923       0.00420963       0.00323144      -0.00138867      -3.83392441
Al      10.19122826      11.92049643      10.16038997      -0.00413068      -0.00613692      -0.00763005      -4.25707936
Ni       8.74526165       9.13580123      11.49273185       0.00186563      -0.00133196      -0.00072548      -5.89221632
Al      10.71402654      10.24063164      12.33466976       0.00063798      -0.00634965      -0.00896734      -3.92720270
Al       9.84046359      11.66074808      -1.05323845       0.00840657       0.00082928       0.00139636      -4.10930318
Al      12.98309273      12.84766083       3.38873412      -0.00125840       0.00314944      -0.00925142      -4.08002853
Al       8.65983448      13.65693907       3.35466980       0.00338662      -0.00163679      -0.00745866      -3.93397981
Al      10.63688777      13.91772279       5.10351051       0.00680813       0.00000656       0.00444576      -4.09826905
Ni       8.57940658      12.91881887       5.95892158       0.00438870      -0.00463244       0.00521363      -6.04453588
Al       9.68483593      14.46106025       7.70141801       0.01495922       0.00223376       0.00919256      -4.19380331
Ni       8.37365795      12.44024408       8.49199808      -0.00569142      -0.00143289      -0.00140518      -5.94299150
Al      10.51735953      14.87001301      10.50387783       0.00526494      -0.00052023       0.00464807      -4.00947267
Ni       8.78006464      11.69282530      12.32393751       0.00175679       0.00480832      -0.00347839      -6.08912146
Al      10.93533278      12.94048190      12.90153807      -0.00112778       0.00282174       0.00579459      -4.28695393
Al      13.27038327      -0.97064915      -1.11909112       0.00394231      -0.00363146      -0.00142804      -3.77311587
Al      13.77637342       0.93051810       1.15699441       0.00024289      -0.00061506       0.00490039      -4.09935391
Ni      13.97006211      -0.60472322       2.99735181      -0.00256620       0.00194185       0.00889601      -5.80669254
Al      14.96362051       1.26514294       4.14011064      -0.00904173      -0.00706293       0.00246915      -4.08467209
Al      12.45434446      -0.41531227       6.90292405      -0.00354122       0.00116865      -0.00168185      -3.94237792
Al      14.58910303       1.35351040       7.00838063       0.00173487       0.00200313       0.00894377      -3.72854781
Al      13.26739190       0.18685758       9.33573408      -0.00037418       0.00620394      -0.00417290      -3.65024066
Al      14.54692602       1.61235997      11.20087661      -0.00598140       0.00450977       0.00352508      -3.67750025
Al      12.94723988      -0.50551713      12.00432106      -0.00028795      -0.00198621       0.00223958      -3.90209693
Al      13.35374029       1.52907648      13.67270463      -0.00236978       0.00600919      -0.00853840      -4.04255080
Al      12.65937039       3.02746282      -0.15823744      -0.00946896       0.00073591       0.00311258      -4.13455242
Al      14.70215933       4.15379355       1.43791458      -0.00046631       0.00524715       0.00241190      -4.26773208
Al      11.33333528       2.01233814       2.20154940       0.00158483      -0.00526236      -0.00979188      -3.88056171
Al      13.35836683       3.41110533       3.87652056       0.00284794      -0.00620930       0.00174498      -3.71590889
Al      12.02511234       2.56336878       6.27601322       0.00478828      -0.00198315       0.00448696      -4.00653630
Al      13.80024606       4.57845918       7.58673569       0.00047729       0.00034572       0.00355852      -3.64056504
Al      12.91125138       2.85236557       9.40029230      -0.00488390      -0.00484234       0.00916209      -3.61202705
Al      12.89162155       3.74776197      12.00390392      -0.00029266      -0.00245389       0.00271972      -3.91078842
Ni      11.08828066       2.55136564      13.47095255      -0.00591229      -0.00585314       0.00123563      -5.91326326
Al      14.27154063       4.56621060      14.30843656      -0.00103948       0.00160177      -0.00439928      -4.19210976
Ni      12.89621574       5.41103454       0.26726325       0.00353976       0.00149100       0.01422622      -6.04234648
Al      14.22941178       7.00474581       1.54163912      -0.00539802      -0.00581954      -0.00858185      -3.98347211
Al      12.31905758       5.59788108       2.66725193       0.00645413       0.00786779       0.00111657      -3.71226585
Al      13.33381215       7.50729640       4.33069073      -0.00870503       0.00334902      -0.00191636      -3.67464936
Al      12.11111438       5.29547407       5.52055144       0.00404379      -0.00146134       0.00444689      -3.91577166
Al      13.29939095       7.28140879       7.19339054       0.00057919      -0.00188969       0.00832087      -3.60594702
Al      12.68180405       5.87131664       9.77208302      -0.00611726       0.00205023      -0.00463581      -3.94590741
Al      14.55097839       6.54978157      11.91300133      -0.00035792       0.00257368      -0.00231801      -4.16785485
Ni      11.97060605       6.17563472      12.04393738       0.00192276       0.00351883       0.00547802      -6.06975710
Al      12.88292363       7.02532627      14.26588050       0.00079173      -0.00030032       0.00347613      -4.03158861
Al      12.10662188       9.48262437      -1.03162546      -0.00012085      -0.00415011       0.00228726      -3.61854005
Al      15.07483332       9.42846890       1.06906624      -0.00591449      -0.00466998      -0.00210560      -4.20921654
Al      12.12929886       9.46094228       1.77139580       0.00269550       0.00219545      -0.00821023      -4.05371249
Al      14.18175267       9.97549761       3.48750531      -0.00090715       0.00607514      -0.00084534      -4.01868671
Al      13.09681089       9.75158188       6.05106544       0.00194709      -0.00731445      -0.00471219      -3.70310664
Al      14.11727568      11.34203741       8.13487337       0.00412709       0.00480956       0.00178017      -3.91950864
Al      12.03560725       9.50071003       8.52817360      -0.00297255       0.00142854      -0.00247120      -3.57392740
Al      13.14022828      10.83872417      10.84472123       0.00801708       0.00207581      -0.00595863      -3.98137057
Al      12.65389229       8.42580673      11.71411309      -0.00118709      -0.00543544       0.01108968      -4.09936404
Al      14.18911596       9.43086513      13.80538367      -0.01037842      -0.00664740       0.00502922      -4.00788409
Al      12.70772109      12.07149449      -0.64854435       0.00255406      -0.00667363      -0.00531879      -3.97800696
Al      14.39946820      13.83076814       1.06142024       0.00086808      -0.01408482      -0.00172839      -3.99630517
Ni      13.68549756      11.41189844       1.51812956       0.00206485       0.00099837       0.00030963      -6.04305637
Al      14.35626020      14.39932905       5.14144751       0.00170770       0.00246806       0.00239819      -3.96964914
Al      12.62348182      12.50869837       6.13050504       0.00358548       0.00529107       0.00616036      -3.67746758
Al      14.79037584      14.27643939       7.69636327      -0.00054437      -0.00477043      -0.00496359      -3.98810267
Al      12.10875058      13.24442076       8.64202072       0.00417711       0.00042342       0.00625363      -3.91032398
Al      14.39903857      13.65293460      10.34069639       0.00015468       0.00312051       0.00942107      -4.26309365
Ni      12.21262869      13.07605849      10.99713075       0.00381503      -0.00764607      -0.00264384      -5.81628531
Al      13.95637124      12.74052024      12.91492025      -0.00450250      -0.00011870      -0.00365707      -4.03562546
