169
Lattice="13.825121314834755 0.0034308507862172146 -0.1076075480109248 0.003486957049963535 13.87304249729864 0.023858709780886014 -0.10754026080915204 0.023826090938055176 13.857133381651616" Properties=species:S:1:pos:R:3:forces:R:3:energies:R:1 energy=-781.8567396022027 stress="0.00013799757080371286 -0.0001548073545906364 0.0005703120276392039 -0.0001548073545906364 -6.2693522299000495e-06 0.00047860915062009903 0.0005703120276392039 0.00047860915062009903 -0.00011858618018486898" free_energy=-781.8567396022027 pbc="T T T"
Al       1.83716143       1.79052478       1.35429877       0.00126121       0.00027117       0.00377478      -4.21804197
Al       1.40201216       1.38090034       3.97556828       0.00457928       0.00349974      -0.00359240      -4.52192178
Ni      -0.20891763       0.03015946       5.37849337       0.00368704      -0.01042627       0.00425732      -6.09563540
Al       1.36097367       1.42662758       6.82140735       0.00622356       0.00407033       0.00469418      -4.23699096
Al       1.55774330       1.14733996       9.60273108       0.00094681      -0.00114409      -0.00447146      -4.28748567
Ni      -0.09524676       0.04327073      10.98992408      -0.00215685       0.01005515      -0.00211744      -5.76545595
Al       1.35433783       1.37600275      12.47996455       0.00478005      -0.00688877       0.00375212      -4.19938026
Al       0.91364534       4.51809708       1.20314555      -0.00339522      -0.00337330       0.00977662      -4.22163639
Ni      -0.00681002       2.89688390       2.66848211       0.01002590       0.01142182       0.00158910      -5.88958677
Al       1.50691948       4.25623027       3.93075261      -0.00347552      -0.00135020       0.00240355      -4.07007876
Ni      -0.04046262       2.77000555       5.28841794       0.00007774      -0.00958386       0.00106260      -6.12745549
Al       1.53821205       4.08581748       6.65850188      -0.00702597       0.00346377       0.00279584      -4.42198870
Al       1.14828190       4.03735985       9.60899787      -0.00078984       0.00169454      -0.00423206      -4.10699267
Al       1.27762768       4.13347766      12.35932216       0.00491818      -0.00251751      -0.00259969      -3.98500623
Al       1.68480065       7.19436362       1.43215487       0.00909547       0.00355168      -0.00647797      -3.95795842
Al       1.23891267       6.97373730       4.05162950       0.00722865       0.00557809      -0.00176886      -3.90053741
Ni      -0.13591983       5.45242086       5.39481889      -0.00260868      -0.00189474       0.00307626      -6.03313748
Al       1.32992758       6.79793922       6.79150560      -0.00122532      -0.00342653       0.00320727      -4.29607340
Al       1.20813180       6.73730163       9.70913699      -0.00227488       0.00389057      -0.00224596      -4.34553810
Al       1.22010889       6.88917109      12.63065399      -0.00601729       0.00767855      -0.01285152      -4.40587046
Ni      -0.14087744       8.42660954       0.02038282       0.00121979      -0.00152658      -0.00135441      -6.08344111
Al       1.26491265       9.81818293       1.48673473       0.01060487      -0.00013158       0.00680858      -4.07066530
Al       1.21058874       9.70251651       4.09008882      -0.00137705       0.00970442      -0.00063618      -4.06677830
Al       1.17775659       9.65371941       6.85403855       0.00531887      -0.00692486      -0.00094096      -4.59722019
Al       1.13583661       9.59381099       9.58399871       0.00885797       0.01051984      -0.00109646      -4.47059043
Ni      -0.07826862       8.24829273      11.18526873       0.00401553      -0.00315094      -0.00024576      -6.01328803
Al       1.27414539       9.80545411      12.44138536       0.00766151      -0.00743396      -0.00135199      -4.56283736
Ni      -0.05369536      11.12633648       0.05668327      -0.00091513       0.00677802      -0.00559451      -5.99973585
Al       1.31411374      12.67230190       1.42103582       0.00485880      -0.00284460      -0.01576245      -4.32808073
Al       1.33108744      12.50474014       4.01702229      -0.00199663      -0.00748640       0.01747213      -4.39654244
Ni      -0.20010023      11.21381747       5.47525739       0.00590115      -0.00141071      -0.00489287      -6.05612397
Al       1.28896404      12.60287400       6.87877786      -0.00609280       0.00525067      -0.01040663      -4.58087078
Ni      -0.22746862      11.15141963       8.18068132      -0.00265689      -0.00019235      -0.00562781      -6.13273892
Al       1.13545648      12.34346751       9.77277992       0.00084636      -0.00230036       0.00036210      -4.22052199
Al       1.22154280      12.57933357      12.50265553      -0.00382422       0.00271266       0.00218070      -4.38156945
Ni       2.93058566      -0.07479119       0.08681033      -0.00527564      -0.00131558      -0.00371406      -6.02866283
Al       4.65744364       1.20658366       1.36156287      -0.00169212      -0.00372878       0.00122475      -4.30811369
Ni       2.96969116       0.06141867       2.67045732       0.00385332       0.00032066      -0.00146140      -6.06948991
Al       4.35945987       1.53600829       4.07418394      -0.00566782       0.00045158      -0.00486268      -4.11538992
Ni       2.88152317      -0.01037592       5.32293048      -0.00652765      -0.00639912      -0.00209879      -6.15701325
Al       4.04507526       1.39527717       6.92654407       0.00437113       0.01210784      -0.00258986      -4.25628096
Al       4.43659807       1.52003868       9.66237275      -0.00042459      -0.00012817       0.00007452      -4.01536601
Al       4.15731512       1.30842954      12.41679635       0.00351990       0.00635722      -0.00273348      -4.19476285
Al       4.18275437       4.02401602       1.51795962       0.00179025       0.00647809      -0.00701268      -4.14814346
Al       4.22394870       4.24621860       4.35080878       0.00462022      -0.00155518      -0.00915565      -3.70408902
Al       4.44062583       4.10187231       7.10513159       0.00074042      -0.00012565      -0.00095757      -3.99896197
Ni       2.79400229       2.84527626       8.36753941       0.00293870      -0.00558685       0.00119180      -6.02788496
Al       4.20519497       4.29864003       9.90062261       0.00695347      -0.00334074       0.00291772      -4.17409269
Ni       2.74349147       2.72220086      10.97524028       0.01308203       0.00443433       0.00580582      -5.92129672
Al       4.00451553       4.02606795      12.59769607       0.00008661      -0.00528282      -0.00888584      -4.18094158
Ni       2.75859854       5.47315440       0.08890670      -0.00010401      -0.00429616       0.00645388      -5.78040830
Al       4.51347586       6.82830922       1.13168034       0.00291245       0.00474280       0.01257835      -4.26576293
Al       4.00954989       6.92899512       4.00723493       0.00329972       0.00484521       0.00600600      -4.36407767
Al       4.15807718       6.80911256       6.82617901       0.00716651      -0.00230280      -0.00337618      -4.47311891
Ni       2.73373763       5.42832838       8.26958508       0.00420778       0.00134153      -0.00565521      -6.08457428
Al       4.07319897       6.90794456       9.64755945       0.00026676      -0.00444219       0.01603254      -4.35960240
Al       3.95687419       6.72166024      12.34289090       0.00019742       0.01071970      -0.00477275      -4.26675444
Al       3.92971513       9.45029943       1.46337618      -0.00072987       0.00188046       0.00556862      -3.98879461
Al       4.24995731       9.80813773       4.11885123       0.00713907      -0.00874849       0.00274819      -4.33037061
Ni       2.73571695       8.35904964       5.46357327      -0.00622359      -0.00080543       0.00184588      -6.05810461
Al       4.05693334       9.72618205       6.93691160       0.00764406      -0.00819038       0.00773849      -4.63081395
Ni       2.64994148       8.18596077       8.24952267      -0.00855085       0.00641980      -0.00450042      -6.22555990
Al       3.96670102       9.77321507       9.82745948       0.00189073      -0.00928132       0.00305224      -4.61395247
Ni       2.58612184       8.26509567      11.06428511      -0.00190427       0.00727990       0.00091432      -6.13290816
Al       4.00719932       9.63032552      12.59515489      -0.00375266       0.00488632       0.01013049      -4.17366728
Ni       2.75225776      11.15779284       0.04406896       0.00177384       0.00339934       0.00308860      -6.01807729
Al       4.41553609      12.27548437       1.39653845       0.00061244      -0.00447478      -0.01707859      -4.14476601
Al       4.37186523      12.46030853       4.08030266      -0.00291583      -0.00439446       0.00225281      -4.21251182
Ni       2.66931258      11.08843362       5.46259652      -0.00394853       0.00204760       0.00501180      -6.15733100
Al       4.14225971      12.43453348       6.87644953       0.00314251       0.00266457       0.00331563      -4.53544263
Ni       2.60589637      11.12432519       8.29264772      -0.00142603      -0.00173369       0.01021766      -6.14057470
Al       3.83775355      12.74957899       9.66997526       0.00445288      -0.00018738       0.00491110      -3.92749356
Al       4.04209022      12.41771020      12.32839447       0.00347255      -0.00177304      -0.00487954      -3.96669335
Al       7.46571588       1.71304668       1.35961661      -0.00567042       0.00220585       0.00932151      -4.11759253
Al       7.16959375       1.02062005       4.10566223      -0.00958010      -0.00782025      -0.00379143      -4.06680639
Ni       5.57619808       0.05554566       5.64208515       0.00715507      -0.00771880       0.00608344      -5.90751165
Al       6.76520872       1.77881459       6.90370583      -0.00457516      -0.00220795       0.00363674      -4.05602176
Al       7.09063454       0.98371091       9.58842370      -0.00194451       0.00393480       0.00578354      -3.82912842
Al       6.96412993       1.23683276      12.45867394       0.00403909       0.00929703       0.00085112      -4.17381291
Ni       5.73327756       2.73249331      -0.06848463      -0.00509859       0.00420225      -0.00626682      -5.75705979
Al       6.88472719       4.60201062       0.85783705       0.00705123       0.00720634      -0.00139806      -4.14166761
Al       6.87049680       3.70365801       3.52505480       0.00137807      -0.00411787      -0.00674161      -4.25985074
Al       6.95637125       4.54483036       6.41625261      -0.00011513       0.00070026      -0.00224156      -3.80013999
Al       6.76047448       3.72408337       9.18186391      -0.00075307       0.00018534      -0.00280497      -3.83089016
Al       6.68461059       4.08953087      11.96396045      -0.00166320       0.00363910       0.00393738      -4.07635098
Al       7.39570662       7.15294463       1.63198762      -0.00029456       0.00610940       0.00235897      -3.98668336
Ni       5.65663701       5.58985118       2.76991124       0.00180034       0.00423187      -0.01549540      -5.88143739
Al       6.98787669       6.66489351       4.40631881      -0.00748458      -0.00033178       0.01072240      -4.21203518
Al       6.97608598       7.10609177       7.09515503       0.01268010      -0.01040345       0.00279373      -3.90614433
Al       6.73676701       6.62364004       9.81287333      -0.00988009       0.00096180       0.00633451      -4.08750961
Al       6.70091114       6.77775947      12.75200423       0.00072878      -0.00071136       0.00468990      -4.02317948
Al       6.59707740      10.07449647       1.61790462       0.00259688      -0.00704499       0.00683899      -4.12410853
Ni       5.66296069       8.23549445       2.88647266       0.00307981       0.00462217       0.00627321      -5.98213726
Al       7.26748158       9.48106041       4.25531789      -0.00039549       0.00742465       0.00337839      -4.08386299
Ni       5.54341111       8.32490997       5.53347291      -0.00750283       0.00391151       0.00113051      -6.13555367
Al       6.77784898      10.03808034       6.91298276      -0.00848262       0.00143926      -0.00243452      -4.13529936
Ni       5.46429153       8.40894559       8.33373374      -0.00322761       0.00561782       0.00501847      -6.11756192
Al       6.84017199       9.73848186       9.78776125      -0.01016880      -0.00427268      -0.00184272      -4.31908260
Ni       5.45233522       8.25499366      11.19580275      -0.00299294      -0.00003673      -0.01360364      -6.11909163
Al       6.79879136       9.78081318      12.62147434      -0.00315527      -0.00400049       0.00039159      -4.26464888
Al       7.20598374      12.80332035       2.09072692      -0.00827196      -0.00307297       0.00878964      -4.02466134
Al       7.19467084      12.20961956       4.82963393      -0.01434101       0.00221002       0.00577532      -3.86704968
Al       6.80576494      12.90369866       7.56240578       0.00321425       0.00727317      -0.00455271      -4.07613344
Ni       5.35914192      11.18595735       8.53100565      -0.00321712      -0.00916444      -0.00440559      -5.96453157
Al       6.42679915      12.37022223      10.45710235       0.00195620       0.00119467      -0.00253251      -3.87288677
Al       6.51275628      12.50033244      13.18865323       0.00718967      -0.01091765       0.00395198      -4.04262162
Ni       8.52339946      -0.16707584       0.19947963       0.00682411      -0.00582970      -0.00934126      -5.89895956
Al      10.30564337       0.97893984       1.35965918       0.00247207       0.00683985       0.00418646      -3.96848455
Al       9.78012927       2.23526655       3.66912307      -0.00181264      -0.00451140       0.00780634      -3.92179234
Al       9.55322637       1.32737359       6.67927178      -0.00802365      -0.00386872       0.00785583      -3.94879644
Al       9.76113829       1.23253472       9.51481808      -0.00418956      -0.00360753      -0.00424691      -4.10112752
Al       9.64128207       1.27297696      12.46380740      -0.00060124      -0.00401103       0.00033863      -4.25626756
Al       9.39463402       3.81192629       1.44053078      -0.00242555      -0.00008710       0.00299047      -3.57917675
Al       9.31591452       4.93928768       4.07346624      -0.00492400       0.00314657       0.00203208      -4.13038550
Ni       8.21559711       2.88569580       5.30208536       0.00328335      -0.01300829       0.00529823      -5.74355805
Al       9.72310207       4.07605582       6.67845836      -0.00181551       0.00303174       0.00583867      -4.41486945
Al       9.44463426       4.21256596       9.51924435      -0.00449569       0.00454226       0.00124797      -4.35023647
Ni       8.29967679       2.64075841      10.92471511      -0.00457383      -0.00166211       0.00057830      -5.90426933
Al       9.49501407       4.15128239      12.50293814       0.00506589      -0.00600162       0.00731267      -3.94897682
Al      10.06679480       6.50273713       1.63200848       0.00512439      -0.00406250      -0.00291717      -3.87433717
Al       9.69656860       7.82998595       4.11097112      -0.00990778       0.00148541      -0.00247947      -3.79589933
Al       9.51556493       6.90146231       6.68353240      -0.01446859       0.00343841      -0.00399297      -4.13007140
Al       9.43249472       6.88900931       9.65815831       0.00309438       0.00304094      -0.00794981      -4.19707238
Al       9.46080006       6.85524662      12.64143914      -0.00131909      -0.00015230      -0.00185364      -3.96301774
Al       9.45895656       9.32418273       1.54284094      -0.00583181       0.01058858       0.00570076      -4.09445333
Al       9.67881681      10.70632715       4.12953757       0.00477684      -0.00126083      -0.00298750      -3.65348081
Al       9.41178704       9.61173569       6.70096139      -0.00188004       0.00241095       0.00232925      -3.96076796
Al       9.47895507       9.56167275       9.75064615       0.00915765       0.00782475      -0.00563276      -4.35813301
Ni       8.02115691       8.17760940      11.21639758       0.00643842       0.00515138       0.00845994      -5.90223768
Al       9.52046437       9.65627688      12.58245361      -0.00429427      -0.00260887      -0.00271565      -4.24529878
Ni       8.28407244      11.08586668       0.29766646       0.00949778       0.00471891      -0.00492294      -5.85188865
Al       9.91345592      12.12490307       1.70396085      -0.00906378      -0.00039548      -0.00350846      -4.03999273
Al       9.62885773      13.43411212       4.16030932      -0.01266535      -0.00378283      -0.01294049      -3.64511199
Al       9.36852597      12.35042256       6.67557006      -0.00014639       0.00223855       0.00025199      -3.83707120
Al       9.17061007      12.47749943       9.50290520       0.00280849      -0.00031798      -0.00042250      -4.03264345
Al       9.27504177      12.36846408      12.33696315       0.00127315       0.00380113       0.01007178      -4.34115004
Al      12.95027969       1.51244645       0.88705384       0.00296331       0.00114361       0.00270718      -3.80272847
Al      12.31453938       1.28156376       3.65008598       0.00224276       0.00751229      -0.00176692      -4.21818817
Al      12.29233994       1.48465846       6.65496765      -0.00876661      -0.00704609       0.00622638      -4.17213419
Al      12.62121191       1.60856047       9.48975280       0.00029675      -0.01435017       0.00477823      -4.27694984
Al      12.32119564       1.39125113      12.21289627       0.01042894      -0.00487227      -0.00552117      -3.96986593
Al      12.01871365       4.12711382       1.28055374       0.00343164       0.00208433      -0.00401487      -3.73569648
Al      12.11213641       4.03790473       3.98880513      -0.00143062       0.00334151      -0.01081732      -4.39320742
Al      12.54537522       4.16295406       6.90752086      -0.00412451       0.00476321      -0.00381369      -4.53943355
Ni      11.02329636       2.82343392       8.24055551      -0.01125679       0.00099165      -0.00438190      -5.97674690
Al      12.32632566       4.33548501       9.72095377      -0.00109090       0.00409470      -0.00691110      -4.09435879
Ni      10.86124490       2.82277184      10.96688336       0.00719109      -0.00429429      -0.00364804      -6.01613340
Al      12.34503651       4.13720850      12.48249012       0.00767294      -0.00393795      -0.00044680      -3.71748950
Al      12.77394835       6.75269394       1.29417290      -0.00071187      -0.00320554      -0.00365256      -4.01476373
Al      12.30296024       6.95313631       3.87169261       0.00151628       0.00650192      -0.00755080      -3.94322733
Ni      11.11587914       5.65807570       5.44306396      -0.00059835      -0.00212613      -0.00518563      -5.89380060
Al      12.49512984       7.04025407       6.81816981       0.00329779       0.00320364       0.00283600      -4.32506808
Ni      10.93096170       5.61882698       8.15038950      -0.00572607      -0.00110796       0.00074365      -6.15639400
Al      12.28949147       7.01204573       9.63979052      -0.00768270      -0.00830449      -0.00368508      -4.19693122
Al      12.21909985       6.85154973      12.37572024       0.00102317      -0.00332198      -0.00014899      -4.16309444
Ni      11.08634303       8.15363602       0.12084785       0.00829622      -0.00139989       0.00325059      -5.89416501
Al      12.22822200       9.87724661       1.35542209      -0.00023954      -0.00202842       0.00035900      -4.19997017
Al      12.21741052       9.64331341       4.03242740      -0.00362371       0.00179389      -0.00169687      -3.71479167
Al      12.20721341       9.72904754       6.73751632      -0.00506243      -0.00204437       0.01019362      -4.32394946
Ni      10.84223062       8.29189118       8.17213917       0.00321142       0.00669976      -0.00040977      -6.06801346
Al      12.30800688       9.73065957       9.64231947      -0.01631960       0.00823370      -0.00404616      -4.41228787
Al      12.18532593       9.76069714      12.33102261      -0.00308107      -0.00583199      -0.00677766      -4.49769281
Al      12.44076192      12.75955210       1.19479792       0.00808131      -0.00660646      -0.00334506      -3.80522443
Al      12.15966335      12.41878443       3.87323448      -0.00324408      -0.00405491      -0.00077960      -4.01406170
Al      12.12457526      12.59994850       6.74277121      -0.00301883       0.00927688       0.00505734      -4.30159867
Ni      10.79392891      11.05341978       8.23662684      -0.00205901      -0.00758234       0.00362080      -6.06998005
Al      12.15935605      12.64620210       9.53529121      -0.00116135      -0.00424782      -0.00173029      -4.37060157
Ni      10.74580875      11.17959683      10.93271987       0.00804766      -0.00402670      -0.00690414      -5.86898094
Al      12.25330970      12.49744137      12.28786616       0.00279677       0.00069423       0.00283172      -4.17700041
