174
Lattice="13.746959895010905 0.04123164037829639 0.3058869869095883 0.04072441713057689 14.022644687026668 0.05816363494784113 0.3019967916317012 0.05775768900709257 13.986335065761361" Properties=species:S:1:pos:R:3:forces:R:3:energies:R:1 energy=-818.035106894711 stress="-0.0003722297655894574 -9.266872062814103e-06 -0.00031635567440611054 -9.266872062814103e-06 0.0006396911370068821 -0.00010603732517346381 -0.00031635567440611054 -0.00010603732517346381 -0.00037377236899900515" free_energy=-818.035106894711 pbc="T T T"
Al       1.72984632       2.05923948       1.03011342      -0.00287302       0.00351341      -0.00039097      -4.14605327
Al       1.47200832       1.11536225       3.66636074       0.00447025      -0.00065306       0.00075626      -4.25894627
Ni       0.18631937      -0.04680799       5.37595894       0.01036456      -0.00455855      -0.00370039      -6.06298149
Al       1.53354114       1.79431416       6.45673344       0.00659802      -0.00471255       0.00001280      -4.28098960
Al       1.79956860       1.26901008       9.47490679      -0.00520499       0.00175011      -0.00559063      -4.24042269
Ni       0.42119236      -0.08791616      11.05422765      -0.00457569       0.00748553      -0.00498381      -6.04739165
Al       1.74881986       1.34611285      12.46080536      -0.01254089      -0.00129532      -0.00274033      -4.26958938
Al       1.38245106       4.79212428       0.84088760       0.00246911       0.00142242      -0.00443174      -3.96185876
Ni       0.08241520       2.88287202       2.48785957       0.00419520      -0.00059412      -0.00100728      -5.82736513
Al       1.51559417       4.09316685       3.87164941       0.00387820       0.00931276       0.00517129      -3.94564462
Al       1.57488434       4.66147611       6.61421877      -0.00914854       0.00318202      -0.00287030      -3.72120186
Ni       0.30988256       2.84775530       8.21569028       0.00049592       0.00073147       0.00151035      -5.95985793
Al       1.86501418       4.15355865       9.37130493      -0.00580878       0.00143621      -0.00091965      -4.13068916
Ni       0.45772936       2.74227166      10.93524162      -0.00416536      -0.00134666       0.00668655      -6.08873999
Al       1.54670865       4.66186187      12.11005904       0.00708522       0.00013201      -0.01285324      -4.06928397
Al       1.05689227       7.54187573       1.65636916       0.00109568       0.00155280       0.00083593      -4.10665246
Ni      -0.11300493       5.54130404       2.52405812       0.00005311       0.00015197      -0.00404274      -5.98107944
Al       1.22354756       6.75462523       4.39634499      -0.00399713       0.00454543      -0.00099223      -4.03058585
Al       1.32533460       7.50415201       7.30588480      -0.00405027       0.00621719      -0.00278651      -3.86253696
Al       1.58502546       6.77876291      10.14388052      -0.00544560       0.00568532      -0.00082103      -3.85801770
Al       1.67392261       7.32461012      12.93550508       0.00221557       0.01073308      -0.00117580      -3.62417438
Al       1.20621455      10.32303951       2.38899711       0.00252731      -0.00149519      -0.00270700      -3.90146656
Al       1.42412932       9.53030023       5.11519940      -0.00061826      -0.00098113       0.00357179      -4.07374772
Al       1.55667785      10.30384122       7.84386855       0.00188576      -0.00297301      -0.00208551      -4.06851969
Al       1.83057461       9.40399812      10.93672676       0.00680242      -0.00081203      -0.00227635      -4.17976152
Al       1.49419776      10.05818964      13.61997962      -0.00951582      -0.00138787       0.00468615      -3.76947348
Al       1.21155772      13.06010404       1.74219900       0.00004739       0.00697465      -0.00496905      -3.86647879
Al       1.45345738      12.26676079       4.31693971      -0.00042016       0.00977554       0.00039617      -4.20882069
Al       1.52044655      12.97375614       7.37445434      -0.00663519       0.00030848       0.00729590      -4.15022419
Al       1.99858833      12.38487094       9.97633955      -0.00709004      -0.00431012      -0.00449687      -3.98925678
Ni       0.39373207      11.26509535      11.40593466       0.00246753      -0.00880682      -0.00786451      -5.95853350
Al       1.57474560      12.70836496      12.95993002       0.00637920       0.00249516       0.00451697      -4.22227893
Ni       2.76383618       0.03450329       0.17957291      -0.00983252      -0.01557454       0.00332786      -5.89059295
Al       4.11769180       1.21064899       1.87295706       0.00412919       0.00508619       0.00502974      -4.25245656
Al       4.02523864       1.54390828       4.53401935      -0.00600215      -0.01648450       0.00194057      -4.26489420
Ni       2.75029008      -0.10148051       5.60215103       0.01052294       0.01499447      -0.00702381      -5.99086783
Al       4.10669357       1.30758679       7.25950076      -0.00010747       0.01223215      -0.00444095      -3.91795609
Al       4.43448200       1.52211250       9.92190876       0.00267385      -0.00692564      -0.00221207      -4.06026085
Al       4.36788734       1.54200762      12.82766135       0.01159653       0.00774732      -0.00727718      -4.50132315
Al       3.87425238       4.13416600       1.68937340       0.00328107      -0.00433265      -0.00937704      -3.96099891
Al       4.03094031       4.33542320       4.62973625      -0.00622371      -0.00147416       0.00192904      -4.26822522
Al       4.18081551       4.23192350       7.38960233       0.00141075       0.00004542      -0.00019853      -4.10250162
Al       4.34191325       4.47760779      10.03700327       0.00724568       0.00707377      -0.01272368      -4.32726213
Ni       3.01535002       2.94941829      11.22493911      -0.00256273      -0.00444311       0.00505316      -6.04129213
Al       4.21415264       4.37340355      12.89924713      -0.00146733      -0.00469194      -0.00461896      -4.09768543
Al       3.88070554       6.93713049       1.63288697      -0.00070260       0.00036603      -0.00156347      -4.26180335
Al       4.01885861       7.04864595       4.54415388       0.00641410      -0.00116641       0.00373856      -4.48046664
Al       4.11865260       7.14600982       7.36903454      -0.00401757      -0.00519240      -0.00214503      -4.36112116
Al       4.49370174       7.39818808      10.15082405      -0.00616389      -0.00079124       0.00259049      -4.29096344
Al       4.39687492       7.07629187      12.87945570       0.00127939      -0.00270399       0.00208434      -3.90855605
Al       3.78375542       9.73942503       1.49430427       0.00534078      -0.00260086      -0.00311545      -4.17286472
Ni       2.60546148       8.45709132       3.19589149      -0.00720508      -0.00587534       0.00029792      -5.90101099
Al       4.06484368       9.95927744       4.45065301       0.00009999       0.00471872       0.00278819      -4.40585415
Al       4.20395417       9.83820574       7.24205193       0.00591017       0.00573534       0.00406385      -4.13671612
Ni       2.84555154       8.53557376       8.90254966      -0.00409651       0.00744343       0.00848611      -5.77551483
Al       4.20577053      10.23755972       9.91432883      -0.00526232      -0.01422140      -0.01136474      -4.14097839
Al       4.28786710       9.86419002      12.71868189       0.00120545       0.00231614       0.01385339      -3.95385933
Al       3.97415128      12.38063893       1.56917965       0.00313206       0.00709911       0.00758008      -3.90190170
Al       4.29900533      12.68854901       4.21999878       0.00783147      -0.00369244       0.00329095      -3.89528388
Ni       2.85624484      11.37420735       5.97760262       0.01094777      -0.01071244      -0.00036337      -5.89990023
Al       4.53930547      12.65939649       7.00254165       0.00635323       0.00299379       0.00473787      -3.98899749
Al       4.64446112      12.88663931       9.68630209       0.00314100       0.00145522       0.00121740      -3.96570945
Al       4.29685622      12.66593691      12.70001943      -0.00086928      -0.00756991       0.00616025      -4.34336814
Ni       5.36682803      -0.04865278       0.22986894       0.00662032      -0.00586137       0.00134817      -6.12616377
Al       6.81474891       1.44633988       1.69970029      -0.00048227      -0.00959654      -0.00690735      -4.29269403
Al       6.90362937       1.40070127       4.43457184       0.01075615       0.00181541      -0.00558466      -4.34774538
Al       6.88562598       1.42779580       7.33047406       0.00165831      -0.00124498      -0.00270581      -4.12518917
Al       7.13232811       1.46504202      10.01619149      -0.00296406      -0.00477178       0.00477574      -4.44564766
Ni       5.82949506       0.00202819      11.39462669       0.00318880       0.00174796      -0.00967829      -6.15827248
Al       7.10182368       1.55005417      12.91242999      -0.00360850       0.00628779      -0.00292107      -4.57376828
Al       6.82827469       4.19659823       1.59106639      -0.00204246       0.00268270       0.00344281      -4.07364979
Ni       5.38646100       2.89203164       3.10608231       0.00417338       0.00474264      -0.00507194      -5.99575094
Al       6.92226959       4.23197903       4.43594457       0.00299684       0.01051104       0.00078177      -4.69518418
Ni       5.54203249       2.83753740       5.87731934       0.00126312       0.00533766      -0.00025483      -6.04499257
Al       7.02097797       4.30889086       7.31637987      -0.00081383      -0.00291526       0.00156050      -4.56836390
Al       7.13410271       4.28528666       9.93500912      -0.01431741       0.00959485      -0.00944014      -4.55406367
Ni       5.65570331       2.97595515      11.46751564      -0.00104014      -0.00916634       0.00393650      -6.23283388
Al       7.11777207       4.29651251      12.91439131      -0.00620677      -0.00923544       0.00166566      -4.24955215
Al       6.83683887       7.02999897       1.64628857       0.00194521      -0.00481737       0.00802677      -4.50230158
Ni       5.40213481       5.56875018       3.02272515       0.01392482      -0.00529148      -0.00093865      -6.14219753
Al       6.90076342       7.06695387       4.35762436       0.00039793      -0.00541449      -0.00013967      -4.61724488
Ni       5.54595321       5.76463241       6.00609349       0.00002544       0.00243722      -0.00636530      -6.22635701
Al       7.12059786       7.23858649       7.23080586       0.00043491      -0.00465891      -0.00056577      -4.28776267
Ni       5.68868412       5.83092105       8.66549568      -0.00329747      -0.00674586       0.00901346      -6.06484727
Al       7.30522073       7.16289472       9.95788960      -0.00658849       0.00011488      -0.00126404      -4.13707273
Ni       5.82105612       5.75283182      11.37771063      -0.01121106      -0.00171418      -0.00349904      -6.05130916
Al       7.17984830       7.09037279      12.82158343      -0.00602292       0.00334829       0.00029866      -4.46754841
Ni       5.45216189       8.46913884       0.28593175      -0.00500019       0.00473005      -0.00129523      -6.01752617
Al       6.81972408       9.93374931       1.65555827       0.00530954      -0.00167925       0.00857087      -4.31069991
Ni       5.28999008       8.44001222       2.98686469      -0.00343312      -0.00076543       0.00253692      -6.17997958
Al       6.89455129       9.85949075       4.32553689      -0.00722128       0.00262843       0.00156914      -4.23469157
Ni       5.59332743       8.50918612       5.79712125      -0.00066189      -0.00601692      -0.00095438      -5.97292860
Al       7.03973181      10.05646370       7.09027004       0.00779662      -0.00402077       0.00580126      -3.71363340
Al       7.09175539       9.87234495       9.85399656      -0.00318722      -0.00098406       0.00067773      -3.68403517
Al       7.08502239       9.92272930      12.71465307      -0.00460719       0.00496789      -0.00306292      -4.23680277
Al       6.75758166      12.60535324       1.78235792       0.00586893       0.00307505       0.00104643      -4.35123159
Al       6.98193343      12.61881176       4.73973921      -0.00162424       0.00054261      -0.00093783      -3.96606169
Al       7.16229977      12.76161678       7.46691150       0.00087145      -0.00866672      -0.00392147      -3.40026323
Al       7.38617747      12.61135434      10.12380015      -0.00533600      -0.00410368      -0.00621543      -4.09668979
Ni       5.74560892      11.35272259      11.32954465      -0.00339617       0.00107472       0.00249751      -5.88739142
Al       7.16613365      12.59792275      12.96468339      -0.00138901      -0.00351990      -0.00244398      -4.42574823
Ni       8.23645076       0.02554876       0.29177824      -0.00060478       0.00859258       0.00253114      -6.26785902
Al       9.72759311       1.44066114       1.72896850      -0.00313706       0.00855423       0.00069676      -4.07183207
Ni       8.22672374      -0.08390200       3.03728907       0.00764603       0.00952237      -0.00048159      -6.01830809
Al       9.64079344       1.30809492       4.42795146      -0.00115931       0.00095851      -0.00664171      -4.34692315
Al       9.74968234       1.28413448       7.23413479      -0.00793875       0.00134393       0.00370989      -4.62539479
Al       9.96852848       1.38095446      10.02017515      -0.00257654      -0.00248370       0.00160229      -4.48014257
Ni       8.52163841       0.11971460      11.52760837       0.00114546       0.00386804       0.00114037      -6.08403158
Al       9.95639426       1.59115254      12.88442273      -0.00814022       0.00024821      -0.00629143      -4.35031489
Al       9.55011880       4.10184257       1.48753009       0.00660045       0.00515270      -0.00513349      -3.85697446
Al       9.70867891       4.15034082       4.32077485       0.00880656      -0.00702377       0.00925835      -4.52262897
Ni       8.32612589       2.81777474       5.91350138      -0.00202895      -0.00013707       0.00999123      -6.17491113
Al       9.82030679       4.32530367       7.14953835      -0.00512592       0.00223921      -0.00069672      -4.59980432
Ni       8.52332985       2.80805684       8.60841947       0.00384415      -0.00698039      -0.00681421      -6.13493203
Al       9.96328499       4.28112893       9.98559829       0.01075227       0.00253989      -0.00031973      -4.52179932
Ni       8.53172402       2.91324252      11.40362539      -0.00131970      -0.00110354       0.00996552      -6.17881496
Al      10.00466891       4.33542396      12.82280656       0.00373746      -0.00813811      -0.00436049      -3.88226237
Al       9.60670964       7.07976329       1.47774356       0.00163804      -0.00435930       0.00083722      -4.23800779
Ni       8.35524822       5.62956644       2.98177912      -0.00330085       0.00284240      -0.00176020      -6.11357087
Al       9.76729840       7.04488368       4.37915896      -0.00081601       0.00140302      -0.00270911      -4.33503254
Ni       8.32790712       5.67501035       5.74459787       0.00449060       0.00633144      -0.00236282      -6.04091909
Al       9.86988720       7.03546932       7.17351866       0.00258480       0.00075804       0.00188864      -4.16836443
Al      10.03234217       6.98065023       9.99199489      -0.00492055       0.00652775      -0.00834674      -4.14972809
Ni       8.53772973       5.64077062      11.43754107      -0.00384578      -0.00329623       0.00414798      -6.01670596
Al       9.99647846       7.11772964      12.75110593      -0.00260365      -0.00073190       0.00571954      -4.11623603
Ni       8.17036566       8.49726666       0.16832100       0.00207533      -0.00099625       0.00288222      -5.89464566
Al       9.60013026       9.83391317       1.58433343      -0.00148175       0.00008475       0.00095382      -4.23137256
Al       9.70438145       9.80691126       4.47552453      -0.00425539       0.00159070       0.00645304      -4.25293816
Al       9.85706579       9.80702819       7.24444776       0.00469048      -0.00211149       0.00113415      -3.90672906
Al       9.86405319       9.77308743       9.95434010      -0.00257765      -0.00293155      -0.00218607      -4.15663448
Al       9.92565055       9.84638797      12.77809965       0.00376663       0.00291648      -0.00726873      -4.25534508
Al       9.74305154      12.62459346       1.64813187       0.00410288      -0.00730953       0.00720385      -4.49883258
Ni       8.35546130      11.31119787       3.13021070      -0.00266819      -0.00438378      -0.00121542      -6.00885147
Al       9.86480390      12.62672649       4.49282451       0.00342491       0.00197472      -0.00649659      -4.32647091
Al       9.82013245      12.52911607       7.20817886       0.00483295       0.00089646      -0.00497080      -4.08873215
Al      10.03114833      12.66715756      10.17286489       0.00241093       0.00471558       0.00624655      -4.32922781
Al       9.94509151      12.58914287      12.86206549       0.00604798      -0.00275553       0.00202445      -4.27319112
Ni      11.01901366       0.05799469       0.20510572       0.00631941      -0.00318105       0.00495901      -5.89589622
Al      12.67728620       1.13268169       1.61235771      -0.00535531       0.00241727      -0.00004558      -4.10856825
Al      12.56940314       1.57222350       4.34070716       0.00441854      -0.00027738      -0.00506763      -4.35468593
Ni      11.28488575       0.01678418       5.75866677      -0.00632054      -0.00484324      -0.00366232      -6.07198964
Al      12.67169887       1.36953777       7.18354011       0.00629216       0.00357036       0.00873114      -4.55314158
Ni      11.28183097      -0.13590901       8.49498257      -0.00018516       0.00200733      -0.00165715      -6.11594909
Al      12.71263786       1.35117491       9.93083696       0.00516882      -0.00448090       0.00198686      -4.46988321
Al      12.73923986       1.44054275      12.75131431       0.00533915       0.00257805       0.00324012      -4.16493935
Al      12.28709540       4.01777659       1.40420395      -0.00144803      -0.00545588       0.00377774      -4.07243774
Al      12.37253976       4.29323554       4.33698869       0.00080968       0.00123885      -0.00099534      -4.35255829
Ni      11.06361442       2.74515091       5.74809797      -0.00353289      -0.00359082      -0.00324887      -6.06142789
Al      12.66890718       4.15618864       6.98794787      -0.00575384       0.00185760       0.00943906      -4.25885594
Ni      11.30551736       2.87818029       8.53621600      -0.00478811      -0.00340952       0.00022835      -6.23996886
Al      12.80231623       4.38292121       9.97689680       0.00060570      -0.00158403       0.00273016      -4.41915222
Al      12.67386240       4.14930597      12.71847375      -0.00211819       0.00247836      -0.00358495      -3.63669934
Al      12.36470602       6.78379803       1.00112015      -0.00438742      -0.00552806       0.00324733      -4.05909924
Ni      11.00626701       5.62873988       2.74599938      -0.00136545       0.00304980       0.00267066      -6.07115795
Al      12.37658966       7.31937189       3.87959012       0.00185500       0.00951905       0.00503965      -4.32095145
Al      12.67021067       6.82160024       6.72744417      -0.01139401      -0.00328135       0.00053083      -4.04970295
Ni      11.37707807       5.60519074       8.48825306      -0.00280183       0.00072633       0.00446325      -5.88708889
Al      12.77626907       7.23198700       9.53932538      -0.00329031       0.00172658      -0.00050565      -4.04005733
Al      12.94209357       6.82050242      12.26161721      -0.00437279       0.00479196      -0.00052561      -3.86980227
Al      12.53025071       9.53298551       1.65364058       0.00213956       0.00167157       0.00269500      -3.83647298
Al      12.62299820      10.03124849       4.48588923       0.00659161       0.00046642      -0.00251406      -4.04025974
Ni      11.23768858       8.45529053       5.71280155       0.00179498      -0.00184269       0.00661584      -5.77781034
Al      12.71908921       9.63166349       7.27452490       0.00029423      -0.00148964      -0.00769745      -4.06327224
Al      12.97386120       9.87849166       9.98657189       0.00546957       0.00016837       0.00031265      -4.30646130
Ni      11.43632986       8.46065288      11.30922134      -0.00233224       0.00889104       0.00603571      -5.90865789
Al      12.79376231       9.64893590      12.90184349      -0.00390719      -0.00006367      -0.00126490      -4.21088860
Al      12.47941982      12.35487472       1.38035195      -0.00573425       0.00263976      -0.00345151      -3.98850222
Ni      11.10563525      11.13033926       2.95511211       0.00357495       0.00315319      -0.00172987      -5.90779965
Al      12.56242707      12.80055104       4.08604751       0.00001993      -0.00820729      -0.00018454      -4.29970309
Al      12.68355586      12.39390027       7.00849453       0.00631270      -0.00487647       0.00117668      -4.38901181
Ni      11.33233242      11.24371325       8.65887729      -0.00318479       0.00163422      -0.00153863      -6.00975716
Al      12.93744683      12.61043847       9.88175607      -0.00099399       0.00276252      -0.00261207      -4.54136594
Ni      11.42427483      11.06349494      11.37236398      -0.00213329      -0.00719895       0.00214466      -6.05266593
Al      12.55019824      12.73492582      12.70179702       0.00257379       0.00486169       0.00306847      -4.32798702
