128
Lattice="12.580889220052502 0.6635202022746242 0.0684940661349251 0.6413214432188986 12.636657590949085 0.2356102827298505 0.057270997429714615 0.22419336011099256 12.178243811660804" Properties=species:S:1:pos:R:3:forces:R:3:energies:R:1 energy=-586.3763476404083 stress="-0.0006255733085229577 0.0005481895851406999 0.0010875473111717875 0.0005481895851406999 -0.00011929337859352224 0.00013248876629562705 0.0010875473111717875 0.00013248876629562705 0.0010932267017776203" free_energy=-586.3763476404083 pbc="T T T"
Al       0.72515140       0.39636068      -0.47328357       0.00455235      -0.00921814       0.02848309      -4.09225754
Al       2.45229795       2.23168482       2.10015454      -0.00334448      -0.00285956      -0.00398127      -4.23167010
Al       0.67961136       0.08289990       2.38057430       0.00745128      -0.01320634       0.00303258      -3.99394472
Al       1.39392993       1.67788368       4.56633549      -0.00340300      -0.00476356       0.01614986      -3.68169788
Al       0.19788397       1.23323936       6.95827114      -0.00322794       0.00527154       0.00493103      -4.07871664
Al       1.88030362       1.40499475       9.26409319      -0.02581349      -0.00861907       0.00392070      -4.13592371
Ni      -0.35731138       0.50083268       9.27525987       0.00828332       0.02512569      -0.00362540      -5.97283746
Al       2.22607606       3.05511972      11.32197722       0.00599879      -0.01167993       0.02091497      -3.94738755
Al      -0.29448960       3.23137273       0.01645120      -0.00421104       0.00022196      -0.00555329      -3.73845049
Al       2.27551920       4.85221220       1.18848597      -0.00394035       0.00641209      -0.00090809      -4.40631185
Al      -0.02203110       3.45273058       2.67641794      -0.00571207      -0.00130880      -0.00310653      -3.62612588
Al       2.16420270       4.32490080       4.23390720       0.00041323       0.00747740       0.00061875      -3.93948063
Ni      -0.86455009       3.40044100       6.83363986       0.00859890      -0.00083557       0.00735328      -5.76388218
Al       0.02908788       6.83876780       8.60447443       0.00999779      -0.00674347      -0.00594746      -4.17604821
Al       0.08749272       3.53276704       9.30033531       0.00006840       0.00796655       0.00297368      -4.20856952
Al       1.58778802       5.75540317      10.46183096       0.01239260       0.00787851       0.00370653      -4.44962367
Ni       0.78157030       6.76112234       0.53947145      -0.00952707       0.00417618      -0.01238211      -5.96328585
Al       2.60833584       8.01213975       1.49946380      -0.00999986       0.00023659      -0.00909595      -4.18835606
Al       0.62691633       6.23372078       2.98843249      -0.00629076       0.00431335       0.00269655      -3.81835781
Al       2.14886356       8.42627767       4.18323831       0.00345881       0.00777399       0.00057372      -4.20780255
Al       0.63694261       7.03800240       6.03154523      -0.00661199       0.00589442       0.00335022      -4.00071569
Al       2.73999477       8.73710799       7.52670920       0.01119287      -0.00067322      -0.00288942      -4.14664772
Ni      -0.85623563       5.69636612      10.60663765      -0.00230673       0.00261064       0.00267454      -6.02526656
Al       1.83225642       8.71765947      11.04844369      -0.00370659       0.00810854      -0.00839383      -4.39335806
Al       0.48853540      10.55753542       0.65526521       0.00216546       0.00627492       0.00557243      -3.97138203
Al       2.72230045      10.52445655       2.31872295       0.00114504       0.00805888      -0.00585770      -4.21757036
Ni       0.73523427      10.42029730       3.79809677       0.00694421      -0.00807171       0.02480108      -6.06842587
Al       2.89751061      10.78756891       5.17218483       0.00517812      -0.01748837       0.00585107      -3.95490242
Al       0.62720636      10.04478964       6.31768575      -0.00445818      -0.00843029      -0.00627635      -4.02417577
Al       2.03620417      11.48578090       8.38868896       0.01138278       0.00955974      -0.01162030      -4.36919829
Ni       1.23657979      11.00612907      10.56199505       0.01869905       0.00702327      -0.00082227      -5.74837944
Al       3.38845848      11.41289356      11.44609253      -0.00896275      -0.01013832       0.00126106      -4.24612501
Ni       2.83749171      -0.01154594       1.03261097      -0.00816431      -0.00618603       0.00474487      -6.10543940
Al       5.10897825       0.79299706       1.46561787       0.00589432      -0.00158767       0.00707842      -4.18592754
Al       3.45009158      -0.02055834       3.47002070       0.00167828      -0.00022626      -0.01225041      -3.93355117
Al       4.39159842       2.14203594       4.68110207      -0.00198804      -0.01209501      -0.01864905      -4.05194996
Al       2.86096125       0.27877047       6.36256192      -0.00341886      -0.00556464      -0.00943331      -3.72978712
Al       3.80624542       2.29002552       7.74670203       0.00644492       0.01842620      -0.00541569      -4.11256509
Ni       3.65365627      -0.16020831       8.72172384      -0.01229597      -0.00808637      -0.01182518      -6.04682849
Al       4.09533693       1.06096738      11.03189896       0.01187668       0.01031352       0.00934751      -4.07354378
Ni       4.11951193       2.89194940       0.52567161       0.00662983      -0.00152478      -0.01570025      -6.01780946
Al       5.01612886       5.14335559       0.85421918      -0.01097669      -0.00782542      -0.00431900      -4.58872467
Ni       4.04645013       4.01343362       2.82018811      -0.00612647       0.00914761      -0.00343999      -5.95494741
Al       5.18110377       4.67409344       4.87253211      -0.00780463       0.00206105       0.00239516      -4.28561028
Al       1.40011405       4.27552330       6.85831614       0.00653952       0.00774120      -0.00149355      -4.20417454
Al       4.25958712       4.93098905       7.67892208      -0.01979845      -0.00950469       0.00629258      -4.33878665
Ni       2.45200321       3.88514762       9.02010913       0.00452198       0.01049023       0.01043033      -5.86277723
Al       4.25492848       4.76542492      10.59536236       0.00581327      -0.00279980      -0.00375971      -4.49188126
Ni       3.14266665       6.61127474      -0.33742523      -0.01250845      -0.00175460      -0.00725537      -6.01997063
Al       5.99834019       7.59128354       1.42887607       0.00417381       0.00142093       0.02139397      -4.43248680
Al       3.92030352       6.41197576       3.19644321      -0.00114372      -0.00865777      -0.00466640      -4.23655176
Al       6.08884139       7.64029129       4.36860290       0.00793707       0.02187144       0.01430595      -4.53089220
Al       3.37665231       6.64570255       5.83182480      -0.00201279       0.00491230       0.01442993      -4.03212411
Al       5.75790686       7.71038130       7.25675909       0.00623635      -0.01623388       0.01225835      -4.40242516
Ni       2.24429876       6.28177092       7.92829299      -0.00820354      -0.00491638       0.00582052      -5.88264197
Al       3.94630956       7.36772156       9.49613027       0.01365327       0.00171583      -0.01522390      -4.47873576
Al       4.61830796       8.76597283      -0.61134317      -0.00456672       0.01075961       0.00161529      -4.31603571
Al       5.22711719      10.69453199       1.48145063      -0.00448862      -0.00558556      -0.00947585      -4.36564553
Ni       4.41528694       8.87036959       3.02522524       0.00413247       0.00283072       0.00723900      -6.08435286
Al       5.82949182      10.52290227       4.39129429       0.00583483      -0.02834641      -0.00527081      -4.46891414
Ni       4.34068900       8.90423824       5.62861686       0.01156723       0.00059832      -0.00420870      -5.99403776
Al       4.88468605      10.52754951       7.43540796      -0.00680413      -0.00724209       0.01122348      -4.43587216
Ni       3.58466252       9.96717090       9.54095824      -0.00910600       0.01127263       0.02052785      -5.94009672
Al       5.84526764      10.90039729      10.07227088      -0.00610411       0.01183127      -0.00206676      -4.17630964
Al       6.62787282      -0.19691297      -0.88060724       0.00619867       0.00497087      -0.00223359      -3.83323488
Al       7.77754163       1.09487330       2.27428233       0.00814325       0.01589250       0.00152252      -4.05042341
Ni       5.88336394       0.29109992       3.76352773       0.00587044      -0.00882715      -0.01358518      -5.86218129
Al       7.21410926       1.98968387       4.86356864      -0.00354074      -0.00100434       0.00822797      -4.09339102
Al       6.41201833      -0.48920570       6.14692321      -0.00485958      -0.00663901      -0.00394342      -3.97448507
Al       7.85925397       2.33392167       7.43195474      -0.01131096       0.00595308      -0.01429498      -3.98626385
Al       5.84298010       0.80354592       8.64800848      -0.00220108      -0.00178116      -0.04140570      -3.88400293
Al       8.32178549       2.19798495      10.18171237       0.00646011       0.00581781      -0.00476442      -3.94213560
Al       6.20016240       2.48823053      -0.45563134      -0.01192167       0.00055220       0.00307777      -3.89056476
Al       8.40227074       5.66632776       1.52318490      -0.00830200      -0.00857571       0.00354690      -4.03041333
Al       6.21607110       3.20078498       2.31303497       0.00593100      -0.01000320      -0.00054921      -4.18112911
Al       8.21738424       5.83805390       4.27537585       0.02139598       0.00946586       0.00914744      -3.98434482
Ni       5.69196564       3.04987671       6.56511707      -0.00304600      -0.01515188       0.00136692      -5.85358830
Al       6.92419404       5.09579299       6.89611725       0.00516011      -0.00166354       0.00227466      -4.34197301
Al       6.16098577       3.52928562       9.08038563       0.00883024       0.00048259       0.00466962      -4.13179923
Al       7.48206367       5.39222486      10.94139987       0.01242084      -0.00054092       0.00405727      -4.33834579
Ni       5.52669346       6.59874839      -0.87964442       0.00595990      -0.00007190      -0.01327776      -5.60361698
Al       8.90416945       8.58510407       1.08645804       0.00696806      -0.00660681       0.00023288      -4.47116115
Ni       6.25098965       5.57809348       2.86601187       0.00253229      -0.00909182      -0.00059422      -5.87855140
Al       8.39878626       8.99281956       4.58130973      -0.04881157      -0.04060146       0.04883272      -4.42279893
Ni       7.84770213       7.23770553       6.09593375       0.01588033       0.00948814      -0.02220913      -5.79636998
Al       8.20763740       6.82470356       8.47224337      -0.00660778       0.00744532       0.00556940      -4.12708118
Ni       6.00837289       5.96169584       9.03860512       0.00097446       0.00800578       0.00572160      -6.01376693
Al       7.51145594       8.16588142      10.90161743      -0.00398004      -0.00446614      -0.00405662      -4.22625674
Ni       6.89395100       9.94436430      -0.03819077       0.00335236      -0.00616058       0.00432445      -6.02573334
Al       8.24551180      11.17918930       1.62541474       0.00389147      -0.01076707      -0.00875429      -4.32437472
Ni       7.02203058       9.38017526       2.56128036      -0.01667623       0.00338802       0.00618871      -5.81798830
Al       8.84873116      11.76373045       4.29423089       0.00965199      -0.00499432      -0.00323490      -4.13567366
Ni       6.95997493       9.68357340       6.44004682      -0.00407070       0.00604427      -0.00652516      -5.82870354
Al       9.44868681      10.51226306       6.70836563      -0.00650885       0.00478699       0.01442745      -4.21406164
Al       7.85320609       9.72897671       8.66006276      -0.00569964       0.00289488      -0.00799903      -3.95887581
Al       9.12999613      10.57112991      11.08627218      -0.00284452       0.00178015      -0.00363615      -4.35815149
Al       9.16803549       0.31271534       0.10672824       0.01116987      -0.00205726      -0.00097238      -3.84299486
Al      10.90153975       2.02370734       1.78723444      -0.00216844      -0.00274076      -0.00073615      -3.84746005
Ni       9.72856563       1.22505725       3.81274917      -0.00433317       0.00753634      -0.00057571      -5.97650594
Al      11.19212318       2.90013963       4.82665030      -0.00192826       0.00847051       0.00200981      -4.01649038
Al       9.28188033       0.63069320       6.05785828       0.00822670      -0.01718313       0.00278446      -3.82388405
Al      10.43196210       2.62413770       8.36654652       0.01120319      -0.00608256       0.01014848      -4.32907445
Al       8.30331884      -0.11735250       8.67158871      -0.00453760      -0.00476531       0.01135891      -3.93614351
Al      10.89235168       2.20317721      11.10815962       0.01188270      -0.00384852       0.00355061      -3.80507940
Al       8.63101171       3.05443028       0.54724863      -0.00176037      -0.01237751      -0.00057755      -3.66143686
Al      11.27502068       6.15470560       1.06151925      -0.00816361       0.00728408      -0.00589964      -4.10425105
Al       8.96836999       3.48319654       3.25388080      -0.00470697      -0.00079107      -0.00341352      -3.87499801
Al      11.91075156       5.55821557       5.00871271       0.00887298       0.01332743      -0.00144084      -3.88410583
Al       9.45705590       4.55746294       6.30102657       0.00158087       0.02410438       0.01037201      -3.99529129
Al      10.65451945       5.62414346       8.46155716       0.01129831       0.01059272       0.00798424      -4.12339301
Ni       8.51870247       4.29948716       8.81402058      -0.00067176       0.01698086       0.00812523      -6.30820989
Al       9.99944556       4.73062812      10.86744923      -0.00297431      -0.00592439       0.00825647      -4.12674809
Ni       9.44050380       6.74777450      -0.39302219       0.00236682      -0.00397829      -0.01018000      -5.88189291
Al      12.20858725       9.23031790       2.20490264       0.01043232       0.01325082      -0.00704067      -4.23604397
Al      10.44426892       7.33995742       3.41855310       0.00047461       0.00269749      -0.01236718      -3.74371710
Al      11.40672914       9.64127546       4.77541707       0.01853685       0.00439291       0.01141884      -4.29687563
Al      10.24253919       7.39864273       6.29589519      -0.00431259      -0.00263911       0.00086414      -4.05089909
Al      12.66080807      10.11304595       9.15642250       0.00512365       0.00432273       0.00628920      -4.23859189
Al      10.16911359       8.21767448       9.52294280       0.00059463      -0.00000459      -0.00601999      -4.24329744
Al      11.45404814       8.73013310      11.80630804      -0.00141791      -0.00059613       0.00919681      -4.21471907
Ni      10.67026964      10.64898396       0.73137265      -0.00761442      -0.00666781       0.00261746      -6.06025065
Al      11.18413859      11.89445353       2.80265164      -0.01066312       0.00139412      -0.00216436      -4.43090323
Ni       9.82352708       9.79688718       2.96820395       0.01467742       0.01649242      -0.06079430      -5.92123406
Al      12.48494892      12.96161622       5.07985570      -0.01762671      -0.00503647       0.00177562      -4.03793468
Ni      11.50491785       9.20622320       7.19941726       0.00578827       0.00261300      -0.00710181      -5.93323660
Al      11.69814481      12.37799668       7.97319404      -0.00763085      -0.00005152      -0.00788349      -4.09128815
Ni      10.25306054      10.59429358       8.97261252      -0.00518620      -0.00994469      -0.01265118      -5.88150659
Al      11.43214225      12.00784749      10.71292484      -0.01960207      -0.01639558      -0.00211244      -4.30817323
