128
Lattice="11.710214268266697 -0.14775406940248706 0.5352910036665989 -0.15086662182634084 12.527422925867151 -0.2011803719645594 0.533541673091215 -0.20127001591385157 12.823241047509311" Properties=species:S:1:pos:R:3:forces:R:3:energies:R:1 energy=-602.190596126451 stress="0.00010713701420617793 0.00021589874060694267 0.00023417342218883352 0.00021589874060694267 -9.673142029047241e-05 0.00027047239290756505 0.00023417342218883352 0.00027047239290756505 7.105135415310546e-05" free_energy=-602.190596126451 pbc="T T T"
Al      -0.79939593       0.62981678       0.55976053       0.00511361       0.00418028      -0.00092279      -4.16185623
Al       1.72282337       1.36377895       1.51364196       0.00424396      -0.00271755      -0.00094645      -4.04160856
Al      -0.65260923      -0.26308203       3.14219665       0.00246996       0.00653892      -0.00016233      -3.87407567
Al       1.27200410       1.16650108       4.56377516      -0.00265510       0.00401506       0.00227397      -3.76967919
Ni       0.13048357      -0.40906447       6.43363083      -0.00336294      -0.00265559       0.00163900      -5.93382197
Al       1.33654753       1.42595600       7.25994533       0.00081498       0.00728278       0.01026724      -4.27805399
Ni      -0.48112275       0.28263265      10.88779146      -0.00070140      -0.00443418       0.00209625      -5.78914053
Al       1.38735498       1.67755896      11.69892292      -0.00066529       0.00074885      -0.00209136      -4.40606564
Ni      -0.69835617       3.09796376       0.40830532      -0.00696664      -0.00232093       0.00226331      -6.01217055
Al       1.38491901       4.11732842       0.81822580      -0.00053819      -0.00049206       0.00238315      -4.23438272
Al      -0.24663926       2.70181752       2.80268419      -0.00278836      -0.00131953      -0.00340024      -3.91018409
Al       0.98650376       5.73293032       3.27056919      -0.00297588      -0.00266237       0.00121231      -4.29710092
Al       0.36357437       3.68161190       5.25504890      -0.00374372      -0.00136066       0.00551354      -3.89365796
Al       1.70103508       4.20498933       8.34775252      -0.00132469      -0.00133320      -0.00266007      -4.29607670
Ni       0.89775978       2.14773330       9.41454065       0.00171113       0.00027312      -0.00915857      -5.84684982
Al       3.13445031       3.19265637      10.28408965       0.00481354      -0.00883664       0.00118600      -4.29523277
Ni       0.60192649       6.33268927       0.80910860       0.00069929      -0.00411487       0.00275007      -5.84948146
Al       1.29557444       8.51541328       1.19447271       0.00133310      -0.00164919       0.00103503      -4.25168134
Ni      -0.76990567       7.23427721       2.79745503       0.00171736      -0.00051828       0.00329384      -5.84688549
Al       2.51698541       8.11408996       4.05790096      -0.00558200       0.00535362       0.00343956      -4.08082011
Al      -0.35894954       5.60792269       6.90654004       0.00334023      -0.00472923      -0.00214198      -4.09705846
Al       1.83819549       6.87127295       8.42106627       0.00476591      -0.00149920      -0.00506731      -3.96553795
Ni      -0.15348343       5.82353295       9.39996523      -0.00041964       0.00215017      -0.00169834      -5.98520502
Al       1.64720976       6.84822801      11.26626571       0.00003136       0.00049970       0.00334225      -4.22811706
Ni       0.16450193       9.39450178      -0.86736279      -0.00250626       0.00183810      -0.00075215      -6.21634654
Al       1.14942994      11.22419990       0.91701576       0.00253650       0.00200503       0.00120353      -4.08913069
Al      -0.00740320       9.56036555       3.21028905      -0.00463915      -0.00037888       0.00012289      -3.92932520
Al       1.66312836      10.91486784       4.91182082      -0.00319765      -0.00119385      -0.00065607      -4.11905397
Al       1.06115136       8.51807722       6.49101168       0.00646580      -0.00229835       0.00747033      -3.65092445
Al       1.62269138      11.01594510       7.69102270       0.00132730       0.00267182      -0.00137706      -3.83892529
Al       0.79863941       9.03651738       9.45463141      -0.00488208      -0.00361253       0.00162719      -3.79200007
Al       1.29566491      11.37741407      10.91528865      -0.00540191      -0.00298084      -0.00065752      -4.23567073
Ni       2.75359310       0.08838206      -0.55634606       0.00013580       0.00428382       0.00189238      -6.21733347
Al       4.42226144       1.47660869       1.28444270      -0.00585017      -0.00174036       0.00595069      -4.14062815
Al       3.31319279      -0.06147187       3.39634263      -0.00193327      -0.00193006      -0.00413819      -3.67090574
Al       5.66427141       0.40476700       4.70551651       0.00257972      -0.00418464      -0.00370659      -3.95709006
Al       3.79617415       0.22116231       6.61571143       0.00353694      -0.00007827      -0.00548473      -3.86583356
Al       5.52515745       1.29846278       8.80895360       0.00099697      -0.00001200      -0.00181521      -3.99171835
Al       3.04903810       0.37976776       9.61959542       0.00034312       0.00483257      -0.00695653      -4.14348672
Al       5.14103638       1.34185117      11.40369207      -0.00114026       0.00462144       0.00677089      -4.28788004
Ni       2.87644493       2.67578284      -0.24378449       0.01210687       0.00405707      -0.00594199      -5.71094873
Al       4.99747773       3.88535683       2.49276935       0.00292176       0.00749650       0.00286732      -3.97742612
Al       2.45983513       3.44153395       3.36451020       0.00091934       0.00119362       0.00392223      -3.84702379
Al       5.04443059       4.66895397       5.16684967       0.00563950       0.00144416       0.00006539      -4.16109147
Al       2.94355474       3.14764228       5.95537523       0.00426964       0.00365829      -0.00266419      -3.85985759
Al       4.71322917       4.35476215       8.12249136      -0.00213379       0.00424528       0.00202825      -4.49290073
Ni       3.42490336       2.24075950       8.06567551      -0.00233407      -0.00242462       0.00603452      -6.05361560
Al       4.27300858       4.90982497      11.97295571       0.00306294      -0.00280565      -0.00087670      -4.42087626
Al       2.97985793       6.27915900       1.48657052      -0.00072353      -0.00000594       0.00526361      -4.16875390
Al       4.15587041       8.79519705       1.60977914      -0.00536329       0.00372867      -0.00012900      -4.27270385
Ni       3.43856097       5.79065227       3.82625973      -0.00286076       0.00621841      -0.00485397      -6.01729717
Al       4.91551295       7.40562621       5.23675714      -0.00012980       0.00089029      -0.00022587      -4.23283065
Al       2.20866624       5.87395686       5.88117290      -0.00172684      -0.00057844       0.00124698      -3.91225035
Al       4.49612646       7.17084064       8.16945870      -0.00018230      -0.00337087       0.00170672      -4.40460871
Ni       3.38520502       5.61969510       9.78203899       0.00598478       0.00402979      -0.00236718      -5.83389451
Al       4.58246323       7.42960235      10.92843071      -0.00275613      -0.00150790       0.00562967      -4.47681365
Al       2.58306286       9.80475808      -0.97632940      -0.00013906       0.00106552      -0.00145962      -4.06569801
Al       4.06085087      11.31659879       0.79803496       0.00186336       0.00104995      -0.00400960      -4.15499502
Ni       2.44577525      10.12458868       2.71267769       0.00308801      -0.00094104       0.00087247      -6.00876409
Al       4.64750275      10.16276927       3.88971278       0.00217969      -0.00122500      -0.00626100      -4.22667050
Al       3.57647941       9.52085280       6.36403986      -0.00366410      -0.00019654      -0.00053440      -3.77884213
Al       5.11944851      11.07512290       7.95558262      -0.00284920      -0.00051252      -0.00232765      -4.16003784
Al       3.34723179       9.44528527       9.09730649      -0.00294942      -0.00196750      -0.00441895      -3.83401349
Al       4.99762640      11.27094222      10.79298112       0.00037057      -0.00499692      -0.00269150      -4.36255719
Ni       6.16230290       0.09736948      -0.08282039       0.00260352      -0.00015658      -0.00245843      -6.24681590
Al       6.78575420       0.78787697       2.35805680      -0.00294372       0.00156926       0.00000062      -4.22883108
Ni       6.94264999      -1.33042629       3.68815939      -0.00144797       0.00705886      -0.00127235      -5.68029098
Al       8.46369411       0.02163623       4.95152574      -0.00100561      -0.00303833      -0.00489718      -4.28875925
Ni       6.70180085       0.12873850       6.97816531      -0.00386062      -0.00401664       0.00360851      -5.95174634
Al       8.30470969       1.85717515       7.78166497      -0.00234957       0.00435362       0.00211623      -4.34400230
Al       7.58998667       0.57071839      10.38087301       0.00028960       0.00617222       0.00109780      -4.19994562
Al       7.76689524       2.26700726      12.48246436       0.00733108      -0.00488800       0.00072121      -4.28039504
Ni       5.15499808       3.43672641       0.04980086      -0.00571536      -0.00347941      -0.01013456      -5.61495063
Al       7.68560988       4.44610594       2.79662208       0.00181743       0.00002810       0.00253540      -4.02563724
Ni       6.50812274       2.83084928       4.15571528      -0.00767629       0.00458953       0.00036010      -5.74216049
Al       7.58653797       4.49513333       5.77109908       0.00416318      -0.00671531      -0.00293762      -4.35899430
Al       5.66902926       2.36103346       6.43318532       0.00155224      -0.00197176       0.00194656      -4.05258113
Al       7.94460425       4.68395003       8.47776806       0.00179457       0.00134490       0.00050781      -4.42248272
Al       6.37661073       3.65036720      10.51433284      -0.00266717      -0.00512806      -0.00022416      -4.20029838
Al       7.11734122       5.04448409      13.22793030      -0.00135228       0.00501270       0.00367581      -4.43576171
Ni       4.92236071       6.98755251       0.26288663       0.00333384       0.00014301      -0.00084631      -5.84271831
Al       6.87040961       8.11466854       1.09679612       0.00106973       0.00750189       0.00106059      -4.36138531
Al       5.47383346       6.57790692       2.73797876       0.00232422       0.00161649      -0.00087251      -4.25524909
Al       7.53848261       7.59312057       5.58850703       0.00264095      -0.00424732      -0.00134130      -4.37818633
Ni       6.21286442       6.01747647       6.94785623       0.00012815       0.00277226      -0.00372266      -6.02549773
Al       7.41928359       7.53218516       8.53421017      -0.00042439       0.00231701      -0.00183524      -4.59925908
Ni       5.97052922       5.84363671       9.57776406      -0.00164955      -0.00039873      -0.00026771      -5.82543487
Al       7.36474119       7.37956276      11.25265364       0.00522369      -0.00340103       0.00154065      -4.50824674
Ni       5.05671805       9.42310196      -0.54641232      -0.00161172      -0.00117772      -0.00389704      -6.04132768
Al       6.97834169      10.74536472       1.11353551       0.00260514      -0.00057555      -0.00321226      -4.37997290
Ni       6.60927461       8.61003077       3.55480050       0.00052595       0.00072678       0.00083468      -5.98963179
Al       7.12702199      10.38210348       5.75682550       0.00039956      -0.00000647       0.00179560      -4.53711609
Ni       5.87928085       8.81433323       7.09711728       0.00111670      -0.00403969      -0.00556432      -6.03481602
Al       7.61392468      10.49083135       8.42714610      -0.00447103      -0.00736016       0.00117165      -4.51272918
Ni       5.73174299       9.26343504       9.64005047      -0.00212817      -0.00210218      -0.00022053      -6.13080213
Al       7.48994873      10.30011829      11.21281115      -0.00516810       0.00164568       0.00033091      -4.51728706
Al       8.60149707      -0.02860264      -0.18238588       0.00417016      -0.00145184      -0.00216903      -4.34537102
Al       9.01108650       2.16605085       1.96947425       0.00360695       0.00129305      -0.00022108      -4.16042156
Ni       8.96103576      -0.36365984       2.37317291       0.00033099      -0.00114621       0.00120564      -6.12380081
Al      10.51809962       1.31782979       6.26165762       0.00599579      -0.00140448       0.00298819      -4.25769401
Ni       9.20513026      -0.47177623       7.33970230       0.00442775       0.00229435       0.00230176      -6.03296895
Al      10.77126582       0.56665425       9.06294779       0.00291702       0.00189309      -0.00499312      -4.45139382
Ni       9.33112991      -0.97700475      10.09902403       0.00125067      -0.00883586       0.00676359      -5.76414697
Al      10.44463225       2.36373901      11.56477158       0.00486265       0.00450796       0.00355740      -4.51992686
Ni       8.82130963       4.09654340       0.49753924       0.00503857      -0.00635642       0.00358380      -5.94160570
Al      10.32445229       4.99507163       2.16434037      -0.00358224      -0.00615098      -0.00498847      -4.51445800
Al       8.95186229       2.65260511       4.58926611      -0.00452436      -0.00127775       0.00160487      -3.91883142
Al      10.04939801       5.28479696       4.81179687      -0.00085146       0.00257993       0.00125404      -4.31127254
Ni       9.74954672       3.70111382       6.69669621      -0.00290912      -0.00075251       0.00036434      -6.08827729
Al      10.71625817       3.40311530       9.02207541       0.00326926      -0.00028521       0.00167021      -4.27253019
Ni       8.55785739       2.82565040      10.01153011       0.00025027      -0.00581954       0.00013843      -5.83308154
Al      11.45733623       4.91466039      12.39834762       0.00085331      -0.00148433       0.00160956      -4.37201976
Ni       8.55707439       6.55851125       0.10529157      -0.00560339       0.00250277      -0.00074168      -5.98332441
Al      10.38728697       7.74701180       1.08918419      -0.00231015       0.00042562      -0.00351671      -4.47822533
Al       8.47349326       7.05805346       3.01861400       0.00049590      -0.00405987       0.00111332      -4.12901439
Al      10.49474989       7.78987942       5.63157534       0.00054567       0.00335353       0.00119501      -4.15637418
Ni       9.04498075       6.22750601       6.86020187      -0.00294829       0.00361899      -0.00226396      -6.10503254
Al      10.34148615       7.49186867       8.57849094      -0.00489683       0.01071104       0.00477083      -4.33613059
Al       9.21736699       4.89985889      10.97471101       0.00171942       0.00439306       0.00431784      -4.28087874
Al      10.47014686       7.43788242      11.22133701      -0.00534008      -0.00455416      -0.00339835      -4.36414928
Ni       8.53302023       9.07648211      -0.27595455      -0.00055108      -0.00257400       0.00445860      -6.02441484
Al      10.13960585      10.39332411       1.15429556      -0.00113820      -0.00123923       0.00015795      -4.16049201
Al       8.74714410       9.86991698       3.38924674       0.00310095       0.00174407       0.00151814      -4.14572091
Al      10.16815670      10.48220668       5.66466168      -0.00197702       0.00215306       0.00015504      -4.11597089
Ni       8.89855744       8.87966937       7.10968136      -0.00065276      -0.00129464       0.00095909      -6.09806761
Al      10.55583487      10.29563896       8.33270483       0.00124282      -0.00039358       0.00110283      -4.44309744
Ni       8.98118213       8.96384542       9.85370439       0.00156365      -0.00235178      -0.00259474      -6.11396641
Al      10.55787155      10.24748028      11.23832398      -0.00510095       0.00502594      -0.00631878      -4.40915417
