156
Lattice="13.430235750063359 -0.12113054356851884 -0.33381070591982664 -0.1189249462692951 13.76385441838449 0.2848244753495609 -0.3304650205187761 0.2840758380449906 13.554271225695151" Properties=species:S:1:pos:R:3:forces:R:3:energies:R:1 energy=-686.6133022811908 stress="-0.00018848706681222178 0.00014861109201211195 0.00032556967775153816 0.00014861109201211195 -0.0006185072274949553 0.0002576922874141816 0.00032556967775153816 0.0002576922874141816 0.0002855316450473835" free_energy=-686.6133022811908 pbc="T T T"
Al       1.19549006       1.39354153       0.88361609      -0.00076786       0.00568578      -0.00435893      -4.37670236
Ni      -0.27217620       0.12159135       2.53343222      -0.00106235      -0.00290010      -0.00213438      -5.91777406
Al       0.93322440       1.65382282       3.92477030       0.00744150      -0.00462363      -0.00486900      -4.30643302
Al       1.36794197       1.50704090       6.68541691       0.00664650      -0.00221775       0.00180656      -3.96849050
Ni      -0.15710280       0.10319199       8.04410934       0.00145414      -0.00764334      -0.00590652      -5.74050255
Al       1.54309822       1.21792051       9.37982065       0.00148792       0.00506742      -0.00695733      -4.09297393
Al       0.75645034       2.11764686      11.73195308      -0.00801353      -0.00309783       0.00952986      -4.00336761
Al       1.29859846       4.36242161       0.64323325      -0.00395530      -0.00114152      -0.00317461      -4.01821911
Al       0.94853367       4.44031177       3.29988533       0.00622520      -0.00651642       0.00198084      -3.86674290
Al       0.77089730       4.08362320       5.91961448       0.00488898      -0.00622226       0.00592443      -3.73659079
Al       1.25325296       4.17815450       8.62819848       0.00020319      -0.00321180       0.00536993      -3.90610935
Al       1.28774901       4.90245461      11.48783643       0.00079760      -0.00017202       0.00221859      -3.97204027
Al       1.09052387       6.80320959       1.67217793       0.00205063      -0.00938582      -0.00997204      -3.84115488
Al       1.63123008       6.85526677       4.57814694       0.00253947      -0.00361875       0.00089384      -3.86535196
Al       0.36563314       6.50021002       7.16918605       0.00685131       0.00051337      -0.00484678      -3.68482057
Al       1.42322617       6.89765656       9.58139746      -0.00697693       0.00122140      -0.00495171      -3.83246860
Al       1.28814356       7.43575603      12.46949849       0.00039544       0.00175794       0.00322737      -3.75409011
Al       1.09433843       9.44011660       1.01754631       0.00185367      -0.00235440      -0.00037770      -4.14266991
Al       0.74720307       9.50285747       3.73047428       0.00234186       0.00318827       0.00630646      -4.29933357
Al       1.07346865       9.09271952       6.41906956      -0.00052009       0.00366785      -0.00296122      -3.74533761
Al       1.08340527       9.73833405       9.01690078      -0.00057966      -0.00419336      -0.00119111      -3.88160414
Al       0.87585732      10.05022948      11.86286464      -0.00425613       0.00145376       0.00832730      -4.17776696
Al       0.76246317      12.31655050       1.26524112       0.00877401      -0.00574002       0.00531619      -4.35962694
Al       0.95862535      12.28280344       4.18920277      -0.00133754      -0.00108159       0.00059544      -4.41284947
Ni      -0.41727659      10.81671042       5.49805776       0.01225750      -0.00112202      -0.00883147      -5.85734930
Al       0.97532157      12.15591470       7.00139099       0.00148334       0.00574948       0.00135400      -4.12682862
Al       0.64730654      12.26211253       9.80276290       0.00472733      -0.00936539       0.00718073      -4.14273175
Al       1.40430965      13.18016686      12.23638994      -0.00144983       0.00022825      -0.00358441      -4.02309533
Al       4.06085686       1.50001598       1.01185799       0.00656046      -0.00862672       0.00933390      -4.46927343
Ni       2.33582877       0.08637287       2.58552923       0.00932232       0.00361399       0.00076484      -6.16905255
Al       3.65965235       1.52517660       4.01302627      -0.00402389      -0.00283130       0.00462001      -4.49890427
Ni       2.47941663      -0.07856847       5.33907421       0.00912294      -0.00012950       0.00099427      -5.82370114
Al       4.19548177       0.93874801       6.67153199      -0.01187374      -0.00972278      -0.00076640      -3.89823902
Al       4.16494385       2.18301951       9.00643478       0.00045708       0.00244885       0.00090801      -3.91164465
Al       3.59846600       1.42631452      11.75337679       0.00601663      -0.00894108       0.00403502      -4.03703305
Ni       2.75495989       2.86653483      -0.45795472      -0.00715305       0.00299667      -0.00261068      -6.04847681
Al       4.11842952       4.28176756       1.08678613      -0.00140331       0.00182037       0.00713381      -4.27388698
Ni       2.55068327       2.92394313       2.29957652      -0.00042950      -0.00237797       0.00230730      -6.05234381
Al       3.65228436       4.33469015       4.08863751      -0.00612840      -0.00612557      -0.00426662      -3.94707970
Al       3.36900576       3.58037167       6.70373100       0.00101569       0.00605666       0.00236060      -3.63174251
Al       3.88582338       4.95684091       9.21225453      -0.00029182      -0.00101861       0.00212550      -3.93749237
Ni       2.55325006       3.20150456      10.45791628       0.00153853       0.00330090      -0.01571044      -5.90679768
Al       4.22365349       4.21514675      11.89156165       0.01137589       0.00821844       0.00107710      -4.24455610
Al       3.87522134       6.97993482       1.03218785      -0.00311492       0.00258626       0.00330659      -4.16355002
Al       4.23313826       6.96073764       4.44749211       0.00424443       0.00589053      -0.00021154      -3.91337502
Al       3.15087211       6.32889407       6.87803440      -0.00404148       0.00579476      -0.00603921      -3.77340815
Al       4.15924372       7.73572402       8.99340426       0.00021041      -0.00449941       0.00119193      -3.88259012
Al       3.85579361       6.96011328      11.61356193      -0.00381259      -0.00832149       0.01689260      -4.14414972
Al       4.04324905       9.71797204       1.32358147      -0.00540218      -0.00856006       0.00447050      -4.32142926
Ni       2.68929224       8.23238805       2.80695719      -0.00889096      -0.00186130      -0.00835375      -5.95755875
Al       3.85666720       9.79854354       4.11469846      -0.00228530      -0.01733212       0.00871298      -4.36111383
Al       3.85928972       9.30066387       6.78055031      -0.00069619      -0.00525846      -0.00021675      -3.83095018
Al       3.95738986      10.38171664       9.33535881      -0.00187154       0.00276411       0.01123738      -4.04226743
Ni       2.56518260       8.73004008      10.59206898      -0.00530975       0.00093793      -0.01065963      -5.87528347
Al       3.85830314       9.74845564      12.24880933       0.00597620       0.01039354       0.00129077      -4.08329096
Ni       2.61362561      11.02885341      -0.06178181      -0.00404820       0.00502432      -0.00113972      -6.05923894
Al       3.66847897      12.57415328       1.40413461      -0.00913961      -0.00058071       0.00209011      -4.37295663
Ni       2.32174292      10.93210974       2.55026149       0.00496817       0.00301128      -0.00913777      -6.08072610
Al       3.78567163      12.39409054       4.20520768       0.00159092       0.01082578      -0.00953481      -4.40960865
Al       3.70232078      12.07577445       7.05326424      -0.00091081       0.00624709      -0.00180172      -3.99319287
Al       3.66342960      13.19719814       9.69255812      -0.00078069      -0.00175255       0.00274915      -3.85238366
Ni       2.57008759      11.37046517      10.95189259       0.01400712       0.00224942      -0.01393341      -5.89785204
Al       4.17700198      12.51918592      12.39229848      -0.00847111      -0.00266955      -0.00193949      -4.06957243
Al       6.95202877       1.61616487       1.82070989       0.00253808       0.00364034      -0.00198203      -4.33000699
Ni       5.22960828       0.17828820       2.57089042      -0.00925712      -0.00697539      -0.00782100      -5.95874426
Al       6.31868964       1.14548835       4.53441572       0.00541547      -0.00870418       0.00419396      -4.00292215
Al       6.52912424       2.05922740       7.15410293       0.00969629       0.00365930       0.00299900      -3.66690618
Al       6.41422773       0.95951793       9.82825052       0.00443372       0.00458920       0.00440563      -3.85859902
Al       6.19377087       1.58644353      12.51252207       0.00466277       0.00475033       0.00336803      -4.00327732
Al       6.80016452       4.34848900       1.45227618       0.00788749      -0.00080955       0.01002453      -4.04824601
Ni       5.17855745       2.87332040       2.81365796      -0.00073375      -0.00005863       0.00266606      -5.92216929
Al       6.55435168       3.85002841       4.52973565      -0.00050974       0.01609817       0.00605961      -3.78866832
Al       5.82539504       4.77467556       6.98417972       0.00033016      -0.00238418       0.00729124      -3.68244464
Al       6.41210343       3.76015489       9.46555060      -0.00222730       0.00232734       0.00555585      -3.90536972
Al       6.92247616       4.65199904      12.22485799       0.00197435       0.01096767       0.00685896      -4.31852733
Ni       5.54612208       5.68100669      -0.27395665       0.00232266       0.00197376       0.00410260      -5.75234853
Al       6.62219543       7.38889828       0.97799859      -0.00436154      -0.00217145      -0.00356682      -4.34360823
Al       6.80940619       6.41421520       3.80597729       0.00954939      -0.00480756       0.00547378      -4.03689210
Al       5.90703690       7.42684933       6.75745998      -0.00023184       0.00596010      -0.00559713      -3.59779214
Al       6.54520297       6.45573591       9.22011500       0.00749280      -0.00534821       0.00487272      -3.69596718
Al       6.69685548       7.38411853      11.84705576      -0.00660247      -0.00601599       0.00610615      -3.84338228
Al       6.59582379      10.20300246       1.95376346       0.00352688      -0.00223148       0.00070255      -4.09050459
Ni       5.29217291       8.25385078       2.78299979      -0.00180025      -0.00055259      -0.00745675      -6.04220007
Al       6.56403309       9.19458144       4.70895897       0.00094981      -0.00159856      -0.00289435      -4.34516241
Al       6.68885447      10.16665977       7.41194697      -0.00089287      -0.00359788      -0.00781748      -3.93963299
Al       6.46690943       9.32563331      10.02298710       0.00371366      -0.00588538       0.00220968      -3.64852135
Al       6.49557161      10.20054780      12.71818167      -0.00695499      -0.00647474       0.00206591      -3.65132631
Al       6.33786632      12.81279209       1.07049113      -0.00530972       0.00125515      -0.00401582      -3.87189570
Al       6.55704308      12.23410919       3.92309113       0.00369911       0.00144061      -0.00008625      -4.01293893
Ni       5.28790878      11.00995797       5.63969644       0.00718546      -0.00471723      -0.00077537      -5.78547517
Al       6.54446772      12.92994389       6.74413420      -0.00368920       0.00575663       0.00500316      -3.81040156
Al       6.11587432      12.05296285       9.40301789      -0.00911197      -0.00154026      -0.00350351      -3.57192341
Al       6.78462840      12.78859889      12.01709881      -0.01557246      -0.00193815       0.00346959      -3.53811935
Al       9.56690291       1.01502419       1.47819348       0.00271683      -0.00192800      -0.00024826      -3.75400343
Al       8.84394356       1.82916686       3.94536460       0.00511647       0.00054513      -0.00243391      -3.86818032
Al       9.07421053       1.00357308       6.66050000      -0.00516072       0.00158860      -0.00223296      -3.98204911
Al       9.05812668       1.44451252       9.36498269       0.01517030      -0.00466362       0.00247525      -4.25791294
Al       9.02479324       1.09298744      12.28378145      -0.00390366       0.00347783      -0.00313462      -4.37906329
Ni       8.22840311       2.61363936       0.10422236       0.00065681      -0.00229202      -0.00307734      -5.88338861
Al       9.60969798       3.81873211       1.66612810      -0.00366203      -0.00288669       0.00106250      -4.22299224
Al       9.17586866       4.60371048       4.40573935      -0.00386578       0.00208374       0.00929609      -4.04220890
Al       8.61280290       3.88599015       6.94039751      -0.00573188      -0.00316515       0.00263428      -4.03278917
Al       9.14858843       4.29131653       9.58379711       0.00728016       0.00365048       0.00339653      -4.30585002
Ni       7.83852452       2.74941759      11.07724354      -0.00045605       0.00899948      -0.00096112      -5.97175411
Al       9.60347178       3.94174787      12.44987459      -0.00220153       0.00193920       0.01361019      -4.37782375
Al       9.24291210       6.75178691       1.54496556       0.01128045      -0.00009005       0.00339703      -4.14342636
Al       9.49742881       7.27333114       4.23430117      -0.00145578      -0.00609026      -0.00506423      -4.00939464
Al       8.51605055       6.63958270       7.20890891       0.00652730      -0.00220278      -0.00113485      -3.75536724
Al       9.15580515       7.04959814       9.84536052      -0.00407467       0.00449921       0.00103224      -4.02389538
Al       9.25168470       6.64334810      12.44708120      -0.00480969       0.00202331       0.00419342      -3.97496998
Al       8.96645905       9.46909242       0.95697950       0.00145138      -0.00738948      -0.01352334      -4.14463449
Ni       7.81935327       8.31923247       2.82541540      -0.00756298       0.00277250      -0.00304235      -5.87803617
Al       9.05064167      10.20156093       3.64453375      -0.00165272       0.00592848       0.00526104      -4.23622026
Al       9.09464327       9.28356334       6.41079292      -0.00042216       0.00486199      -0.00623932      -4.07468550
Al       9.00021738       9.95944083       9.16344324      -0.00447531       0.00469071       0.00420648      -4.09532113
Al       8.97873639       9.38453802      11.82372612      -0.00405517       0.00409028       0.00336868      -4.10008515
Al       8.88984182      12.13230331       1.75087661      -0.00049536      -0.00141424      -0.00044794      -3.65034522
Al       9.16195935      12.87965564       4.50942530       0.00017242       0.00218561      -0.01016165      -3.88961638
Al       9.13661689      12.01444976       7.14771350       0.00080023      -0.00135120      -0.00259213      -3.83122436
Al       8.64137218      12.56629328       9.87246527       0.00169902      -0.00186781      -0.00522742      -4.03215640
Al       9.30345316      12.09482238      12.70928553      -0.00295393       0.00422942      -0.01226529      -4.08803758
Al      12.08961020       2.04676442       1.35084408      -0.00324657       0.00082051       0.00096567      -3.84224921
Al      11.45835915       0.89304010       3.85354089      -0.00807007       0.00533868       0.00542747      -4.00050755
Al      12.14448316       1.69259586       6.52482708       0.00411730       0.01045509       0.00291682      -4.31513616
Al      12.06333351       1.28185122       9.33340662      -0.00439328       0.00940748       0.00753597      -4.37743423
Ni      10.52876382      -0.04602911      10.75758296      -0.00245006       0.00493836      -0.00331929      -6.07040327
Al      11.83573872       1.31061219      12.30911886       0.00624385      -0.00100223       0.00079178      -3.97348153
Al      12.25803170       4.76889841       1.21282861      -0.00145914      -0.00313445       0.00101517      -3.93417140
Al      11.84485128       3.56543373       3.85735102      -0.00601628      -0.00505814       0.00302689      -4.15220733
Ni      10.31749434       2.76399045       5.54011779       0.00740010       0.00507117       0.00268329      -5.83787509
Al      11.70688589       4.45388209       6.65514618      -0.00425086      -0.01155101       0.00910325      -4.05069419
Ni      10.51797635       2.80952235       8.02212267      -0.00080075      -0.00364065       0.00929636      -6.03041658
Al      12.10840056       4.13009680       9.36533107       0.00005700      -0.00642170       0.00179016      -4.11502715
Ni      10.62107833       2.66912469      10.68497319       0.00138739      -0.00747027      -0.00952383      -6.14297617
Al      12.26935431       4.00965395      12.21878869       0.00195591       0.01182338      -0.00144270      -4.05342732
Al      12.00728398       7.46490220       1.94660290      -0.00932948       0.00151313      -0.00309994      -4.05872158
Ni      10.75058170       5.54051964       2.89886956       0.00624679       0.00554984      -0.00645169      -5.77748840
Al      12.51252110       6.17144850       4.36844305      -0.00102256       0.00295147      -0.00583400      -4.01925203
Al      11.18341497       7.06597849       6.44695832       0.01296894       0.00191587      -0.00908467      -3.84493112
Al      12.02469971       6.88350922       9.33854885      -0.00518981      -0.00267580      -0.00290805      -3.93382289
Ni      10.79377202       5.45749011      10.94395513       0.00247445       0.00453503      -0.01019085      -5.87120982
Al      12.04056760       6.89760894      12.52225925      -0.00822349       0.00073954       0.00730696      -3.98235630
Ni      10.71254702       8.13799673       0.07075112      -0.01026002      -0.00384066      -0.00014287      -5.74833467
Al      11.68134379      10.11755104       1.35601305       0.00732873      -0.00508366      -0.00777784      -3.79384040
Al      11.60166252       9.04876924       4.23420664       0.00195152      -0.00437037      -0.00576425      -4.11200209
Al      11.87680961       9.78499072       7.02554665       0.00767926       0.00366856       0.01075125      -4.34533524
Ni      10.37056148       8.27803913       8.21734875       0.00202744      -0.00075673      -0.00325886      -5.68556543
Al      11.88934383       9.67542516       9.63516408      -0.00190965       0.00033038      -0.00833832      -3.98744770
Al      11.81367218       9.72344996      12.31875949      -0.00502663       0.00743715      -0.00070913      -3.93557838
Al      11.39957507      12.95316097       0.95876869      -0.00312939       0.00082890      -0.00800745      -3.87639630
Al      11.69155577      11.90482296       3.47202985       0.00073040       0.00502926       0.00196976      -4.30936231
Ni      10.48738544      10.97474402       5.35564632      -0.01334485       0.00373513      -0.00976213      -5.88513199
Al      11.79962494      12.69455086       6.27994355       0.00117042       0.00973741       0.00969571      -4.29876773
Al      11.34202718      12.46556360       9.04639201      -0.00556985      -0.01391329       0.00239365      -4.27260060
Ni      10.39448848      11.15426904      10.84031935       0.00110227       0.00176311      -0.00113840      -5.89992681
Al      12.20030214      12.39299336      11.98044413      -0.00503200       0.00500037      -0.00117010      -4.02206916
