116
Lattice="11.42238560289808 0.0011970766573542373 -0.0009978734362287773 0.001196623958275319 11.441381112327644 0.00013630667913961983 -0.0009974671990111348 0.00013615972366863376 11.447852368732038" Properties=species:S:1:pos:R:3:forces:R:3:energies:R:1 energy=-611.9261563184322 stress="0.00153260060912192 -0.00017194635769467398 0.00010523045325089441 -0.00017194635769467398 -0.0004183576324778651 -1.5403762425493156e-05 0.00010523045325089441 -1.5403762425493156e-05 -0.0012637580982859048" free_energy=-611.9261563184322 pbc="T T T"
Ni      -0.02330579      -0.05054269      -0.02609973       0.00388830      -0.00668927       0.00260491      -6.15175631
Al       1.34344163       1.44108329       1.44421098       0.00557551       0.00406142       0.00174818      -4.44504696
Al       1.39780495       1.41417586       4.26496083      -0.00100406      -0.00400036      -0.00010342      -4.57188522
Ni      -0.00638267      -0.00784588       5.74813420       0.00200659      -0.00692895       0.00124280      -6.19576926
Al       1.43631685       1.42679669       7.14068825       0.00637314       0.00336677       0.00025707      -4.65103676
Ni      -0.00810674       0.00489879       8.60989573      -0.00124659       0.00155721       0.00170446      -6.25575284
Al       1.39732547       1.46119767      10.05362344       0.00525984      -0.00594654      -0.00631045      -4.57172281
Al       1.43952710       4.28445527       1.43892129      -0.00243972      -0.00329309      -0.00318428      -4.49012416
Ni      -0.01418510       2.94805704       2.90925657       0.00432107       0.00169809      -0.00370207      -6.14712004
Al       1.50137051       4.33541011       4.25464382       0.00618314      -0.00467042       0.00997796      -4.55332380
Ni       0.00746441       2.90441642       5.70738939      -0.00109113       0.00991088       0.00283296      -6.26419704
Al       1.45774873       4.33940357       7.16433834      -0.00273439      -0.00220773      -0.00733918      -4.44380574
Ni       0.03447205       2.86386613       8.54385849      -0.00298168       0.00030245      -0.00368479      -6.12569126
Al       1.37937355       4.28967062      10.03693660       0.00139407      -0.00636652       0.00004634      -4.33653937
Ni       0.01150793       5.77815620       0.06859086      -0.00423965      -0.00508256      -0.00228024      -6.15937881
Al       1.50074948       7.11822339       1.48411958      -0.00152795       0.00291414      -0.00093268      -4.56030966
Ni      -0.01231829       5.71002543       2.84243074       0.00333294      -0.00107471      -0.00022829      -6.22466441
Al       1.48715000       7.12337857       4.23894452       0.00317818       0.00365613       0.00404510      -4.55877021
Ni       0.04688953       5.72816645       5.65617594      -0.00566052      -0.00267143       0.00110762      -6.20938686
Al       1.44630747       7.11934649       7.18034585       0.00197895      -0.00035436      -0.00657999      -4.44544176
Al       1.45088229       7.10947540       9.98223580      -0.00439833       0.00390831       0.00379720      -4.45130641
Ni       0.03720370       8.53993069       0.02167817       0.00239722       0.00099906       0.00263174      -6.22527725
Al       1.40178704      10.01168820       1.47478239      -0.00127991      -0.00406313      -0.00172148      -4.58137577
Ni      -0.04330563       8.48283402       2.83485102       0.00222258      -0.00384945      -0.00037368      -6.21750027
Al       1.38218573      10.01710497       4.23620564       0.00308395       0.00086256       0.01226710      -4.56691619
Ni       0.00640645       8.54337258       5.70053170       0.00673240      -0.00896505      -0.00292733      -6.26586591
Al       1.42397267      10.00153225       7.16163931       0.00578252       0.00027291      -0.00430386      -4.65392513
Ni       0.01493208       8.57844103       8.60848610      -0.00049893       0.00085811       0.00069696      -6.19884446
Al       1.44325942       9.99459963      10.02328658       0.00322225      -0.00094994      -0.00004384      -4.65726231
Ni       2.76597276       0.02681572       0.03762758       0.00148893       0.00328755      -0.00233027      -6.21587303
Al       4.32587125       1.39907842       1.38730039      -0.00127923      -0.01101820       0.01129191      -4.57009068
Ni       2.91554217      -0.00011447       2.85793647       0.00056058       0.00289769      -0.00364679      -6.22650344
Al       4.32031350       1.39862212       4.32897361      -0.00015904      -0.00085044      -0.00193904      -4.55736832
Ni       2.80869705      -0.02759856       5.68932332      -0.00457541      -0.00455728       0.00297611      -6.20967942
Al       4.29873348       1.39343706       7.10704671      -0.00507090       0.00302495       0.01174096      -4.55399650
Ni       2.88375668       0.00261872       8.59360662       0.00736381       0.00248875      -0.00061241      -6.26120912
Al       4.30202913       1.39625297      10.07050697       0.00221518      -0.00511917      -0.01553178      -4.56499129
Ni       2.90000704       2.89029499       0.01484662      -0.01171130       0.00495326       0.00121931      -6.23119980
Al       4.28801280       4.32889212       1.49029960      -0.00100954       0.00846765      -0.00585222      -4.44492554
Ni       2.85968928       2.80542811       2.84084067      -0.00575030      -0.00087354       0.00484851      -6.22737696
Al       4.28034216       4.31594489       4.22846141      -0.00085638       0.00984803       0.00673117      -4.45151707
Ni       2.88114113       2.87828237       5.70911538      -0.00229788      -0.00243130      -0.00199021      -6.27398441
Al       4.27186926       4.31877472       7.21127239       0.00847839       0.00543850      -0.00958283      -4.44832222
Ni       2.83808839       2.84677457       8.60464072       0.00163036      -0.00613875      -0.00001554      -6.21443104
Al       4.28207997       4.32754909       9.96746364       0.00429090       0.00952954       0.00217430      -4.44533621
Ni       2.86100297       5.69088588      -0.01355324      -0.00385162       0.00145389      -0.00427150      -6.22344037
Al       4.28563248       7.10051859       1.48791600       0.00011922      -0.00555464       0.00145785      -4.46489863
Al       4.35339855       7.18045600       4.27135025      -0.00852051      -0.00202217       0.00592994      -4.34376096
Ni       2.94447622       5.76270760       5.72893316      -0.00099842      -0.00156056       0.00491047      -6.22449017
Al       4.34829324       7.18736906       7.15781579       0.00307206       0.00087166       0.00120259      -4.34080879
Al       4.27724898       7.10023658       9.96745070      -0.00242275      -0.00623489      -0.00002946      -4.45346461
Ni       2.87815404       8.54222373       0.01357673      -0.00185764      -0.00452901      -0.00010180      -6.27798067
Al       4.31438137      10.04801239       1.37411402       0.00833119       0.00073222       0.00841293      -4.57870452
Ni       2.92054566       8.62373037       2.87534827      -0.00291159      -0.00368280       0.00281577      -6.22430688
Al       4.34083671      10.01481404       4.33318690      -0.00284730       0.00768588       0.00325917      -4.45287902
Ni       2.84716599       8.56913782       5.70472149      -0.00614692       0.00324151       0.00176314      -6.22720452
Al       4.31203658      10.02252733       7.11053199      -0.00577544       0.00580140      -0.00062448      -4.45182136
Ni       2.89301288       8.59067770       8.57375449       0.00552575       0.00177233      -0.00745079      -6.21445409
Al       4.29146059      10.05250594      10.08269300       0.00417700       0.00464188      -0.00751223      -4.57562705
Al       7.10423117       1.40566724       1.37912511      -0.00314038      -0.00421123       0.00188572      -4.57769375
Ni       5.73279797      -0.02064181       2.86169593      -0.01348754       0.00124815      -0.00268014      -6.22012547
Al       7.11458450       1.40223043       4.33647820      -0.00129277       0.00730006       0.00272734      -4.55874540
Al       7.12708726       1.41132746       7.13018227       0.00114468       0.00639560       0.00484199      -4.56263586
Ni       5.71789799      -0.01986363       8.58547768      -0.00203612       0.00241591       0.00574056      -6.21595851
Al       7.11428884       1.41502505      10.04998584      -0.00074997       0.00188812      -0.00507550      -4.57947810
Ni       5.70437016       2.94144838       0.00267247      -0.00331828       0.00766883       0.00149879      -6.23709322
Al       7.13460393       4.33151110       1.47987099       0.00108892       0.01095204       0.00033675      -4.46430354
Ni       5.71964407       2.81730511       2.86339143      -0.00017517      -0.00547866      -0.00132299      -6.22493568
Al       7.13753234       4.32782627       4.24544840      -0.00582119       0.00316292       0.00332197      -4.46378441
Ni       5.70408095       2.92783753       5.72392878      -0.00107558       0.00308135      -0.00081496      -6.23184394
Al       7.09022312       4.31506273       7.20960547       0.00410572       0.00340156      -0.00822390      -4.56640445
Ni       5.67397856       2.79446322       8.58281578       0.00160275      -0.00317094       0.00198974      -6.22088084
Al       7.08074614       4.31486135       9.96364985       0.00342256       0.00443672       0.00195105      -4.56191445
Ni       5.70736589       5.73479214       0.01979402      -0.00381815      -0.00187737      -0.00632798      -6.23512993
Al       7.19301794       7.14417536       1.41815568      -0.00624151       0.00164193       0.00569081      -4.37102136
Al       7.07368569       7.16617211       4.29970395       0.00276661       0.00327234      -0.00018584      -4.36351977
Ni       5.67445620       5.69313534       5.71003069       0.00052997      -0.00207513       0.00119767      -6.13569754
Al       7.03917650       7.16786427       7.16720480       0.00435220      -0.00140231       0.00086104      -4.42780557
Al       7.12109072       7.14815154      10.00766458       0.00243809      -0.00370196      -0.00442556      -4.50611191
Ni       5.67395702       8.49954620      -0.00118436       0.00386426      -0.00327131       0.00049131      -6.17071872
Al       7.14645330      10.01582303       1.32624314      -0.00844667      -0.00254360       0.00297714      -4.45203726
Ni       5.75255638       8.62663071       2.79150768      -0.00181814       0.00389887       0.00085202      -6.16916629
Al       7.09961007      10.01904034       4.34869632      -0.00293256       0.00274466       0.00412403      -4.45887113
Al       7.11578140      10.00857122       7.12393869       0.00387465      -0.00000094      -0.00062642      -4.46585804
Ni       5.70010702       8.65299157       8.64895647       0.00262692      -0.00068066       0.00363173      -6.16784453
Al       7.15808454      10.00389564      10.10148920      -0.00333633      -0.00544431      -0.00732747      -4.44558399
Ni       8.65472778       0.05180126       0.01314943      -0.00116249       0.00269962       0.00075659      -6.15624416
Al      10.05979726       1.44487804       1.44671035       0.00414870       0.00138869      -0.00098999      -4.44715112
Ni       8.49650113      -0.01414220       2.83654114       0.00221015       0.00114716      -0.00298017      -6.23112362
Al      10.01087192       1.41294937       4.26829796       0.00422806       0.00013346      -0.00356385      -4.57337354
Ni       8.61439810      -0.02182888       5.71404152       0.00599784       0.00390130      -0.00290011      -6.20612961
Al       9.98602486       1.44520363       7.15669179      -0.00530131       0.00053542       0.00333416      -4.65866461
Ni       8.53671646      -0.01174802       8.61467670      -0.00214559      -0.00481398       0.00130072      -6.26442694
Al      10.02507301       1.48818949      10.03632657      -0.00288323      -0.00412222      -0.00574055      -4.58017094
Ni       8.52164385       2.88473723       0.00454444       0.00077572       0.00235327      -0.00055488      -6.22560020
Al       9.97675168       4.29037015       1.41961221       0.00604445      -0.00035538      -0.00310325      -4.50688051
Ni       8.56184270       2.81954882       2.84549701       0.00310543      -0.00545937       0.00741394      -6.22454848
Al       9.92291396       4.34429778       4.28308217       0.00351299       0.00145974       0.00022807      -4.56226836
Ni       8.53951432       2.88123550       5.71979459      -0.00393553      -0.00166124      -0.00109224      -6.26297855
Al      10.01883920       4.34025721       7.15970012      -0.00161802       0.00018490      -0.00566975      -4.56633568
Ni       8.58446375       2.90588193       8.60124972      -0.00263261      -0.00532742      -0.00369853      -6.26113519
Al      10.07473632       4.29867457      10.01768012      -0.00516743      -0.00260737      -0.00103898      -4.42996299
Ni       8.55338149       5.65889291      -0.06675777       0.00506637       0.00534115      -0.00632379      -6.15758384
Al       9.88509397       7.14084235       1.42487884       0.00715092       0.00216744      -0.00478285      -4.43728847
Al       9.93128182       7.10331556       4.26711619      -0.00215462      -0.00123316       0.00445772      -4.57608333
Ni       8.46988145       5.75582068       5.78357944       0.00624955      -0.00576409       0.00283792      -6.21612700
Al      10.03746527       7.11427262       7.16362564      -0.01154254      -0.00372748       0.00210482      -4.56063584
Ni       8.56149259       5.74503406       8.59848370       0.00405609       0.00205563      -0.00211174      -6.21930324
Al       9.99694393       7.15021570      10.02698493      -0.00256741       0.00255069      -0.00086406      -4.49527882
Al       9.98739858       9.98648638       1.43897014       0.00100063      -0.00332309       0.00341796      -4.51240589
Ni       8.51062846       8.61261142       2.90504621       0.00045785       0.00000792      -0.00423599      -6.16141066
Al      10.02621991      10.02388217       4.25089348       0.00251773      -0.00264369       0.00296728      -4.56954159
Ni       8.57700660       8.56811661       5.71761400       0.00450698      -0.00347797       0.00263250      -6.22267793
Al      10.00256848       9.99249202       7.16843406      -0.00491438      -0.00181275       0.00347179      -4.65616311
Ni       8.53914838       8.53179851       8.53912478      -0.00334904       0.00109139       0.00047911      -6.22209981
Al       9.95756254       9.95236690      10.03767273      -0.00282323       0.00084236      -0.00334831      -4.57675497
