128
Lattice="12.514769255788988 -0.11881702676148412 -0.06156641063094543 -0.11937050777167739 12.125547753314141 -0.011592271414133208 -0.06836104100113972 -0.011233850310550644 12.167238709455214" Properties=species:S:1:pos:R:3:forces:R:3:energies:R:1 energy=-612.4701376907691 stress="0.0006803008603616859 9.329392437086658e-05 0.00041905722484156444 9.329392437086658e-05 0.00014203142596268029 -0.0002929063795264934 0.00041905722484156444 -0.0002929063795264934 -0.00048221113536101734" free_energy=-612.4701376907691 pbc="T T T"
Ni      -0.14201705       0.06216918       0.03909740      -0.00171558      -0.00085542      -0.00077675      -5.84635358
Al       1.34164143       1.57429741       1.39344705      -0.00429711      -0.00611671      -0.00498577      -4.37940057
Al      -0.44119373      -1.02931149       2.13485395       0.00651694      -0.00113024       0.00071391      -4.04368457
Al       1.27973759       1.35124125       4.16582119      -0.00332463       0.00379739      -0.00107888      -4.22997514
Ni       0.14616729       0.05858684       5.88485532      -0.00512066       0.00644313      -0.00186654      -5.99381464
Al       2.03425133       1.57271810       7.75776287       0.00617411      -0.00229322      -0.00624132      -4.31341763
Ni      -0.11800348       0.71375832       8.37107201      -0.00080514      -0.00405213       0.00161966      -5.89297398
Al       1.12829469       1.34826020      10.46808722       0.00086008       0.00223586      -0.00050451      -4.45323953
Ni      -0.14169792       2.62554549      -0.09337197      -0.00355914      -0.00092809       0.00078632      -5.96179265
Al       1.03417075       4.58328266       1.01577960       0.00036988       0.00082496      -0.00015563      -4.37645220
Ni      -0.26063364       3.01487350       2.52023307       0.00478195       0.00195692      -0.00959285      -5.94882066
Al       1.74653350       3.97949436       3.50689393      -0.00741478       0.00053041       0.00151412      -4.43366615
Al       0.05926883       2.63262533       6.29453321       0.00512093      -0.00605622       0.00225192      -4.39389210
Al       1.32739021       4.82569010       7.90533093      -0.00279573       0.00807034       0.01353365      -4.34873240
Al      -1.06330271       2.83432593       8.84030128      -0.00088841      -0.00957077      -0.00148126      -4.03878921
Al       0.73355437       4.17187935      10.47073194      -0.00381734       0.00690636      -0.00221859      -4.41542962
Ni      -0.35923170       6.17310794      -0.28962488       0.00448007       0.00885694      -0.00338289      -6.07994296
Al       1.56830034       9.28999666       1.98244587       0.00087940       0.00024001       0.00717086      -3.93633265
Al       0.36312015       6.48190924       2.99428950       0.00095115      -0.00347578       0.00136220      -4.16419890
Al       1.72719118       8.32662571       4.44755177      -0.00800395      -0.00079914      -0.00356740      -4.16494234
Ni       0.65324564       5.32044982       5.66129249       0.00217909       0.00561268       0.00451093      -5.94605735
Al       1.17414834       7.52291246       6.98339789       0.00766687       0.00536876      -0.00580876      -4.25377273
Ni      -1.07922963       5.23179900       9.27666080      -0.00036594       0.00890174       0.00124335      -5.88083676
Al       0.58314571       6.80943261       9.76901287       0.00296394      -0.00023001       0.00401908      -4.31413192
Al      -0.25782078       8.72916366      -0.80116957       0.00069856       0.00786580       0.00313836      -4.00212003
Al       1.81297685      11.05760961      -0.03238581       0.00256146      -0.01085557      -0.00278539      -4.18631876
Ni      -0.50656157       8.77897117       3.30987231      -0.00655341       0.00304883       0.00176647      -5.92906905
Al       2.03520997      10.92092086       5.19943611      -0.00533080      -0.00712336       0.00001527      -4.27207592
Ni       0.14641313       9.49234693       5.92278587      -0.00069393       0.00635729      -0.00285263      -5.86160014
Al       1.20336908      10.89722970       7.77440274       0.00177447       0.00330294      -0.00158232      -4.43873984
Ni       0.08421284       8.96716825       8.78055361      -0.00385409       0.00259269      -0.00205157      -6.05888934
Al       2.11273592       9.19658701      10.15424312      -0.00251768      -0.00304058      -0.00971276      -4.18340503
Ni       4.23743070      -0.32251944      -0.09895513      -0.00455430       0.00378242      -0.00716505      -5.85739243
Al       4.07535813       1.80358563       1.23705239      -0.00157153       0.00344179      -0.00838606      -4.27234661
Al       3.03783945      -0.26095375       2.61720049       0.00203239       0.00416162       0.00399294      -4.10605092
Al       3.88563142       1.32175416       5.73451609      -0.00078689       0.00225978      -0.00631671      -4.36667305
Ni       3.50648549      -0.44811477       7.21602662      -0.00755346      -0.00662998      -0.00124474      -5.97420345
Al       4.70333297       1.68447519       8.29253291       0.00419520      -0.00450872      -0.00344527      -4.26607440
Al       3.42506631      -0.46048786       9.65715244      -0.00193591       0.00181109      -0.00168528      -4.10150773
Al       4.19088938       1.86074755      10.86592698       0.00267389       0.00512920      -0.00255880      -4.29070360
Ni       2.42428513       3.07160161      -0.35022299       0.00187991       0.00361649       0.00456812      -5.93319436
Al       3.85489413       4.53548974       0.99805836      -0.00743235       0.00457114       0.00883720      -4.22219750
Ni       3.41299682       2.02430077       3.49587602      -0.00087662       0.00284899       0.00024565      -5.89774330
Al       4.73722229       3.62041343       4.72366022      -0.00581213      -0.00094635      -0.00444929      -4.19856764
Ni       2.31893678       3.27905845       5.69465815       0.00133771      -0.00226500       0.00730787      -6.03478069
Al       3.94009292       4.16219356       7.24383555       0.00132687       0.00255716       0.00453550      -4.23698266
Ni       2.94621752       3.31685825       9.33147087       0.00604193       0.00622653      -0.00222099      -6.02650526
Al       5.28427031       4.16311344       9.67132470      -0.01296121       0.01137836       0.00383795      -4.21651296
Al       2.05013931       7.16945044       0.27576898      -0.00005231       0.00013219       0.00703441      -4.12934634
Al       4.15712466       7.93173833       2.08941323      -0.00336606      -0.00004076      -0.00068223      -4.32712249
Ni       2.67159599       6.02687756       2.41095975      -0.00431354       0.00624788       0.00865669      -5.85642983
Al       4.39629938       8.02224610       5.20101589      -0.00301785      -0.00464460      -0.00759088      -4.20324333
Al       2.87562494       5.83288470       5.01046204       0.00092931       0.00274631      -0.01231638      -4.27071408
Al       4.84323325       6.84297303       7.75673780       0.00198545       0.00133210      -0.00210924      -4.35572713
Al       3.09773258       5.47390698      10.38572155       0.00439477      -0.00651977       0.01209659      -4.04232037
Al       4.53348019       7.85963334      10.25078367       0.00242626      -0.00135499      -0.00044615      -4.31288089
Ni       3.71037165       9.24803978      -0.02776668       0.00149531       0.00357103      -0.00188938      -6.00768529
Al       5.09805870      10.49668382       1.78836299      -0.00360866      -0.00214128       0.00048338      -4.29118544
Ni       3.46996937       9.73705003       3.54170136      -0.00552275       0.00355210      -0.00033977      -5.86781870
Al       4.71261630      10.92264746       5.13392070       0.00106930       0.00042868       0.00197080      -4.37181076
Al       3.71794044       9.30280026       7.71865658       0.00574930      -0.00276225       0.00171601      -4.22674117
Al       5.61964491      11.20121112       7.94688920       0.00275902       0.00076154      -0.00016302      -4.25114771
Ni       2.66286001       7.32676254       8.78228561       0.00305744      -0.00781856       0.00194735      -5.76473059
Al       5.49230254      10.32500551      10.66096262       0.01145926       0.00438295       0.00472510      -4.34287126
Al       6.41244518       0.47448540       0.21858121       0.00281509      -0.00093719       0.00978348      -4.24621726
Al       7.92921628       1.74454920       2.06922741       0.00016585       0.00744232      -0.00236604      -4.32812444
Al       5.78116174       1.17268842       3.73237359      -0.00158757       0.00234006      -0.00289914      -4.19595161
Al       8.63011822       1.20869083       4.73576252      -0.00170974      -0.00042775       0.00112848      -4.42802928
Ni       6.75437008       0.06645683       5.76670161      -0.00003470      -0.00641600       0.00261536      -5.95543504
Al       7.90581435       0.61967977       8.00236817      -0.00425922      -0.00094030       0.00026293      -4.41455116
Ni       6.05640117       0.49987322       9.93337963      -0.00531586      -0.00916352      -0.00495192      -6.13247085
Al       8.00138806       1.99969769      10.79397185      -0.00490653       0.00088316      -0.00216770      -4.32592673
Al       6.33326207       3.43242445       0.27419323       0.00133630       0.00776948       0.00407548      -4.03035361
Al       7.65019676       4.47535233       2.57529365       0.00050099       0.00030586      -0.00018634      -4.08909092
Ni       5.50127271       3.30870038       2.48553606      -0.00230019      -0.00198797      -0.00043621      -5.74723122
Al       8.55112417       4.38361722       5.11930855       0.00069374       0.00593055       0.00143768      -4.13437226
Al       6.56682424       2.43276284       6.32889671      -0.00244420      -0.01008832      -0.00035369      -3.99423277
Al       6.79767970       4.90731923       7.47435706       0.00692605       0.00064452      -0.01021650      -4.31752457
Ni       6.91758743       2.68454184       8.73624670       0.00850231       0.00188434      -0.00095116      -5.91591525
Al       7.91216437       4.58419161      10.29887862       0.00707422      -0.00690766       0.00961648      -4.27853331
Al       5.70086855       5.90968280      -0.44465454       0.00755144       0.00405466      -0.01180453      -3.69430633
Al       7.39761967       7.73580466       2.47243076       0.00037357      -0.01164064       0.00197385      -3.96899834
Al       5.17007594       5.69278856       3.14946825       0.00466081       0.00352125       0.00510297      -4.10466349
Al       7.08400262       6.97100325       4.96418523       0.00053889      -0.00044596       0.00348825      -4.16023428
Ni       5.16667542       5.72627008       5.71881509      -0.00309986       0.00427914       0.00424682      -5.85940225
Al       7.77280561       7.41756090       7.62814142       0.00349202      -0.00790458      -0.00036504      -4.35125032
Ni       6.55509313       6.44698640       9.47365470       0.00326074      -0.00201681       0.00142941      -6.03405233
Al       7.87442490       8.40686423      10.39026228      -0.00445554       0.00084148      -0.01016586      -4.32697761
Al       6.17257759       8.41937510       0.27521394       0.00031438      -0.00280235       0.00435439      -3.79917560
Al       7.79486789      10.54477211       1.27185182      -0.00177477       0.00227600       0.00227486      -4.11501923
Ni       5.91389772       9.10655912       3.78943446       0.00210918      -0.00559749      -0.00327735      -5.93627970
Al       7.66294359      10.84250513       3.97734606      -0.00093530      -0.00241839       0.00386683      -4.41961742
Al       6.75219181       9.54758495       6.17680047      -0.00213207      -0.00357560      -0.00339883      -4.25971170
Al       8.43807362       9.92760187       8.23918298      -0.00018172      -0.00319481      -0.00101344      -4.39995379
Ni       6.15633698       8.88874185       8.61722336      -0.00590736       0.00167955       0.00308980      -6.10719208
Al       8.06540487      11.38792374      10.44375357      -0.00316482      -0.00754075      -0.00042065      -4.23416474
Ni       8.87163346       0.36820656       0.29082769      -0.00624334      -0.00173882       0.00365790      -5.86226308
Al      10.59611297       1.67825644       1.26290170       0.00434485      -0.00339051       0.00499055      -4.60858370
Ni       9.62497228      -0.26019709       2.70586154       0.00232301       0.00067015      -0.00800012      -6.12532850
Al      11.20096516       1.24959651       3.97152191      -0.00006232       0.00150833      -0.00026951      -4.33463525
Ni       8.98140336      -1.04363685       6.20537618      -0.00176565       0.00098834       0.00019381      -6.14619673
Al      10.51921886       0.77313425       6.78008005      -0.00589192      -0.00613143       0.00386489      -4.53850692
Ni       9.98863692      -0.34828565       8.83029858       0.00420952       0.00089753       0.00044377      -5.83436371
Al      10.61919150       1.01905167      10.78409213       0.00940344      -0.00377231      -0.00119237      -4.35687792
Ni       8.75936766       3.65452823       0.47773800       0.00394208      -0.00744301       0.00063944      -6.08582128
Al      10.78740587       4.63759799       1.53721413       0.00525427      -0.00225333      -0.00687753      -4.32958538
Ni       9.63992526       3.07920809       3.18685274       0.00579856       0.00789160       0.00427472      -6.06926962
Al      11.43920307       4.33333061       4.20170326       0.00244319       0.00042426      -0.00370329      -4.42779378
Ni      10.21300100       2.83584437       5.67361979       0.00122235      -0.00460448      -0.00211004      -5.94981359
Al      11.01272302       4.91359940       6.84310322      -0.00011407      -0.00483860      -0.00267729      -4.49568991
Al       9.00275579       3.29199920       7.78122070       0.00045723      -0.00285415       0.00217509      -4.16859299
Al      10.52723962       3.98087069      11.10896153       0.00249170      -0.00273971       0.00532744      -4.33471373
Al       8.38105620       6.05114371       0.50150982      -0.00205770       0.00069320      -0.00349885      -4.06380343
Al      10.99820121       7.46252752       1.25553623      -0.00566043      -0.00349007      -0.00299350      -4.13107200
Al       9.56681884       6.53254358       3.54669175       0.00602222      -0.00042511       0.00692517      -3.87819591
Al      11.61520623       7.18636442       5.21849388       0.00573408      -0.00292383       0.00710158      -4.33466394
Ni       9.34657640       6.56461625       6.02110156      -0.00016511       0.01040379       0.00109204      -5.97468069
Al      10.68771529       7.47257532       8.00467565      -0.00402182      -0.00155628      -0.00168245      -4.51848521
Ni       9.09349673       5.66434166       8.50597730      -0.00320050       0.00164518      -0.00394669      -5.79959497
Al      10.10229846       6.82192919      10.57721878       0.00056354      -0.00632504      -0.00211724      -4.31997865
Ni       8.77411230       8.40234242       0.55024854      -0.00388834      -0.00164595       0.01076639      -5.97512462
Al      10.21778091      10.46766468      -0.12978227      -0.00201270       0.00279729       0.00122863      -4.28316414
Al       9.74501508       9.34001797       2.64200973      -0.00456765       0.00394529      -0.00121393      -4.17014386
Al      10.97444124      10.73857427       4.60582889       0.00287368      -0.00229696      -0.00514305      -4.35632799
Al       9.31137408       8.81668233       5.44904990      -0.00281411      -0.00845938       0.00166903      -4.18197929
Al      11.05443480      10.29360345       7.38742812      -0.00198823      -0.00149026      -0.00231254      -4.65791026
Ni      10.21980818       9.26160947       9.78970662      -0.00028067       0.00795245       0.00541801      -5.98215243
Al      12.04780248      10.95403429       9.94904479       0.00317638       0.00702263      -0.00774930      -4.50378448
