128
Lattice="12.344194122724506 0.15464183410055227 -0.2859421335867651 0.15743462803178043 12.077993741683251 0.11357351552296455 -0.2927725152689536 0.11843185761493841 12.536482831105179" Properties=species:S:1:pos:R:3:forces:R:3:energies:R:1 energy=-594.8296441492397 stress="-3.833487884446073e-05 -6.702239414803735e-05 -0.0001720877720092134 -6.702239414803735e-05 -0.00014485461595881537 -0.0006527621936188635 -0.0001720877720092134 -0.0006527621936188635 -0.00012999300220908444" free_energy=-594.8296441492397 pbc="T T T"
Ni      -0.59334754      -0.52045596       0.41052948      -0.00081816      -0.00791635      -0.00956092      -5.79501442
Al       0.91217170       1.18713747       1.17876372       0.00139160       0.00512202      -0.00439100      -4.12670942
Al      -0.83113494      -0.32290443       2.82461335       0.00029695       0.00368514      -0.00262947      -3.91601187
Al       0.87869135       2.07323001       5.05107704       0.00063139       0.00450197      -0.00064831      -4.26018593
Ni      -0.14911317       0.14098181       6.75628003      -0.00535520      -0.00139333       0.00435856      -5.98198305
Al       1.14074864       2.02430834       7.77223023      -0.00587207      -0.00208534      -0.00519557      -4.42377528
Ni      -0.19833535       0.27195265       9.32677139      -0.00996713       0.00409712       0.00892319      -6.08783055
Al       1.57617066       1.56280827      10.60642559       0.00162462      -0.00212871       0.00286343      -4.40076438
Ni       0.52735041       3.13341983      -0.18624397      -0.00498421       0.00221089      -0.00643189      -5.99325673
Al       1.25289779       3.46523696       2.68482659      -0.00792941      -0.00245318       0.00484918      -4.20595467
Ni      -0.69477149       2.07427916       3.08937821       0.00316719       0.00185677      -0.00424776      -6.03287607
Al       1.21984313       5.01638706       5.28140005      -0.00610183      -0.00347379      -0.00011436      -4.08702112
Ni      -0.41860019       3.63855092       6.54693356       0.00199034       0.00254899       0.00103244      -6.05980911
Al       1.16713235       4.78293265       8.07013311       0.00493125       0.00030525       0.00333989      -4.26998161
Ni      -0.19919013       3.00632604       9.73099860      -0.00706059       0.00564760      -0.00328438      -6.12479193
Al       1.55030655       4.38143595      10.72134376       0.00480797      -0.00274483      -0.00159839      -4.30880969
Al       1.12513390       5.45001678       0.59731440      -0.00005409       0.00216630      -0.00045921      -4.17870370
Al       1.52734576       7.81713614       1.98549692      -0.00539975       0.00434109       0.00049242      -4.16133825
Ni       0.38716198       5.81737039       2.96403881      -0.00482766      -0.00264992      -0.00683202      -6.18684504
Al       1.48370299       7.66134252       5.05105287      -0.00090321       0.00555347       0.00343937      -4.23344278
Ni      -0.38233769       6.20577265       6.71583812      -0.00252799       0.00081919      -0.00232711      -5.95588168
Al       1.04694864       7.90126465       7.92914374       0.00074694      -0.00189420      -0.00054529      -4.33031418
Al      -0.31974252       6.26463364      10.33308783      -0.00033724       0.00063018       0.00546934      -3.89567814
Al       1.74816646       7.84241252      11.61409182       0.00464240      -0.00484097       0.00355087      -4.47958051
Ni       0.12144002       8.88118025       0.06875324       0.00465770      -0.00608974       0.00558275      -5.97923011
Al       1.49801843      10.45285200       1.28761978       0.00448737      -0.00799769       0.00654963      -4.26503511
Al      -0.09431781       9.30138207       3.66519237       0.00738345      -0.00535431      -0.00072926      -3.90788517
Al       1.45894771      10.23141321       5.88090811       0.00249006       0.00002093      -0.00057315      -4.40770044
Ni      -0.51581851       8.67140918       6.14652499       0.00052953      -0.00379937       0.00603824      -6.09673082
Al       1.99865366      11.47021765       8.48559602      -0.00418735      -0.00145294      -0.00312364      -4.30869012
Ni      -0.06825585       8.64664890      10.04967891       0.00230563      -0.01876896      -0.00066636      -5.95941352
Al       1.35790042      10.51975687      10.93803571       0.00064337       0.00720313       0.00875702      -4.36119653
Al       3.47315231      -0.18662905      -0.46838552       0.00243734      -0.00338719       0.00242469      -4.05241381
Al       3.77511848       1.08287627       1.92119443      -0.00727832      -0.00252754      -0.00012932      -3.99629149
Al       1.86511009      -0.13371133       3.59381448      -0.00019252       0.00053091      -0.00065687      -3.95429315
Al       3.88270001       1.37671271       4.58157698      -0.00155521      -0.00352352       0.00153593      -3.99843133
Ni       2.23087494       0.39534542       6.06720621       0.01365136       0.00002912       0.00490058      -5.86862269
Al       3.80150500       1.64662250       7.38971857       0.00019636      -0.00459992      -0.00142426      -4.38360000
Ni       3.77975581       0.92730303       9.87320213      -0.00197973       0.00707669       0.00539183      -5.70531207
Al       5.28941381       1.41574692      11.74583747       0.00541577      -0.00412856      -0.00437315      -4.12405630
Al       2.87727531       3.25041571       0.53047261       0.00419606      -0.00073761      -0.00407436      -4.09055022
Al       5.03345990       4.75172943       1.22323707       0.00238763      -0.00012001      -0.00034812      -4.36650144
Ni       3.77281356       3.36162957       2.81248467       0.00523755       0.00302868       0.00675237      -5.91968446
Al       5.57569662       5.57435555       3.88973971      -0.00567924      -0.00021465      -0.00684687      -3.90459783
Al       3.66645038       3.93247359       5.14093237      -0.00158444      -0.00129495      -0.00707690      -3.77364346
Al       4.10543590       4.59948550       7.70075980      -0.00245172       0.00018024       0.00381342      -3.78138934
Ni       2.86953814       3.16276610       9.07228106      -0.00235432       0.00814027       0.00250692      -5.98188108
Al       4.28959360       4.11139873      10.89875859      -0.00460233       0.00848299      -0.00532853      -4.44903957
Ni       3.32878579       5.64784835      -0.49225079       0.00386862      -0.00131054       0.00187230      -5.98939986
Al       4.46034398       7.47271645       0.67664690      -0.00273522      -0.00119222      -0.00221238      -4.30498744
Al       2.84442515       5.61213221       3.06979516      -0.00188906      -0.00296924       0.00219546      -4.07306840
Al       4.22808502       7.95268522       3.44896947      -0.00216859      -0.00009473       0.00037434      -4.24280745
Al       3.81209021       6.47999303       5.83821968       0.00349330       0.00958298      -0.00444722      -3.82052445
Al       4.50104580       8.30784773       7.94274888       0.00244490       0.00486972       0.00287705      -4.10010279
Al       2.89795165       6.40089543       9.49203119       0.00067808      -0.00494048      -0.00316670      -3.94860823
Al       4.70593011       8.02654040      10.63146525       0.00323804       0.00752737       0.00199716      -4.34558544
Ni       3.72698590       9.50310960      -0.60948699       0.00290859      -0.00110990      -0.00075546      -5.99149277
Al       4.05490768      10.10942322       1.71023942      -0.00470872       0.00459061       0.00281366      -4.19693743
Ni       2.38525876       9.56102904       3.47763854      -0.00427814       0.00108138      -0.00446795      -6.10986444
Al       4.48576820      10.66143001       4.34766671       0.00008618       0.00214753      -0.00746876      -4.10546402
Ni       3.62973514       8.85448474       5.67944543      -0.00346292      -0.01156754      -0.00408109      -5.86275759
Al       4.14039474      10.93498749       6.98986469      -0.00552424       0.00506192       0.00361611      -4.13077603
Ni       2.62234184       8.89781709       9.52065539      -0.00150991       0.00594070      -0.00108735      -5.86644588
Al       4.43433230      10.65206559       9.81345142      -0.00080203      -0.00617078       0.00781550      -4.49513216
Ni       5.59789501      -0.30627131       1.07028925      -0.00648036       0.00491044       0.00081462      -5.97357972
Al       7.20618555       1.89425541       1.31390247      -0.00184016       0.00275921       0.00203620      -4.14777604
Al       6.22803591       0.25953756       3.27124071      -0.00192088       0.00081901      -0.00274523      -3.92870982
Al       8.01634556       1.90136896       5.04368106      -0.00300569       0.00332018       0.00008928      -3.83647794
Al       6.05788330       0.46827696       5.98654262       0.00524972       0.00110709      -0.00324433      -3.95996748
Al       7.71967925       1.85230881       7.86377186       0.00691667       0.00239418      -0.00460416      -4.09758761
Ni       5.64737316       0.21226077       8.30480051       0.00485567      -0.00555490       0.00796489      -5.93761069
Al       8.07792170       2.07671494      11.09933139      -0.00065354       0.00549760      -0.00191057      -4.36025921
Ni       6.57236130       3.43009303      -0.36933833       0.00201191       0.00059455      -0.00488207      -5.74852822
Al       7.60169576       5.30158290       1.15033198       0.00423273      -0.00041850      -0.00847482      -4.60405986
Al       6.01915448       2.96131629       3.54053290      -0.00072412       0.00595703       0.00010089      -3.84695060
Al       8.08734913       4.59868985       4.49319452      -0.00009045       0.00753112      -0.00133397      -3.87641481
Al       6.11396713       3.40874280       6.28463632      -0.00566180      -0.00622605       0.00051599      -3.72134874
Al       7.99030999       4.74487380       8.18907147       0.00030923      -0.00386442      -0.00314767      -4.19119643
Al       5.55176268       2.53650677       9.24843349      -0.00003558       0.00553185      -0.00863227      -4.09635833
Al       7.79052610       4.80047729      10.89145093      -0.00681841      -0.00723386       0.01246636      -4.46564422
Ni       5.89708022       5.88003517      -0.84195171       0.00013770       0.00167576      -0.00097429      -5.97391060
Al       8.41717467       7.95511323       1.08930646      -0.00142814       0.00697819      -0.00706170      -4.21816313
Ni       6.27959618       7.13762388       2.22393379       0.00032179      -0.00635048       0.00401136      -5.79669980
Al       8.05513170       7.28005574       3.91530944       0.00466595      -0.00183238       0.00296932      -4.01327578
Al       6.46681176       6.06147112       6.44965744       0.00541840       0.00656305      -0.00388841      -3.60579582
Al       7.84319751       7.59307774       8.18263667      -0.00053229      -0.00611620       0.00343346      -3.93576438
Al       5.79033656       5.97971157       9.21679624       0.00268967      -0.00340858       0.00002346      -3.82531457
Al       7.53607980       7.45318548      11.01169580       0.00077563       0.00565937      -0.00717640      -4.42344184
Al       6.15717142       9.79884105      -0.31758003      -0.00182301      -0.00737803      -0.00126798      -4.33491098
Al       8.06524017      11.28823453       0.91473068       0.00226192       0.00400545       0.00026924      -4.28137612
Al       6.58380990       9.54607204       2.61557184      -0.00022898      -0.00780325      -0.00194917      -3.98872712
Al       7.65590123      10.56702992       4.89340446      -0.00450431       0.00413572       0.00150271      -3.63958200
Al       6.04903171       8.53167616       5.57016337      -0.00426081      -0.00852898      -0.00165470      -3.83209915
Al       6.85519357      10.24124982       7.54483201      -0.00055310       0.00383266       0.00162406      -4.01027745
Ni       6.61853810       9.32077592       9.70550932      -0.00288693      -0.00013145       0.00703627      -6.05054486
Al       7.19146941      11.63404741      10.36358681       0.00082296       0.00432938      -0.00427352      -4.35865761
Ni       9.44197873      -0.19795285      -0.98363059       0.00660620       0.00270668      -0.01065317      -6.00127705
Al      10.01529295       1.29902912       0.83573271      -0.00233325       0.00600076       0.00262648      -4.35961238
Al       8.95800942       0.21197375       3.24576767       0.00865039       0.00356452       0.00636414      -3.68597798
Al      10.63641332       1.75588630       5.00318707      -0.00423777      -0.00260927       0.00587669      -4.21422875
Al       8.90189715      -0.39238366       6.78937611      -0.00386024       0.00407916      -0.00926826      -3.60924345
Al      10.84249687       2.02247877       7.62743048       0.01126132      -0.00234480      -0.00960423      -4.53090728
Al       9.53475583       0.46482731       9.24795375       0.00260861      -0.00341585       0.01305380      -4.03371467
Al      11.23162869       1.56442149      11.02896790      -0.00634251      -0.00759782      -0.00054273      -4.50103959
Ni       9.01437471       3.50998819       0.35693747      -0.00230781      -0.00678811      -0.00060688      -5.97216741
Al      11.21375363       4.30835644       1.16659413      -0.00312776      -0.00785427       0.00429905      -4.44332107
Al       9.26546205       3.08674335       2.69802605       0.00304454      -0.01227339      -0.00364795      -4.04978915
Al      11.21295835       4.37318991       3.99821092       0.00981548      -0.00854726       0.00232294      -4.30397049
Ni       9.22166824       3.50645478       6.50152398       0.00099080       0.00586932      -0.00283503      -6.09090504
Al      10.78446786       4.79330844       8.18542691       0.00205760       0.00387134       0.00059365      -4.51227446
Ni       9.35859234       3.04760981       9.23237043      -0.00050096       0.00074767       0.00344062      -6.02742363
Al      10.48704095       4.29503819      11.07101086      -0.00020629      -0.00630354      -0.00317384      -4.56517957
Ni       9.61900033       6.00412993      -0.09301006       0.00496113       0.00573603       0.00315405      -6.01530634
Al      11.21066581       7.29237786       1.30797492      -0.00716410       0.00029840      -0.00326462      -4.29201773
Ni       9.62688600       5.70214255       2.62137900       0.00241595       0.00150314       0.00038693      -6.05543567
Al      11.03515224       7.16621067       4.17066052      -0.00168981      -0.00392027      -0.00207416      -4.31423630
Al       9.52921734       6.01229876       6.17177784      -0.00040584      -0.00257627      -0.00144615      -3.94617282
Al      10.69657004       7.75241408       8.11584704       0.00155561      -0.00443436       0.00387704      -4.26941365
Ni       9.47484235       6.20676243       9.77605874       0.00015210      -0.00117600      -0.00319725      -6.15762290
Al      10.22094331       8.10144844      11.21208801      -0.00573575      -0.00073825       0.00369732      -4.47240604
Ni       8.52554657       9.57345569      -0.87098054      -0.00264439      -0.00339298      -0.00070702      -6.00654703
Al      10.42589399       9.97182213       0.72904330       0.00216934       0.00557158       0.00412441      -4.31108997
Al       9.49199697       9.58195420       3.18561080       0.00623937      -0.00135801      -0.00210577      -3.66401734
Al      10.92480394      10.98951353       5.16646376       0.00699893       0.00571093       0.00262975      -3.98281302
Al       9.28942464       8.86086967       6.06206902       0.00375256       0.00369714       0.00699137      -3.83615843
Al      11.58355015      10.42891421       7.90813068       0.00096528       0.01219064       0.00128427      -4.34772886
Al       8.99455868       9.82033304       9.24494466      -0.00151539      -0.00354184      -0.00218220      -3.98886851
Al      11.12585233      10.74326173      10.67021135      -0.00527979       0.01052213       0.00811957      -4.47106211
