128
Lattice="12.531159486035794 -0.35009242503724697 0.3086736148731338 -0.3482452183857927 12.00738347886738 0.027032757616650378 0.30828516795464833 0.031241217513442512 12.05233093972836" Properties=species:S:1:pos:R:3:forces:R:3:energies:R:1 energy=-610.8834090193923 stress="-8.628584218552445e-05 0.00010632555659478439 -0.00046538067167204057 0.00010632555659478439 6.120562631410994e-05 0.0002899821135288728 -0.00046538067167204057 0.0002899821135288728 -0.00013051782251338577" free_energy=-610.8834090193923 pbc="T T T"
Al      -0.20860638      -0.01850582      -0.19371206      -0.00248465      -0.00192128       0.00017740      -3.98596757
Al       1.42656186       1.23015591       1.47331924       0.00050403      -0.00269748       0.00536577      -4.32200608
Ni       0.23669550      -0.22492874       3.22340032       0.00152308       0.00287864      -0.00183038      -6.09882161
Al       1.65106868       1.49559018       4.23302295       0.00358966       0.00290693      -0.00013611      -4.50685247
Ni       0.46133925       0.07020817       5.90476565      -0.00091835       0.00040677       0.00312462      -6.07271428
Al       1.59195150       1.22063706       7.77932474      -0.00474245       0.00256136       0.00016849      -4.44535024
Ni      -0.11607559       0.48199669       9.45890695       0.00489048       0.00243187      -0.00787643      -5.97521131
Al       2.02394176       1.54854806      10.39890224      -0.00008346      -0.00263496      -0.00500378      -4.55806443
Ni       0.11820487       2.52805286      -0.07273830       0.00047681       0.00498954       0.00052813      -6.07164431
Al       1.34211082       4.11698754       1.55938188      -0.00035799       0.00077630       0.00077488      -4.44511456
Ni      -0.12705742       3.10423224       3.23199317       0.00058582      -0.00119915      -0.00800502      -6.06313593
Al       1.76185653       4.44096027       4.51484296       0.00213583       0.00037219       0.00208863      -4.32405553
Ni       0.51256944       2.71393169       5.91212806       0.00039703       0.00125369       0.00335584      -6.06571817
Al       1.58433631       4.06375536       7.74081367      -0.00011862      -0.00380530      -0.00183088      -4.48652969
Ni      -0.00335092       2.97017066       9.30775068       0.01031538      -0.00728206      -0.00424801      -6.03039570
Al       1.46300527       4.40422089      10.56987173       0.00328712       0.00674406       0.00310326      -4.53751981
Al      -0.28750489       6.06466451       0.23671082       0.00376143       0.00098721       0.00359560      -3.73382075
Al       1.14822542       7.84188061       1.57442762       0.00109867       0.00057196      -0.00107159      -4.28126661
Al      -0.21100665       5.69000576       2.96074822      -0.00731558       0.00154514       0.00245793      -3.76729013
Al       1.29941051       7.47058145       4.38727367      -0.00018705       0.00274763       0.00032001      -4.49064465
Al      -0.02731898       6.17977175       6.33966186      -0.00352614      -0.00299523      -0.00321739      -4.19717024
Al       1.57985225       7.76901807       7.76676714      -0.00350588      -0.00296282       0.00368452      -4.54462970
Ni       0.16275748       5.69160009       8.92917460       0.00023182       0.00746805      -0.00102744      -6.09472190
Al       1.48703828       7.40885177      10.39868690      -0.00995466       0.00323915      -0.00155074      -4.19332348
Al      -0.20659910       9.20019003      -0.32613506      -0.00264902       0.00299068      -0.00118849      -3.88165900
Al       1.32533752      10.47172825       1.82288359      -0.00181001       0.00393382      -0.00412015      -4.27452539
Ni      -0.30158730       9.08084073       3.34377725       0.00052208      -0.00024342       0.00181747      -6.12225834
Al       1.46084765      10.40386689       4.53225444       0.00555669       0.00640114       0.00283323      -4.60416433
Ni       0.13287189       8.82146306       6.03109788       0.00249183      -0.00294613       0.00042901      -6.15484034
Al       1.58359750      10.41522184       7.20465109      -0.00085437       0.00199909      -0.00238867      -4.28516477
Ni       0.03571150       9.17713743       8.93026138      -0.00180928      -0.00351721       0.00717079      -6.04767268
Al       1.30585560      10.91767064       9.90534333       0.00377549      -0.00381301       0.00309279      -4.14102903
Ni       3.58480069       0.26588162       0.50781771      -0.00455416       0.00273953       0.00467647      -6.03638052
Al       5.83189613       1.15224680       1.40763979       0.00380601       0.00638452       0.00109814      -4.28572639
Ni       3.06163430       0.02896850       2.99836638      -0.00043941       0.00213382       0.00278751      -6.12302292
Al       4.73025219       1.27807970       4.29158528       0.00128856       0.00980487      -0.00288493      -4.16923818
Ni       3.20281306       0.06556693       5.82344023       0.00373916      -0.00392759       0.00341622      -6.13204614
Al       4.67679096       0.67036543       7.93552216       0.00070549       0.00712501       0.00057141      -4.26017668
Ni       3.92272095      -0.27894254      10.07593134      -0.00031738      -0.00289790       0.00120187      -5.76938500
Al       4.75712491       1.82253674      10.89956586       0.00004761       0.00300864       0.00061648      -4.20305407
Ni       2.65791446       3.07405043      -0.01971313       0.00128782       0.00239765      -0.00259640      -6.00475887
Al       4.14682311       4.84597364       1.28818910       0.00217166       0.00019778      -0.00154802      -4.28273733
Al       3.64766828       2.33606246       2.09868754      -0.00478642       0.00319411       0.00274235      -4.22437671
Al       4.63492756       4.08052806       4.42052863      -0.00156929      -0.00085424       0.00523471      -3.82370792
Al       3.28581435       2.51697449       6.22564485       0.00397001      -0.00152760      -0.00272170      -3.95054542
Al       4.28605760       4.64988308       7.53284633       0.00309226      -0.00063400       0.00256583      -4.15398675
Ni       3.64231736       2.64779131       8.75020147       0.00462642       0.00157271       0.00125575      -6.11719037
Al       4.22470246       4.50494165      10.47120266      -0.00167852      -0.00446008       0.00097928      -4.23558177
Ni       2.34591582       5.89751786       0.04271349      -0.00291698      -0.00100337       0.00034425      -6.20425507
Al       3.82786396       7.61257553       1.09690602       0.00311199       0.00184089       0.00755407      -4.28226763
Ni       2.38835099       6.12608676       2.59534646       0.00350251      -0.00514265       0.00011765      -5.95391793
Al       3.88212123       6.72230509       4.44707076       0.00853330      -0.00394003       0.00108541      -4.40144393
Ni       2.42150253       5.99679893       6.36101304      -0.00293082      -0.00201610       0.00132161      -5.96014455
Al       4.22933571       7.34689096       7.32541097       0.00594927       0.00055685      -0.00094300      -4.34343583
Ni       2.75961541       5.91877345       8.92313832       0.00052608       0.00298356      -0.00532589      -6.07194323
Al       4.13512281       7.18224097      10.49522007       0.00713827       0.00666221      -0.00204695      -3.91949004
Al       2.74025679       9.87687754      -0.29204445      -0.00196222       0.00109421      -0.00022754      -3.85339378
Al       4.55840502      10.63788728       1.76704203      -0.00157084      -0.00895211       0.00383917      -4.43932392
Ni       2.98984691       8.75637737       3.08514252       0.00264415       0.00152650       0.00495347      -6.14680596
Al       4.25258811      10.50694500       4.33312272       0.00144865       0.00283507      -0.00518815      -4.36821802
Ni       2.84191308       8.69219903       5.79510809      -0.00026267       0.00319861       0.00120938      -6.12782420
Al       4.38994037      10.27750145       6.83205710      -0.00054070      -0.00113848      -0.01032599      -4.21658284
Al       3.59038172       9.45508165       9.21115160      -0.00216808       0.00008651       0.00944153      -3.89287625
Al       5.60091914      11.17712253      11.22761478      -0.00291432      -0.00048627      -0.00504151      -4.48281452
Ni       7.23267521      -0.63651237       0.94873440       0.00401123       0.00002231       0.00170128      -5.84656736
Al       8.68328140       1.31397587       1.73599165      -0.00256015      -0.00145480       0.00099325      -4.40835551
Ni       6.60758486      -0.15030797       3.43930507       0.00262282      -0.00014912      -0.00121614      -6.07370616
Al       7.25384436       2.24880081       3.94415311      -0.00609139       0.00162618       0.00555834      -4.35246830
Al       6.70511884       0.39381984       5.94901182      -0.00215295      -0.00565197      -0.00403287      -3.99724034
Al       7.48564357       0.52588959       8.57964726      -0.00161475       0.00065836      -0.00180304      -3.93010228
Ni       6.02858748      -1.34640032       8.79003017       0.00312859       0.00175052       0.00380508      -5.87233440
Al       8.30364731       0.81248277      11.25007536       0.00302764       0.00204956      -0.00353365      -4.17590635
Al       6.38154448       3.51120360       0.04061096      -0.00097690      -0.00076619      -0.00048355      -3.97910969
Al       8.25017726       3.99127762       2.15481013      -0.00131840       0.00015911       0.00392145      -4.10225393
Ni       5.78378305       3.43349254       2.39778553      -0.00292404      -0.00709805       0.00178804      -5.94218627
Al       8.68920795       4.69857870       4.80543487       0.00382374      -0.00457187      -0.00069527      -4.16547332
Al       6.20288165       3.03311594       6.40548833       0.00035904      -0.00485198       0.00249125      -3.62420470
Al       8.24439287       4.34970760       7.63258065      -0.00086789      -0.00609381      -0.00461947      -4.01723323
Al       6.24687504       3.14356267       9.09779250      -0.00364677       0.00013242       0.00089434      -3.77276425
Al       8.20007338       4.82534384      10.35538630       0.00358605      -0.00085933       0.00590452      -4.00418333
Al       6.14977583       6.47242494      -0.19609150      -0.00346634       0.00126851       0.00001872      -3.77320481
Al       7.95408780       8.06366934       1.66877914      -0.00495327      -0.00036120      -0.00054856      -4.30381298
Al       6.37916034       5.72954392       3.02037409       0.00165689      -0.00089232       0.00530619      -3.97417669
Al       7.72855489       7.50824004       4.82161505       0.00121883      -0.00485999      -0.00075313      -4.26060659
Al       6.18168418       5.80504857       6.06903131       0.00241206      -0.00022339       0.00214321      -3.74318348
Al       8.40328387       6.98088814       7.58481742      -0.00100283       0.00520425      -0.00000524      -4.16066408
Al       6.20594284       6.13548864       8.97772113      -0.00464950      -0.00148097       0.00228399      -3.73799183
Al       8.69666542       7.46851867      10.39590884      -0.00371305      -0.00335518      -0.00291930      -3.98219349
Ni       5.90371133       8.91313835       0.56185176      -0.00529161       0.00027353      -0.00130361      -5.95205750
Al       8.43514209      10.79815308       2.70510200      -0.00245563      -0.00197993      -0.00084101      -4.31261876
Al       5.57615415       8.44013213       2.96640617       0.00048458      -0.00114087      -0.00627864      -4.08049754
Al       7.32050179      10.07754762       4.91872454       0.00169034      -0.00001659      -0.00436631      -4.28500599
Ni       5.35602484       8.46675687       5.35416252       0.00260682       0.00382009       0.00786974      -6.06344235
Al       6.58739745       8.83011258       7.33173474      -0.00612819      -0.00445916      -0.00798749      -4.13159588
Al       6.25937020       8.70248172      10.12361222      -0.00567201      -0.00084161      -0.00639230      -4.04652661
Al       8.28158236       9.86099386      11.64862590       0.00233487      -0.00029929       0.00030362      -4.29103719
Ni       9.84984736      -0.54005246       0.57223055      -0.00478672       0.00131083      -0.00666993      -6.14881841
Al      11.25796551       0.88092485       2.22827094      -0.01251993       0.00135245       0.00064536      -4.27010613
Ni       8.76166208       0.43265473       4.60386991      -0.00391721      -0.00527757      -0.00307167      -5.89914684
Al      11.26096485       0.92866940       4.93173726      -0.00187264      -0.00022642      -0.00088877      -4.48524538
Al       9.41575951      -0.48824111       6.72095790       0.00234048       0.00001790       0.00046556      -4.11087075
Al      11.44364451       1.22485112       7.76282158      -0.00202671      -0.00701145       0.00867223      -4.39951094
Ni       9.85908691       0.03118144       9.20073807       0.00016026       0.00134617      -0.00310275      -6.08156512
Al      10.89241631       1.47761844      11.21598742       0.00071075      -0.00118568      -0.00050818      -4.48040851
Ni       8.85918739       3.20613879      -0.15004336      -0.00568556       0.00116601       0.00165818      -6.12724750
Al      10.90450708       3.46528717       1.53550029       0.00422398      -0.00411788       0.00283726      -4.25458467
Ni       9.74349575       2.56129614       3.61736335      -0.00234415      -0.00369695       0.00031553      -6.13519660
Al      11.19777795       3.73994710       5.27824867      -0.00633143       0.00934688       0.00936532      -4.30785210
Al       8.95116103       2.20879389       6.19262843      -0.00189008      -0.01035608       0.00506634      -4.02508648
Al      11.19535495       3.85745842       7.97167264      -0.00420744       0.00668612      -0.01545295      -4.33529176
Al       9.17884484       2.44065723       9.32129925      -0.00107198       0.00052072       0.00232054      -3.89667377
Al      11.08678486       4.23859958      10.76389750      -0.00102507       0.00357455       0.00144551      -4.36510163
Al       9.34017533       5.83351248       0.54808267      -0.00356698      -0.00376232      -0.00429030      -4.09705511
Al      10.81064010       7.36924993       2.20399313      -0.00239609       0.00092769      -0.00451351      -4.28404436
Ni       8.73861187       6.28582301       2.98297740       0.00029043      -0.00116084       0.00364193      -5.79507690
Al      10.70353986       7.25505209       5.02555213       0.00222217      -0.00041526      -0.00458847      -4.48244899
Ni      10.13098582       5.49356711       6.56241487       0.01220636      -0.00646336      -0.00435315      -5.86445739
Al      10.85032736       7.78643654       7.81008484       0.00326879      -0.00207307      -0.00093871      -4.38871041
Ni       9.97524431       5.77911153       9.01547566      -0.00213650      -0.00668637      -0.00254716      -6.07869925
Al      11.33097904       7.09483461      10.45747472       0.00689459       0.00101352       0.00069891      -4.22417628
Ni       9.89262311       8.39846406       0.10974461      -0.00279522       0.00890037       0.00006601      -6.06863538
Al      10.89594383      10.05691677       2.10118747       0.00219832      -0.00196866       0.00095030      -4.32941396
Ni       9.40502254       8.78000965       3.72947432       0.00381083       0.01032654      -0.00273125      -5.98365236
Al      10.99563258      10.08101132       5.18880559       0.00066386       0.00124795      -0.00363973      -4.48345482
Ni       9.01412137       9.05915593       6.46600195       0.00552890      -0.00608615      -0.00090639      -6.10514741
Al      11.33886245      10.49716169       7.92991440       0.00244504       0.00325811      -0.00895855      -4.31429537
Al       8.36731515       9.93378325       8.82293958       0.00344763       0.00364721       0.00743162      -4.00149442
Al      10.68594655      10.19216770      10.49654392       0.00088031      -0.00326198       0.00562165      -4.45729905
