128
Lattice="11.54544396868496 3.891405424986475e-19 1.9574955037204938e-19 6.406924476655057e-18 11.545443968681369 -2.9543910046800223e-15 5.331980044169721e-18 1.4215775982662076e-13 11.545443968682795" Properties=species:S:1:pos:R:3:forces:R:3:energies:R:1 energy=-690.4355645580682 stress="-0.00030178539691696723 -1.997310349254079e-17 -1.3545933014521246e-17 -1.997310349254079e-17 -0.00030178539701224334 7.048969015147621e-15 -1.3545933014521246e-17 7.048969015147621e-15 -0.0003017853969743608" free_energy=-690.4355645580682 pbc="T T T"
Ni       0.00000000       0.04457684       0.00000000       0.00000000      -0.00002010       0.00000000      -6.31443233
Al       1.51145812       1.37490287       1.51145812      -0.00641138       0.00641138      -0.00641138      -4.50654054
Ni       0.00000000      -0.00546824       2.89182923       0.00000000      -0.00582940       0.00582940      -6.23259658
Al       1.44136819       1.44499280       4.33168309       0.00586671      -0.00586671       0.00209416      -4.58398750
Ni       0.00000000       0.00762421       5.77272198       0.00000000       0.00133610       0.00000000      -6.24187271
Al       1.44136819       1.44499280       7.21376088       0.00586671      -0.00586671      -0.00209416      -4.58398750
Ni       0.00000000      -0.00546824       8.65361474       0.00000000      -0.00582940      -0.00582940      -6.23259658
Al       1.51145812       1.37490287      10.03398585      -0.00641138       0.00641138       0.00641138      -4.50654054
Al       0.00000000       2.88636099       0.00000000       0.00000000      -0.00000000       0.00000000      -3.74947701
Al       1.51145812       4.39781912       1.51145812      -0.00641138      -0.00641138      -0.00641138      -4.50654054
Ni       0.00000000       2.88636099       2.84178415       0.00000000      -0.00000000       0.00002010      -6.31443233
Al       1.44136819       4.32772919       4.33168309       0.00586671       0.00586671       0.00209416      -4.58398750
Ni       0.00000000       2.88636099       5.77272198       0.00000000      -0.00000000      -0.00000000      -6.22540975
Al       1.44136819       4.32772919       7.21376088       0.00586671       0.00586671      -0.00209416      -4.58398750
Ni       0.00000000       2.88636099       8.70365981       0.00000000       0.00000000      -0.00002010      -6.31443233
Al       1.51145812       4.39781912      10.03398585      -0.00641138      -0.00641138       0.00641138      -4.50654054
Ni       0.00000000       5.72814515       0.00000000       0.00000000       0.00002010       0.00000000      -6.31443233
Al       1.44136819       7.21804408       1.44136819       0.00586671       0.00209416       0.00586671      -4.58398750
Ni       0.00000000       5.77819022       2.89182923       0.00000000       0.00582940       0.00582940      -6.23259658
Al       1.43818325       7.21861805       4.33225706       0.01907739      -0.00003209      -0.00003209      -4.59589893
Ni       0.00000000       5.76509778       5.77272198       0.00000000      -0.00133610      -0.00000000      -6.24187271
Al       1.43818325       7.21861805       7.21318691       0.01907739      -0.00003209       0.00003209      -4.59589893
Ni       0.00000000       5.77819022       8.65361474       0.00000000       0.00582940      -0.00582940      -6.23259658
Al       1.44136819       7.21804408      10.10407577       0.00586671       0.00209416      -0.00586671      -4.58398750
Ni       0.00000000       8.65908298       0.00000000      -0.00000000      -0.00000000       0.00000000      -6.22540975
Al       1.44136819      10.10012187       1.44136819       0.00586671      -0.00209416       0.00586671      -4.58398750
Ni       0.00000000       8.65908298       2.87873679      -0.00000000       0.00000000      -0.00133610      -6.24187271
Al       1.43818325      10.09954790       4.33225706       0.01907739       0.00003209      -0.00003209      -4.59589893
Ni       0.00000000       8.65908298       5.77272198       0.00000000       0.00000000      -0.00000000      -6.24426008
Al       1.43818325      10.09954790       7.21318691       0.01907739       0.00003209       0.00003209      -4.59589893
Ni       0.00000000       8.65908298       8.66670718      -0.00000000      -0.00000000       0.00133610      -6.24187271
Al       1.44136819      10.10012187      10.10407577       0.00586671      -0.00209416      -0.00586671      -4.58398750
Ni       2.89182923      -0.00546824       0.00000000       0.00582940      -0.00582940      -0.00000000      -6.23259658
Al       4.33168309       1.44499280       1.44136819       0.00209416      -0.00586671       0.00586671      -4.58398750
Ni       2.91076246      -0.02440147       2.91076246       0.00172510      -0.00172510       0.00172510      -6.23729443
Al       4.33225706       1.44817774       4.33225706      -0.00003209      -0.01907739      -0.00003209      -4.59589893
Ni       2.88800539      -0.00164439       5.77272198      -0.00301049       0.00301049      -0.00000000      -6.24431197
Al       4.33225706       1.44817774       7.21318691      -0.00003209      -0.01907739       0.00003209      -4.59589893
Ni       2.91076246      -0.02440147       8.63468150       0.00172510      -0.00172510      -0.00172510      -6.23729443
Al       4.33168309       1.44499280      10.10407577       0.00209416      -0.00586671      -0.00586671      -4.58398750
Ni       2.84178415       2.88636099       0.00000000       0.00002010      -0.00000000       0.00000000      -6.31443233
Al       4.33168309       4.32772919       1.44136819       0.00209416       0.00586671       0.00586671      -4.58398750
Ni       2.89182923       2.88636099       2.89182923       0.00582940      -0.00000000       0.00582940      -6.23259658
Al       4.33225706       4.32454425       4.33225706      -0.00003209       0.01907739      -0.00003209      -4.59589893
Ni       2.87873679       2.88636099       5.77272198      -0.00133610      -0.00000000      -0.00000000      -6.24187271
Al       4.33225706       4.32454425       7.21318691      -0.00003209       0.01907739       0.00003209      -4.59589893
Ni       2.89182923       2.88636099       8.65361474       0.00582940       0.00000000      -0.00582940      -6.23259658
Al       4.33168309       4.32772919      10.10407577       0.00209416       0.00586671      -0.00586671      -4.58398750
Ni       2.89182923       5.77819022       0.00000000       0.00582940       0.00582940       0.00000000      -6.23259658
Al       4.33225706       7.21861805       1.43818325      -0.00003209      -0.00003209       0.01907739      -4.59589893
Ni       2.91076246       5.79712346       2.91076246       0.00172510       0.00172510       0.00172510      -6.23729443
Al       4.33797332       7.22433431       4.33797332      -0.00045399      -0.00045399      -0.00045399      -4.59784899
Ni       2.88800539       5.77436638       5.77272198      -0.00301049      -0.00301049      -0.00000000      -6.24431197
Al       4.33797332       7.22433431       7.20747065      -0.00045399      -0.00045399       0.00045399      -4.59784899
Ni       2.91076246       5.79712346       8.63468150       0.00172510       0.00172510      -0.00172510      -6.23729443
Al       4.33225706       7.21861805      10.10726071      -0.00003209      -0.00003209      -0.01907739      -4.59589893
Ni       2.87873679       8.65908298       0.00000000      -0.00133610       0.00000000       0.00000000      -6.24187271
Al       4.33225706      10.09954790       1.43818325      -0.00003209       0.00003209       0.01907739      -4.59589893
Ni       2.88800539       8.65908298       2.88800539      -0.00301049       0.00000000      -0.00301049      -6.24431197
Al       4.33797332      10.09383164       4.33797332      -0.00045399       0.00045399      -0.00045399      -4.59784899
Ni       2.87775519       8.65908298       5.77272198       0.01378818       0.00000000       0.00000000      -6.24441408
Al       4.33797332      10.09383164       7.20747065      -0.00045399       0.00045399       0.00045399      -4.59784899
Ni       2.88800539       8.65908298       8.65743858      -0.00301049      -0.00000000       0.00301049      -6.24431197
Al       4.33225706      10.09954790      10.10726071      -0.00003209       0.00003209      -0.01907739      -4.59589893
Ni       5.77272198       0.00762421       0.00000000      -0.00000000       0.00133610       0.00000000      -6.24187271
Al       7.21376088       1.44499280       1.44136819      -0.00209416      -0.00586671       0.00586671      -4.58398750
Ni       5.77272198      -0.00164439       2.88800539      -0.00000000       0.00301049      -0.00301049      -6.24431197
Al       7.21318691       1.44817774       4.33225706       0.00003209      -0.01907739      -0.00003209      -4.59589893
Ni       5.77272198       0.00860581       5.77272198      -0.00000000      -0.01378818      -0.00000000      -6.24441408
Al       7.21318691       1.44817774       7.21318691       0.00003209      -0.01907739       0.00003209      -4.59589893
Ni       5.77272198      -0.00164439       8.65743858      -0.00000000       0.00301049       0.00301049      -6.24431197
Al       7.21376088       1.44499280      10.10407577      -0.00209416      -0.00586671      -0.00586671      -4.58398750
Ni       5.77272198       2.88636099       0.00000000      -0.00000000       0.00000000       0.00000000      -6.22540975
Al       7.21376088       4.32772919       1.44136819      -0.00209416       0.00586671       0.00586671      -4.58398750
Ni       5.77272198       2.88636099       2.87873679      -0.00000000      -0.00000000      -0.00133610      -6.24187271
Al       7.21318691       4.32454425       4.33225706       0.00003209       0.01907739      -0.00003209      -4.59589893
Ni       5.77272198       2.88636099       5.77272198      -0.00000000       0.00000000      -0.00000000      -6.24426008
Al       7.21318691       4.32454425       7.21318691       0.00003209       0.01907739       0.00003209      -4.59589893
Ni       5.77272198       2.88636099       8.66670718      -0.00000000      -0.00000000       0.00133610      -6.24187271
Al       7.21376088       4.32772919      10.10407577      -0.00209416       0.00586671      -0.00586671      -4.58398750
Ni       5.77272198       5.76509778       0.00000000      -0.00000000      -0.00133610       0.00000000      -6.24187271
Al       7.21318691       7.21861805       1.43818325       0.00003209      -0.00003209       0.01907739      -4.59589893
Ni       5.77272198       5.77436638       2.88800539      -0.00000000      -0.00301049      -0.00301049      -6.24431197
Al       7.20747065       7.22433431       4.33797332       0.00045399      -0.00045399      -0.00045399      -4.59784899
Ni       5.77272198       5.76411618       5.77272198      -0.00000000       0.01378818      -0.00000000      -6.24441408
Al       7.20747065       7.22433431       7.20747065       0.00045399      -0.00045399       0.00045399      -4.59784899
Ni       5.77272198       5.77436638       8.65743858      -0.00000000      -0.00301049       0.00301049      -6.24431197
Al       7.21318691       7.21861805      10.10726071       0.00003209      -0.00003209      -0.01907739      -4.59589893
Ni       5.77272198       8.65908298       0.00000000      -0.00000000       0.00000000       0.00000000      -6.24426008
Al       7.21318691      10.09954790       1.43818325       0.00003209       0.00003209       0.01907739      -4.59589893
Ni       5.77272198       8.65908298       2.87775519      -0.00000000       0.00000000       0.01378818      -6.24441408
Al       7.20747065      10.09383164       4.33797332       0.00045399       0.00045399      -0.00045399      -4.59784899
Ni       5.77272198       8.65908298       5.77272198      -0.00000000       0.00000000      -0.00000000      -6.24787849
Al       7.20747065      10.09383164       7.20747065       0.00045399       0.00045399       0.00045399      -4.59784899
Ni       5.77272198       8.65908298       8.66768878      -0.00000000       0.00000000      -0.01378818      -6.24441408
Al       7.21318691      10.09954790      10.10726071       0.00003209       0.00003209      -0.01907739      -4.59589893
Ni       8.65361474      -0.00546824       0.00000000      -0.00582940      -0.00582940       0.00000000      -6.23259658
Al      10.03398585       1.37490287       1.51145812       0.00641138       0.00641138      -0.00641138      -4.50654054
Ni       8.63468150      -0.02440147       2.91076246      -0.00172510      -0.00172510       0.00172510      -6.23729443
Al      10.10407577       1.44499280       4.33168309      -0.00586671      -0.00586671       0.00209416      -4.58398750
Ni       8.65743858      -0.00164439       5.77272198       0.00301049       0.00301049       0.00000000      -6.24431197
Al      10.10407577       1.44499280       7.21376088      -0.00586671      -0.00586671      -0.00209416      -4.58398750
Ni       8.63468150      -0.02440147       8.63468150      -0.00172510      -0.00172510      -0.00172510      -6.23729443
Al      10.03398585       1.37490287      10.03398585       0.00641138       0.00641138       0.00641138      -4.50654054
Ni       8.70365981       2.88636099       0.00000000      -0.00002010      -0.00000000       0.00000000      -6.31443233
Al      10.03398585       4.39781912       1.51145812       0.00641138      -0.00641138      -0.00641138      -4.50654054
Ni       8.65361474       2.88636099       2.89182923      -0.00582940      -0.00000000       0.00582940      -6.23259658
Al      10.10407577       4.32772919       4.33168309      -0.00586671       0.00586671       0.00209416      -4.58398750
Ni       8.66670718       2.88636099       5.77272198       0.00133610      -0.00000000      -0.00000000      -6.24187271
Al      10.10407577       4.32772919       7.21376088      -0.00586671       0.00586671      -0.00209416      -4.58398750
Ni       8.65361474       2.88636099       8.65361474      -0.00582940       0.00000000      -0.00582940      -6.23259658
Al      10.03398585       4.39781912      10.03398585       0.00641138      -0.00641138       0.00641138      -4.50654054
Ni       8.65361474       5.77819022       0.00000000      -0.00582940       0.00582940       0.00000000      -6.23259658
Al      10.10407577       7.21804408       1.44136819      -0.00586671       0.00209416       0.00586671      -4.58398750
Ni       8.63468150       5.79712346       2.91076246      -0.00172510       0.00172510       0.00172510      -6.23729443
Al      10.10726071       7.21861805       4.33225706      -0.01907739      -0.00003209      -0.00003209      -4.59589893
Ni       8.65743858       5.77436638       5.77272198       0.00301049      -0.00301049      -0.00000000      -6.24431197
Al      10.10726071       7.21861805       7.21318691      -0.01907739      -0.00003209       0.00003209      -4.59589893
Ni       8.63468150       5.79712346       8.63468150      -0.00172510       0.00172510      -0.00172510      -6.23729443
Al      10.10407577       7.21804408      10.10407577      -0.00586671       0.00209416      -0.00586671      -4.58398750
Ni       8.66670718       8.65908298       0.00000000       0.00133610       0.00000000       0.00000000      -6.24187271
Al      10.10407577      10.10012187       1.44136819      -0.00586671      -0.00209416       0.00586671      -4.58398750
Ni       8.65743858       8.65908298       2.88800539       0.00301049       0.00000000      -0.00301049      -6.24431197
Al      10.10726071      10.09954790       4.33225706      -0.01907739       0.00003209      -0.00003209      -4.59589893
Ni       8.66768878       8.65908298       5.77272198      -0.01378818       0.00000000       0.00000000      -6.24441408
Al      10.10726071      10.09954790       7.21318691      -0.01907739       0.00003209       0.00003209      -4.59589893
Ni       8.65743858       8.65908298       8.65743858       0.00301049       0.00000000       0.00301049      -6.24431197
Al      10.10407577      10.10012187      10.10407577      -0.00586671      -0.00209416      -0.00586671      -4.58398750
