128
Lattice="11.545443968683179 -1.1547463310331268e-19 4.742829814778627e-19 1.2688097546509726e-17 11.545443968682711 -7.117535833516796e-13 3.4305598086388515e-18 -5.41597753472539e-13 11.545443968683538" Properties=species:S:1:pos:R:3:forces:R:3:energies:R:1 energy=-690.4355645580683 stress="-0.0003017853969390505 2.003645541706949e-17 -1.3833745241057365e-17 2.003645541706949e-17 -0.00030178539695094195 -6.344833120880493e-14 -1.3833745241057365e-17 -6.344833120880493e-14 -0.00030178539692847354" free_energy=-690.4355645580683 pbc="T T T"
Ni       0.00000000       0.00546824      -0.00546824       0.00000000       0.00582940      -0.00582940      -6.23259658
Al       1.44136819       1.44532210       1.44499280       0.00586671       0.00209416      -0.00586671      -4.58398750
Ni       0.00000000      -0.04457684       2.88636099       0.00000000       0.00002010      -0.00000000      -6.31443233
Al       1.44136819       1.44532210       4.32772919       0.00586671       0.00209416       0.00586671      -4.58398750
Ni       0.00000000       0.00546824       5.77819022       0.00000000       0.00582940       0.00582940      -6.23259658
Al       1.43818325       1.44589607       7.21861805       0.01907739      -0.00003209      -0.00003209      -4.59589893
Ni       0.00000000      -0.00762421       8.65908298       0.00000000      -0.00133610      -0.00000000      -6.24187271
Al       1.43818325       1.44589607      10.09954790       0.01907739      -0.00003209       0.00003209      -4.59589893
Ni       0.00000000       2.88636099       0.00762421       0.00000000       0.00000000       0.00133610      -6.24187271
Al       1.44136819       4.32739989       1.44499280       0.00586671      -0.00209416      -0.00586671      -4.58398750
Ni       0.00000000       2.88636099       2.88636099       0.00000000       0.00000000      -0.00000000      -6.22540975
Al       1.44136819       4.32739989       4.32772919       0.00586671      -0.00209416       0.00586671      -4.58398750
Ni       0.00000000       2.88636099       5.76509778       0.00000000      -0.00000000      -0.00133610      -6.24187271
Al       1.43818325       4.32682592       7.21861805       0.01907739       0.00003209      -0.00003209      -4.59589893
Ni       0.00000000       2.88636099       8.65908298      -0.00000000      -0.00000000       0.00000000      -6.24426008
Al       1.43818325       4.32682592      10.09954790       0.01907739       0.00003209       0.00003209      -4.59589893
Ni       0.00000000       5.76725375      -0.00546824       0.00000000      -0.00582940      -0.00582940      -6.23259658
Al       1.51145812       7.14762485       1.37490287      -0.00641138       0.00641138       0.00641138      -4.50654054
Ni       0.00000000       5.81729882       2.88636099       0.00000000      -0.00002010       0.00000000      -6.31443233
Al       1.51145812       7.14762485       4.39781912      -0.00641138       0.00641138      -0.00641138      -4.50654054
Ni       0.00000000       5.76725375       5.77819022       0.00000000      -0.00582940       0.00582940      -6.23259658
Al       1.44136819       7.21771478       7.21804408       0.00586671      -0.00586671       0.00209416      -4.58398750
Ni       0.00000000       5.78034619       8.65908298       0.00000000       0.00133610       0.00000000      -6.24187271
Al       1.44136819       7.21771478      10.10012187       0.00586671      -0.00586671      -0.00209416      -4.58398750
Ni       0.00000000       8.65908298       0.04457684       0.00000000       0.00000000      -0.00002010      -6.31443233
Al       1.51145812      10.17054110       1.37490287      -0.00641138      -0.00641138       0.00641138      -4.50654054
Al       0.00000000       8.65908298       2.88636099       0.00000000       0.00000000       0.00000000      -3.74947701
Al       1.51145812      10.17054110       4.39781912      -0.00641138      -0.00641138      -0.00641138      -4.50654054
Ni       0.00000000       8.65908298       5.72814515       0.00000000       0.00000000       0.00002010      -6.31443233
Al       1.44136819      10.10045117       7.21804408       0.00586671       0.00586671       0.00209416      -4.58398750
Ni       0.00000000       8.65908298       8.65908298       0.00000000       0.00000000      -0.00000000      -6.22540975
Al       1.44136819      10.10045117      10.10012187       0.00586671       0.00586671      -0.00209416      -4.58398750
Ni       2.91076246       0.02440147      -0.02440147       0.00172510       0.00172510      -0.00172510      -6.23729443
Al       4.33225706       1.44589607       1.44817774      -0.00003209      -0.00003209      -0.01907739      -4.59589893
Ni       2.89182923       0.00546824       2.88636099       0.00582940       0.00582940       0.00000000      -6.23259658
Al       4.33225706       1.44589607       4.32454425      -0.00003209      -0.00003209       0.01907739      -4.59589893
Ni       2.91076246       0.02440147       5.79712346       0.00172510       0.00172510       0.00172510      -6.23729443
Al       4.33797332       1.45161233       7.22433431      -0.00045399      -0.00045399      -0.00045399      -4.59784899
Ni       2.88800539       0.00164439       8.65908298      -0.00301049      -0.00301049       0.00000000      -6.24431197
Al       4.33797332       1.45161233      10.09383164      -0.00045399      -0.00045399       0.00045399      -4.59784899
Ni       2.88800539       2.88636099      -0.00164439      -0.00301049      -0.00000000       0.00301049      -6.24431197
Al       4.33225706       4.32682592       1.44817774      -0.00003209       0.00003209      -0.01907739      -4.59589893
Ni       2.87873679       2.88636099       2.88636099      -0.00133610       0.00000000      -0.00000000      -6.24187271
Al       4.33225706       4.32682592       4.32454425      -0.00003209       0.00003209       0.01907739      -4.59589893
Ni       2.88800539       2.88636099       5.77436638      -0.00301049      -0.00000000      -0.00301049      -6.24431197
Al       4.33797332       4.32110966       7.22433431      -0.00045399       0.00045399      -0.00045399      -4.59784899
Ni       2.87775519       2.88636099       8.65908298       0.01378818      -0.00000000      -0.00000000      -6.24441408
Al       4.33797332       4.32110966      10.09383164      -0.00045399       0.00045399       0.00045399      -4.59784899
Ni       2.91076246       5.74832051      -0.02440147       0.00172510      -0.00172510      -0.00172510      -6.23729443
Al       4.33168309       7.21771478       1.44499280       0.00209416      -0.00586671      -0.00586671      -4.58398750
Ni       2.89182923       5.76725375       2.88636099       0.00582940      -0.00582940      -0.00000000      -6.23259658
Al       4.33168309       7.21771478       4.32772919       0.00209416      -0.00586671       0.00586671      -4.58398750
Ni       2.91076246       5.74832051       5.79712346       0.00172510      -0.00172510       0.00172510      -6.23729443
Al       4.33225706       7.22089972       7.21861805      -0.00003209      -0.01907739      -0.00003209      -4.59589893
Ni       2.88800539       5.77107759       8.65908298      -0.00301049       0.00301049      -0.00000000      -6.24431197
Al       4.33225706       7.22089972      10.09954790      -0.00003209      -0.01907739       0.00003209      -4.59589893
Ni       2.89182923       8.65908298      -0.00546824       0.00582940       0.00000000      -0.00582940      -6.23259658
Al       4.33168309      10.10045117       1.44499280       0.00209416       0.00586671      -0.00586671      -4.58398750
Ni       2.84178415       8.65908298       2.88636099       0.00002010       0.00000000      -0.00000000      -6.31443233
Al       4.33168309      10.10045117       4.32772919       0.00209416       0.00586671       0.00586671      -4.58398750
Ni       2.89182923       8.65908298       5.77819022       0.00582940       0.00000000       0.00582940      -6.23259658
Al       4.33225706      10.09726623       7.21861805      -0.00003209       0.01907739      -0.00003209      -4.59589893
Ni       2.87873679       8.65908298       8.65908298      -0.00133610      -0.00000000       0.00000000      -6.24187271
Al       4.33225706      10.09726623      10.09954790      -0.00003209       0.01907739       0.00003209      -4.59589893
Ni       5.77272198       0.00164439      -0.00164439       0.00000000      -0.00301049       0.00301049      -6.24431197
Al       7.21318691       1.44589607       1.44817774       0.00003209      -0.00003209      -0.01907739      -4.59589893
Ni       5.77272198      -0.00762421       2.88636099       0.00000000      -0.00133610      -0.00000000      -6.24187271
Al       7.21318691       1.44589607       4.32454425       0.00003209      -0.00003209       0.01907739      -4.59589893
Ni       5.77272198       0.00164439       5.77436638       0.00000000      -0.00301049      -0.00301049      -6.24431197
Al       7.20747065       1.45161233       7.22433431       0.00045399      -0.00045399      -0.00045399      -4.59784899
Ni       5.77272198      -0.00860581       8.65908298       0.00000000       0.01378818      -0.00000000      -6.24441408
Al       7.20747065       1.45161233      10.09383164       0.00045399      -0.00045399       0.00045399      -4.59784899
Ni       5.77272198       2.88636099       0.00860581       0.00000000      -0.00000000      -0.01378818      -6.24441408
Al       7.21318691       4.32682592       1.44817774       0.00003209       0.00003209      -0.01907739      -4.59589893
Ni       5.77272198       2.88636099       2.88636099       0.00000000      -0.00000000       0.00000000      -6.24426008
Al       7.21318691       4.32682592       4.32454425       0.00003209       0.00003209       0.01907739      -4.59589893
Ni       5.77272198       2.88636099       5.76411618       0.00000000      -0.00000000       0.01378818      -6.24441408
Al       7.20747065       4.32110966       7.22433431       0.00045399       0.00045399      -0.00045399      -4.59784899
Ni       5.77272198       2.88636099       8.65908298       0.00000000       0.00000000      -0.00000000      -6.24787849
Al       7.20747065       4.32110966      10.09383164       0.00045399       0.00045399       0.00045399      -4.59784899
Ni       5.77272198       5.77107759      -0.00164439       0.00000000       0.00301049       0.00301049      -6.24431197
Al       7.21376088       7.21771478       1.44499280      -0.00209416      -0.00586671      -0.00586671      -4.58398750
Ni       5.77272198       5.78034619       2.88636099       0.00000000       0.00133610       0.00000000      -6.24187271
Al       7.21376088       7.21771478       4.32772919      -0.00209416      -0.00586671       0.00586671      -4.58398750
Ni       5.77272198       5.77107759       5.77436638       0.00000000       0.00301049      -0.00301049      -6.24431197
Al       7.21318691       7.22089972       7.21861805       0.00003209      -0.01907739      -0.00003209      -4.59589893
Ni       5.77272198       5.78132779       8.65908298       0.00000000      -0.01378818       0.00000000      -6.24441408
Al       7.21318691       7.22089972      10.09954790       0.00003209      -0.01907739       0.00003209      -4.59589893
Ni       5.77272198       8.65908298       0.00762421       0.00000000       0.00000000       0.00133610      -6.24187271
Al       7.21376088      10.10045117       1.44499280      -0.00209416       0.00586671      -0.00586671      -4.58398750
Ni       5.77272198       8.65908298       2.88636099       0.00000000       0.00000000       0.00000000      -6.22540975
Al       7.21376088      10.10045117       4.32772919      -0.00209416       0.00586671       0.00586671      -4.58398750
Ni       5.77272198       8.65908298       5.76509778       0.00000000       0.00000000      -0.00133610      -6.24187271
Al       7.21318691      10.09726623       7.21861805       0.00003209       0.01907739      -0.00003209      -4.59589893
Ni       5.77272198       8.65908298       8.65908298       0.00000000       0.00000000       0.00000000      -6.24426008
Al       7.21318691      10.09726623      10.09954790       0.00003209       0.01907739       0.00003209      -4.59589893
Ni       8.63468150       0.02440147      -0.02440147      -0.00172510       0.00172510      -0.00172510      -6.23729443
Al      10.10407577       1.44532210       1.44499280      -0.00586671       0.00209416      -0.00586671      -4.58398750
Ni       8.65361474       0.00546824       2.88636099      -0.00582940       0.00582940       0.00000000      -6.23259658
Al      10.10407577       1.44532210       4.32772919      -0.00586671       0.00209416       0.00586671      -4.58398750
Ni       8.63468150       0.02440147       5.79712346      -0.00172510       0.00172510       0.00172510      -6.23729443
Al      10.10726071       1.44589607       7.21861805      -0.01907739      -0.00003209      -0.00003209      -4.59589893
Ni       8.65743858       0.00164439       8.65908298       0.00301049      -0.00301049       0.00000000      -6.24431197
Al      10.10726071       1.44589607      10.09954790      -0.01907739      -0.00003209       0.00003209      -4.59589893
Ni       8.65743858       2.88636099      -0.00164439       0.00301049       0.00000000       0.00301049      -6.24431197
Al      10.10407577       4.32739989       1.44499280      -0.00586671      -0.00209416      -0.00586671      -4.58398750
Ni       8.66670718       2.88636099       2.88636099       0.00133610       0.00000000       0.00000000      -6.24187271
Al      10.10407577       4.32739989       4.32772919      -0.00586671      -0.00209416       0.00586671      -4.58398750
Ni       8.65743858       2.88636099       5.77436638       0.00301049      -0.00000000      -0.00301049      -6.24431197
Al      10.10726071       4.32682592       7.21861805      -0.01907739       0.00003209      -0.00003209      -4.59589893
Ni       8.66768878       2.88636099       8.65908298      -0.01378818      -0.00000000      -0.00000000      -6.24441408
Al      10.10726071       4.32682592      10.09954790      -0.01907739       0.00003209       0.00003209      -4.59589893
Ni       8.63468150       5.74832051      -0.02440147      -0.00172510      -0.00172510      -0.00172510      -6.23729443
Al      10.03398585       7.14762485       1.37490287       0.00641138       0.00641138       0.00641138      -4.50654054
Ni       8.65361474       5.76725375       2.88636099      -0.00582940      -0.00582940      -0.00000000      -6.23259658
Al      10.03398585       7.14762485       4.39781912       0.00641138       0.00641138      -0.00641138      -4.50654054
Ni       8.63468150       5.74832051       5.79712346      -0.00172510      -0.00172510       0.00172510      -6.23729443
Al      10.10407577       7.21771478       7.21804408      -0.00586671      -0.00586671       0.00209416      -4.58398750
Ni       8.65743858       5.77107759       8.65908298       0.00301049       0.00301049      -0.00000000      -6.24431197
Al      10.10407577       7.21771478      10.10012187      -0.00586671      -0.00586671      -0.00209416      -4.58398750
Ni       8.65361474       8.65908298      -0.00546824      -0.00582940       0.00000000      -0.00582940      -6.23259658
Al      10.03398585      10.17054110       1.37490287       0.00641138      -0.00641138       0.00641138      -4.50654054
Ni       8.70365981       8.65908298       2.88636099      -0.00002010       0.00000000       0.00000000      -6.31443233
Al      10.03398585      10.17054110       4.39781912       0.00641138      -0.00641138      -0.00641138      -4.50654054
Ni       8.65361474       8.65908298       5.77819022      -0.00582940       0.00000000       0.00582940      -6.23259658
Al      10.10407577      10.10045117       7.21804408      -0.00586671       0.00586671       0.00209416      -4.58398750
Ni       8.66670718       8.65908298       8.65908298       0.00133610       0.00000000      -0.00000000      -6.24187271
Al      10.10407577      10.10045117      10.10012187      -0.00586671       0.00586671      -0.00209416      -4.58398750
