89
Lattice="11.148467604529953 0.03742486696007014 -0.16866789815187685 0.037762682896967645 11.138022902973407 -0.11917156015174245 -0.16876865250792059 -0.11891988494756409 11.147116594866603" Properties=species:S:1:pos:R:3:forces:R:3:energies:R:1 energy=-418.71973628887656 stress="-0.0002453986655215837 -0.000267375726435443 -0.00014245258683769912 -0.000267375726435443 0.0002569390434922666 2.8678124704005747e-05 -0.00014245258683769912 2.8678124704005747e-05 -2.223733833230363e-05" free_energy=-418.71973628887656 pbc="T T T"
Al       1.19110848       1.52245611       1.22703607      -0.00422034       0.00353211      -0.00640231      -3.78037863
Al       1.42259022       1.37364186       4.11674321      -0.01050793       0.01055514      -0.00635344      -4.22115545
Al       1.26892736       1.30575319       6.89686611       0.01064202      -0.00513549       0.00497967      -4.43721324
Al       1.27653588       1.32988943       9.71101723       0.00037952       0.00334845      -0.00403980      -3.95775834
Al       1.40722497       4.36299797       1.58496794       0.00667889      -0.00737098       0.00600330      -3.99868534
Ni      -0.03756162       2.77805436       2.88060004      -0.00188689      -0.00723510      -0.00432845      -5.89830220
Al       0.89231025       4.43169298       4.31301766      -0.00516581       0.00736661       0.01352769      -4.29395868
Ni      -0.15438360       2.67949836       5.54485373      -0.01286559       0.00235115      -0.00299096      -6.06924653
Al       1.48818144       4.15026747       7.01703252       0.01005386       0.01125369      -0.00947690      -4.35949970
Ni      -0.01966351       2.83680262       8.32189164       0.00610599      -0.01234637       0.01040570      -5.99890853
Al       1.45082698       4.09166067       9.95558778       0.00214990       0.00475991      -0.00215827      -4.18430047
Ni       0.06772029       5.71589114       0.06168721       0.00186086      -0.00102012       0.00237142      -5.89026479
Al       1.30654483       7.44180029       1.29513959       0.00697627      -0.00770157       0.00012772      -4.00559311
Al       1.27035538       7.01615612       3.91576094      -0.00682575       0.00549656       0.01207066      -3.91440179
Al       1.26055960       6.87730399       6.89322380      -0.00008148      -0.00156995      -0.00343180      -4.45509419
Ni      -0.01300136       5.48824539       8.53219903      -0.00207625      -0.00290265      -0.01045111      -6.15768428
Al       1.42012356       6.96280004       9.78409960       0.00311506       0.00003753       0.00698984      -4.35199729
Al       2.09263232      10.14558661       1.43506422       0.00595996      -0.00259147      -0.00841909      -3.87431444
Al       1.22264417       9.72205284       4.00037758      -0.00022526      -0.00280288      -0.00846516      -3.93440607
Al       1.32523176       9.57780795       6.89733283       0.00187199       0.00309713       0.00261578      -4.33259996
Ni      -0.12114672       8.22789754       8.35444090       0.00063774       0.00872565      -0.00652448      -6.01623565
Al       1.36211785       9.69930672       9.71943544      -0.00071093      -0.00208879       0.00752015      -4.15731389
Al       3.91354589       1.36156976       1.25989828      -0.00344012      -0.00643383      -0.00404975      -3.94741771
Al       4.11199472       1.48607367       4.15772743       0.00334469      -0.00609647      -0.00800068      -4.25696993
Ni       2.73125025      -0.09705046       5.54626028       0.00464656      -0.00087085       0.00404329      -6.07418477
Al       4.12882378       1.37949456       6.97355906       0.00197982      -0.00319722      -0.00528936      -4.10153892
Ni       2.69462777      -0.04395253       8.30814323      -0.00220965      -0.00259285      -0.00301022      -5.89940419
Al       4.05323265       1.28192608       9.72349852       0.00571898      -0.00312735      -0.00674345      -4.06122535
Al       4.04458297       4.26015523       0.81664679       0.00332888       0.00532345       0.00876854      -4.17637465
Al       3.54826805       4.15946591       3.59639964       0.00251364      -0.00345301       0.00070236      -4.30381062
Al       4.20057682       4.02736873       6.41912049      -0.00897579       0.00588392       0.00154883      -3.74290953
Al       4.19838428       3.97651105       9.18499823      -0.00559071      -0.00456876      -0.00695443      -3.70887745
Al       4.20802793       7.03500838       1.36322146      -0.01365702      -0.00305665      -0.00543311      -4.30582896
Al       4.17026400       6.78369954       4.03053590      -0.00588500       0.00629626       0.00373579      -4.34818439
Ni       2.63675707       5.59017452       5.42537644      -0.01342285      -0.00326949       0.00622488      -5.88981234
Al       4.11665207       6.82772917       6.93567356       0.00313899      -0.00246720      -0.00005137      -4.09201522
Al       4.12414430       6.68614842       9.65555643      -0.00192255      -0.01033469       0.00836155      -3.94389741
Ni       3.06875062       8.48041313      -0.04545451      -0.00408517      -0.00359220       0.00538057      -5.89530312
Al       4.78792259       9.93204241       1.29473249       0.00233008       0.00416601      -0.00361149      -3.94888113
Al       4.00789395       9.65286691       3.83525704      -0.00132289      -0.00725515       0.00917611      -4.30590906
Ni       2.74405861       8.21889450       5.39279467       0.00021544       0.01150668      -0.00377093      -6.14161767
Al       4.14506823       9.62915719       6.85415111      -0.00164640       0.00253890       0.01103102      -4.44725324
Al       4.13628308       9.64349330       9.52451560      -0.00117452       0.00534740       0.00141051      -4.26251536
Al       6.82929244       1.10932778       1.18655579      -0.00425485      -0.00142212       0.00429753      -4.37629947
Al       6.84454243       1.38141586       3.88900419      -0.00058626       0.00901501      -0.01033378      -4.42331654
Ni       5.40816835      -0.10809533       5.39892808       0.00004419      -0.00233989       0.00436952      -6.13615587
Al       6.80641231       1.33161618       6.77552534       0.00565417      -0.00680215      -0.00382607      -4.22215816
Al       6.81369661       1.43915160       9.42446681       0.00654761      -0.00590611      -0.00265000      -4.25931110
Ni       5.64887406       2.75044035      -0.11552056       0.00323108      -0.00358627      -0.00205426      -5.99226340
Al       7.13300118       3.97153124       1.56330558      -0.00305228       0.00735782       0.00553622      -4.43444094
Ni       5.31447059       2.79980417       2.52408758      -0.01032408      -0.01219462       0.00738361      -5.98746852
Al       6.36353948       4.05441213       4.37406898      -0.00731910      -0.00250922      -0.00471073      -4.49585939
Al       6.84960582       4.12491433       7.13980749       0.00491489      -0.00296712       0.00116935      -3.96491486
Al       6.79910456       4.37954164       9.87044929       0.00352193      -0.00513447       0.00197895      -4.00951415
Al       6.92456223       6.60866598       1.02025440      -0.00272589      -0.00834070       0.00853195      -4.01064163
Ni       5.41025810       5.36844706       2.52721511       0.01306583      -0.00454816      -0.00304660      -5.90855228
Al       6.86762733       6.78708907       3.82718828      -0.01655663      -0.00328191      -0.00515508      -4.37011131
Al       6.79307792       6.88291045       6.82488813      -0.00357717       0.00035265       0.00530373      -4.20227377
Al       6.89950547       6.99331572       9.47335494      -0.00042116      -0.00200417      -0.00767498      -3.96819092
Ni       5.65818424       8.34640899      -0.18662940       0.00882808       0.00399457       0.00660161      -5.91820381
Al       7.61669103       9.21767546       1.07768877       0.00095553       0.01521170      -0.00740218      -4.11833488
Al       6.79642061       9.63244200       3.74575232       0.00048450       0.00160178       0.00120046      -4.49136638
Ni       5.47622907       8.31322533       5.32961761      -0.00128945      -0.00016343       0.00152381      -6.12123388
Al       6.87946191       9.67216753       6.74842125      -0.00333557       0.00481832      -0.00825343      -4.61430783
Al       6.84937757       9.77817105       9.63738873      -0.00815334      -0.00333260      -0.00298194      -4.23365234
Al       9.60168234       1.46162276       1.28184172      -0.00161347      -0.00069222       0.00942117      -4.17495625
Ni       8.37273718      -0.16167027       2.60113208       0.00027135       0.00249332      -0.00295026      -5.87143605
Al       9.71473809       1.24519400       4.01824831       0.00609015       0.00843204      -0.00358205      -4.55525772
Ni       8.19037295      -0.09892225       5.30490864       0.00347398      -0.00177959       0.00650096      -6.23459798
Al       9.59845118       1.36616082       6.88017438      -0.00247776       0.00000891       0.00460088      -4.50215001
Ni       8.25289261      -0.10815838       8.26369295       0.01055819       0.00693039      -0.00011234      -5.98998185
Al       9.66492037       1.41274135       9.61714453       0.00353972       0.00526502       0.00004953      -4.13092706
Ni       8.27203223       2.83840484      -0.17106679       0.00679100       0.01648284      -0.00807776      -5.88676558
Al       9.80310363       4.24682839       1.17194580       0.00691053       0.00434181       0.00041160      -4.17186710
Al       9.29797346       4.03944364       3.78266390      -0.00492744      -0.00427799       0.00614630      -4.37884201
Ni       8.19293757       2.81720466       5.46341116       0.00604798       0.00605064      -0.00681083      -6.09558705
Al       9.73194085       4.23386453       6.76462518      -0.00792791       0.00456916      -0.00850642      -4.49784249
Al       9.58535846       4.13344331       9.62433376      -0.00121271      -0.00560500       0.00390078      -4.38273950
Al       9.69718970       7.14251285       1.33620120      -0.00044447      -0.00697107       0.00358397      -3.78799791
Al       9.75589000       6.69760826       4.03493252      -0.00162814       0.00343503      -0.00391079      -3.93176718
Ni       8.15512626       5.42992955       5.42691193       0.00877089      -0.01331796      -0.00491038      -6.06208986
Al       9.58838207       6.83102106       6.86895220       0.00998043       0.00608046      -0.00290979      -4.49718927
Al       9.61075427       6.96822141       9.71313022      -0.00480121       0.00310941      -0.00362514      -4.39618361
Al      10.42941669       9.91632140       1.25459574       0.00303102       0.00257810       0.00862173      -3.79424778
Al       9.67407830       9.44169153       3.85489606      -0.00119732      -0.00160993      -0.00525545      -4.13270003
Ni       8.19295255       8.13772937       5.30879448       0.00088034       0.00500987       0.00097376      -6.15547861
Al       9.75348152       9.68469296       6.62897437      -0.00295850       0.00219123       0.00715086      -4.47472406
Ni       8.37521435       8.42756032       8.21195924      -0.00255858      -0.00784103      -0.00208138      -6.07236522
Al       9.77252182       9.80827813       9.67140731       0.00399968      -0.00120784       0.00452456      -4.14022713
