84
Lattice="10.742156095502844 0.17886259516614575 -0.08079495824866272 0.18020541119552258 11.110202728313196 -0.0768391426308156 -0.08442939739765971 -0.07569133817935884 11.059470223207676" Properties=species:S:1:pos:R:3:forces:R:3:energies:R:1 energy=-382.39258185244813 stress="-0.00015508933155107687 -0.0001048124550746249 0.0002104903101679642 -0.0001048124550746249 -2.071583487992452e-05 0.00043132528975678826 0.0002104903101679642 0.00043132528975678826 0.00012301128760548524" free_energy=-382.39258185244813 pbc="T T T"
Ni       0.01384537      -0.42753297      -0.03743945       0.00077055       0.00039419       0.00095609      -5.87908717
Al       1.76340019       0.84302544       1.30437368      -0.00123786       0.00189828      -0.00563410      -3.99093095
Al       1.10011260       1.96013795       3.79409482      -0.00961388      -0.00155228       0.00296848      -3.85095710
Al       1.34848779       1.10373096       6.62886626      -0.00453059      -0.00070677       0.00244797      -4.22141303
Al       1.42109126       0.81948787       9.58979722       0.00057863      -0.00155449      -0.00698250      -4.36236172
Al       1.09163166       3.67727669       1.57261706       0.00374586       0.00283772       0.00040986      -3.87312390
Al       1.22401712       4.71235762       4.23225285      -0.00058665       0.00882294       0.00314054      -3.80121996
Al       1.05557726       4.10944265       6.99130635      -0.00658773      -0.00603445       0.00576263      -4.24039928
Ni       0.11106552       2.30722720       8.20974065      -0.00563719      -0.00361341       0.00461070      -5.56179401
Al       0.93127416       3.84461293       9.88710382       0.00329426      -0.00150229       0.00570091      -4.22750727
Al       1.39928995       6.51206892       0.62094179       0.00766493       0.00352114      -0.00140820      -3.63542354
Al       1.39269351       7.54578881       3.50676966      -0.00234661       0.00698273      -0.00609421      -3.99492241
Al       1.29530639       6.64193705       6.19474052       0.00086378       0.00781819      -0.01386755      -4.09919958
Al       1.50105255       6.23103049       8.81545007       0.01028831      -0.00739389       0.00358578      -3.70306177
Al       1.53814950       9.31223377       1.49184984       0.00075498      -0.00108084      -0.00071857      -3.81834368
Al       1.51431294      10.41068060       4.44951516       0.00169680      -0.00453224       0.00151912      -4.06607855
Ni       0.16755771       8.57629275       5.50409473       0.01472887       0.00349305       0.01166989      -5.85945323
Al       1.37815033       9.47790498       7.35675587      -0.00183893       0.00027498      -0.01008582      -4.03386779
Al       1.03485731       8.63187438       9.90047685       0.00008374       0.00434906      -0.00090404      -3.89093416
Al       4.44364320       1.62202410       1.22878623       0.00157841      -0.00484152      -0.00422728      -4.24306157
Al       3.85604984       1.46592038       4.11040356      -0.00647222       0.00247452      -0.00301027      -4.37031805
Al       4.14106655       1.59568335       6.78012224       0.00133294       0.00028213      -0.00156876      -4.35220447
Al       4.16010316       1.26774633       9.63253425      -0.00164192      -0.00171395       0.00069206      -4.17225402
Ni       2.68354963       2.66791837      -0.02382868      -0.00079382      -0.00201552      -0.00705003      -5.88767855
Al       3.82093569       4.30884576       1.40587325       0.00079150       0.00257470       0.00294811      -4.33384434
Al       4.02691674       4.17649758       4.20628698       0.01123126       0.00199757      -0.00272568      -4.34033637
Ni       2.52248225       2.92759773       5.51372901      -0.00766169      -0.00516199       0.00112266      -5.88803582
Al       3.95460974       4.38321175       6.95846089      -0.00062297      -0.01312543       0.00311970      -4.37927059
Ni       2.61206523       2.68533592       8.32661030       0.00342644       0.00414582       0.00363282      -6.25772582
Al       3.83236277       4.27621217       9.75590233       0.00378207      -0.00142817       0.00480408      -4.39270508
Al       3.87382684       7.28845566       1.49885412       0.00437398      -0.00030894      -0.00350408      -4.15916487
Al       3.94166195       6.99635374       4.14336993       0.00080929       0.00111216       0.00339790      -4.35912626
Al       3.90239869       7.09198926       6.98570401       0.00778740       0.00424217       0.00123091      -4.29698404
Al       3.85317235       7.00849029       9.67382503       0.00455401      -0.00552579       0.00315812      -4.16290282
Al       4.19115486      10.07598162       1.35776032       0.00896131      -0.00077047       0.00480997      -3.98953264
Al       4.18010783       9.78766541       4.00411918       0.00344114      -0.00255968       0.00107320      -4.37582239
Ni       2.65879383       8.52859891       5.44878408      -0.00218829      -0.00400929      -0.00144777      -6.07230124
Al       3.99699923      10.01402077       6.90206705       0.00789541       0.00443130       0.00608422      -4.29260678
Al       3.55782153       9.76860734       9.61757256      -0.00016014      -0.00220483       0.00095131      -4.01702364
Al       7.28633218       1.45577569       1.78896223      -0.00115958       0.00270066       0.00780293      -4.32620218
Ni       5.51416613       0.26801677       2.95583805       0.00095861      -0.00344258      -0.01027104      -6.00687913
Al       6.82167506       1.68066918       4.55640632      -0.00588878       0.00270251      -0.00275670      -4.18308631
Ni       5.46681973       0.00132607       5.55543010      -0.00356210       0.00149243       0.00123628      -6.00882200
Al       6.82588193       1.32951474       7.26502118      -0.00600597       0.00196634      -0.00057749      -4.02601274
Al       6.94149809       1.93077506      10.07850483      -0.00491250       0.00163443      -0.00122011      -4.18363740
Al       6.77975464       4.20892837       1.27430205       0.00187053       0.00360666      -0.00314786      -4.18266766
Ni       5.57385839       2.89032100       2.83989883      -0.00050437      -0.00346625       0.00952622      -6.02685731
Al       7.02584586       4.35979390       4.18481396      -0.00050739       0.00210267       0.00004999      -4.16283468
Al       6.78826359       4.21163294       6.93052890      -0.00319651      -0.00328909      -0.00441607      -4.22443054
Ni       5.36684432       2.91449419       8.39510752      -0.00553073       0.00517039       0.00187461      -5.90104326
Al       6.62769819       4.62541066       9.64728933      -0.00150995      -0.00550189       0.00423473      -4.21313945
Ni       5.28438203       5.84468696       0.14424610       0.00974579      -0.00436846       0.00471339      -5.95508599
Al       6.82358399       7.08559169       1.35406799      -0.00133828      -0.00807504      -0.00811989      -4.41240566
Ni       5.37431291       5.56093842       2.75362528      -0.00345961      -0.00339528       0.00779346      -6.14558236
Al       6.78690632       7.14344229       4.08871869      -0.01041342      -0.00851312       0.00634423      -4.36827364
Ni       5.43012083       5.71698554       5.47031542       0.00130591      -0.00094833      -0.00414540      -5.99675126
Al       6.73756248       7.02703643       6.97552005       0.00503237      -0.00033071       0.00417480      -4.38984263
Al       6.94788624       7.31162798       9.68347235       0.00270576      -0.00368760      -0.00441327      -4.35823390
Ni       5.33462389       8.52060066      -0.10113598       0.00053903       0.00818169       0.00281818      -5.99728580
Al       6.95174670       9.84170162       1.36023451      -0.00182982      -0.00006195      -0.00123992      -4.24237757
Al       7.15510143       9.81535484       4.13788916      -0.00363808       0.00582598       0.00024080      -4.42273087
Ni       5.40522149       8.48367662       5.64174794      -0.00015161      -0.00123275      -0.00505417      -6.16844972
Al       6.97470727       9.75964831       7.04544153      -0.01111341      -0.00186319      -0.00326974      -4.14610651
Ni       5.30800942       8.55583988       8.39033940       0.00902551      -0.00452488       0.00044576      -6.07296796
Al       6.40051675      10.27875610       9.75644692       0.00246486      -0.00033798       0.00078539      -4.32113835
Ni       8.25691981       0.09566062      -0.05454170      -0.01177085      -0.00328817       0.00251113      -5.89089844
Al       9.86036173       1.47929195       1.29100853      -0.00506140      -0.00445067       0.00377902      -3.96462461
Al       9.38230192       1.19839910       3.95173544       0.00021842       0.00182327      -0.00037695      -3.57060032
Al       9.21823922       2.25794148       6.37650352      -0.00555046       0.00321501       0.00443747      -3.88697634
Al       9.38748594       0.98059017       9.13669043       0.00442978       0.00486510      -0.00059006      -4.28535917
Al       9.31505244       4.06950483       0.51802992      -0.00422570       0.00002419      -0.00473462      -3.59718770
Al       9.57235020       3.93910348       3.30829229       0.00295529       0.00063410      -0.00445147      -3.70096894
Al       9.26803597       5.04430589       6.11412443       0.00356843       0.00540828      -0.00582102      -3.83378258
Al       9.09141973       3.78766728       8.88634806       0.01120121      -0.01517799       0.00684433      -4.18293197
Al       9.72118401       6.41290315       1.73165232       0.00202531       0.00663681      -0.00716124      -3.87598538
Al       9.60010435       7.00541097       4.36460140       0.00090161      -0.00581414       0.00652891      -4.00638328
Al       9.62240290       7.69426711       7.24405449      -0.00379812       0.00016927      -0.00325627      -4.14332327
Ni       8.27139203       5.86233152       8.23505274      -0.00920499       0.01524313      -0.00657565      -5.76611614
Al       9.74770976       6.64120370       9.97709175      -0.00262305       0.00596915       0.00180150      -3.95829933
Al       9.55319472       9.10699823       0.76649855       0.00344042      -0.00055460      -0.00123437      -4.31154656
Ni       8.35292721       8.22779225       2.65285441      -0.00044978       0.00564836      -0.00918131      -5.73247972
Al       9.91051091       9.73021379       3.48021322      -0.00066423       0.00921658       0.00450260      -3.99650074
Al       9.53075947      10.51698967       6.40607167      -0.00576564      -0.00437715       0.00534503      -3.86047526
Al       9.13666354       9.49874224       9.18882006      -0.00106789       0.00244840      -0.00634434      -3.93231881
