128
Lattice="11.498469708314605 0.00010242408231694076 -0.0004531017084747862 0.00010243757403441368 11.5076066696557 -0.0001910287944727228 -0.00045309600814884645 -0.00019103079466178027 11.497705846629602" Properties=species:S:1:pos:R:3:forces:R:3:energies:R:1 energy=-700.6347240886788 stress="0.00149314738579018 7.076201346297379e-06 8.429130380532143e-05 7.076201346297379e-06 -0.0006412690933356051 5.068375903975127e-05 8.429130380532143e-05 5.068375903975127e-05 0.0016696169527044636" free_energy=-700.6347240886788 pbc="T T T"
Ni       0.04258952      -0.03823323      -0.07988454       0.00188027       0.00078127       0.00578421      -5.94411137
Al       1.31698065       1.31585550       1.54563639       0.01402729       0.00702145      -0.01001123      -4.93760854
Ni      -0.03090144      -0.11568073       2.94375260      -0.00298868      -0.00141760      -0.00119188      -5.73585889
Ni       1.42098244       1.46882625       4.31224933       0.00414146      -0.00551437       0.00787699      -5.84923523
Ni      -0.03232810      -0.04514227       5.76320920      -0.00212776       0.00132944       0.00043062      -6.13765136
Al       1.41304365       1.44709967       7.08077126       0.00433323       0.00938326       0.00341725      -4.72967331
Ni       0.00742320       0.00047541       8.62566518       0.00315327       0.00420703      -0.00351135      -6.28650144
Al       1.42413456       1.45215207      10.06213206       0.00289505      -0.00221730      -0.00896939      -4.65721325
Ni       0.01069669       2.84594318       0.03472388       0.00408108      -0.00411633      -0.00027188      -6.01440663
Al       1.32546606       4.34956223       1.42714341       0.01254595       0.00190979      -0.00136884      -4.73336010
Ni      -0.04189088       2.91891066       2.80053194       0.00147019      -0.00223853       0.00266875      -5.87461419
Al       1.42455871       4.17923471       4.28839986       0.00102288       0.01130982       0.00155047      -4.74218019
Ni      -0.07902373       2.92253524       5.76686769       0.00378062      -0.00048967      -0.00397129      -6.09984963
Al       1.41006019       4.29653156       7.19026419      -0.00012200      -0.00109988       0.00059816      -4.62079487
Ni      -0.02988038       2.87674606       8.63813610       0.00057682      -0.00069048       0.00178931      -6.27208985
Al       1.42265657       4.29012661      10.08526949       0.00026747       0.00293284      -0.00101277      -4.64424273
Ni       0.07317348       5.85180283      -0.04609172      -0.00098391       0.00261726       0.00129609      -6.10476606
Al       1.45346479       7.32682955       1.44206801       0.00398678      -0.00541476      -0.00222052      -4.74110082
Ni       0.08189165       5.82638255       2.92482492      -0.00192666      -0.00020946      -0.00122626      -6.11215276
Al       1.45300825       7.22534417       4.34007691      -0.00071035      -0.00086239       0.00571521      -4.64621637
Ni       0.01846861       5.72346821       5.72640441      -0.00386931      -0.00149097      -0.00336466      -6.27140537
Al       1.44392303       7.18398188       7.18193487      -0.00180744      -0.00806602       0.00173957      -4.62388414
Ni       0.00902618       5.73818429       8.64284734      -0.00630719      -0.00542735       0.00439061      -6.26181193
Al       1.45491339       7.22621132      10.02860747      -0.00176511      -0.00008276      -0.00228706      -4.63889638
Ni      -0.04761140       8.60630836      -0.02413177       0.00162178      -0.00075514       0.00271761      -6.12091801
Ni       1.47278642      10.02746488       1.42866582       0.00286618      -0.00390345      -0.00257447      -5.81962469
Ni      -0.03696827       8.61858105       2.90135290       0.00299781       0.00171662      -0.00101130      -6.13350703
Al       1.46634075      10.12735596       4.25122661      -0.00201109      -0.00288363       0.00960661      -4.83359723
Ni       0.00437188       8.65021289       5.78201556       0.00507750       0.00016966       0.00252584      -6.27837999
Al       1.44591620      10.08504023       7.18905771      -0.00345462      -0.00213630       0.00181231      -4.62752317
Ni      -0.00080151       8.64727361       8.59096670       0.00072371       0.00393938      -0.00416417      -6.26963421
Al       1.46217220      10.04600272      10.12856460       0.00077158      -0.00023998      -0.00709444      -4.73579724
Ni       2.87524945       0.05303685      -0.01554664      -0.00102153       0.00255569       0.00501952      -6.12026268
Al       4.32737714       1.42559582       1.43302798       0.00926349       0.00123506      -0.00221615      -4.64401653
Ni       2.93150290       0.01153369       2.87067413       0.00050346      -0.00024037      -0.00488283      -5.93940755
Al       4.20751462       1.47689610       4.29161999       0.00314133      -0.00017765       0.00087997      -4.74348719
Ni       2.90415906      -0.02341303       5.77812590       0.00298380      -0.00486595       0.00551311      -6.12754176
Al       4.30467257       1.45108851       7.18925445      -0.00648086      -0.00032364       0.00268205      -4.63413996
Ni       2.86403464       0.02224791       8.61472162      -0.00164090      -0.00186317      -0.00346670      -6.27606248
Al       4.30395424       1.47192107      10.08682419       0.00476774      -0.00013779      -0.00188003      -4.64835506
Ni       2.84177662       2.86729783       0.04644011      -0.00157131      -0.00439863      -0.00199149      -6.27768491
Al       4.30639235       4.33248447       1.43051864      -0.00024771       0.00112724      -0.00043658      -4.62545390
Ni       2.87268780       2.89678031       2.78243186      -0.00035728      -0.00361781       0.00150261      -6.11170699
Al       4.31065528       4.29952814       4.28396304       0.00079317       0.00141165      -0.00308766      -4.64147974
Ni       2.90620617       2.92225092       5.79282830      -0.00277972       0.00335672      -0.00253914      -6.09099746
Al       4.32443101       4.31085103       7.19405539       0.00038515       0.00215252       0.00139431      -4.61390177
Ni       2.85473528       2.87636063       8.61304087       0.00003542       0.00456495       0.00353525      -6.26060481
Al       4.30638288       4.29465171      10.08192397      -0.00152311      -0.00132137      -0.00060397      -4.62600718
Ni       2.84979060       5.76569818       0.00611268       0.00511673       0.00144028      -0.00295088      -6.27356060
Al       4.31790262       7.17853182       1.44456930      -0.00049554      -0.00084748       0.00263064      -4.63706646
Ni       2.83950401       5.74959701       2.87282686       0.00241670       0.00010721       0.00152073      -6.28001964
Al       4.30815593       7.15216716       4.31983706       0.00340564      -0.00147940      -0.00168271      -4.64144712
Ni       2.84849577       5.70237937       5.73836949       0.00195901       0.00244911      -0.00111819      -6.25879240
Al       4.29252235       7.15232743       7.17967265      -0.00706854       0.00594080      -0.00190963      -4.62462768
Ni       2.85793299       5.71613031       8.62616325       0.00406512      -0.00118678       0.00004192      -6.24962104
Al       4.31815362       7.15366843      10.04951341       0.00325181      -0.00155652       0.00134447      -4.63177959
Ni       2.94985805       8.58902958      -0.05437325      -0.00411567      -0.00283384       0.00382160      -6.08916217
Al       4.22155127      10.07638578       1.42873301       0.00854170      -0.00129194      -0.00152134      -4.73694507
Ni       2.93602204       8.60490373       2.93124956      -0.00379294       0.00229349      -0.00147188      -6.10379577
Al       4.32069116      10.08720504       4.32295587       0.00455247       0.00126523      -0.00505210      -4.65259571
Ni       2.89411894       8.65416603       5.76826087      -0.00837311      -0.00064068      -0.00269875      -6.27969310
Al       4.42762168      10.10366668       7.18700124      -0.00661779      -0.00629682       0.00114682      -4.73109992
Ni       2.89941007       8.64811787       8.60199592      -0.00384153       0.00282911      -0.00067417      -6.27075968
Al       4.30887570      10.09952448      10.04833712      -0.00159083       0.00581055       0.00237157      -4.64510683
Ni       5.76848974      -0.01023612      -0.00237445       0.00063733      -0.00117849       0.00246905      -6.27908878
Al       7.30849843       1.40157103       1.44170959      -0.00926867       0.00445443      -0.00287057      -4.74118747
Ni       5.75597479       0.00089036       2.88224374       0.00113182       0.00239842      -0.00109243      -6.28593078
Al       7.20162307       1.45945745       4.28540782      -0.00591652       0.00045733       0.00134883      -4.66040635
Ni       5.70722287       0.09093861       5.69593094      -0.00052991       0.00119885      -0.00103109      -6.10349141
Al       7.20547467       1.35809604       7.17975389       0.00187569       0.00780355       0.00121110      -4.72759337
Ni       5.72045830       0.08084462       8.66575338      -0.00323013      -0.00480120      -0.00030076      -6.09072823
Al       7.19813624       1.45752351      10.08525188      -0.00534950      -0.00091991       0.00269870      -4.65541649
Ni       5.78305421       2.88745776       0.04703109      -0.00068872       0.00713861      -0.00406036      -6.26386867
Al       7.30980736       4.33417940       1.44418783      -0.00776232      -0.00124400       0.00190466      -4.71719964
Ni       5.76954145       2.87948268       2.83152039      -0.00087234       0.00154799       0.00455577      -6.27171248
Al       7.19967643       4.29029882       4.30310809      -0.00083237       0.00077436       0.00268524      -4.64448438
Ni       5.75067966       2.86522343       5.74365694      -0.00056326      -0.00287840      -0.00467691      -6.27016437
Al       7.20924630       4.28631829       7.18218450       0.00092050      -0.00515257      -0.00296409      -4.62247312
Ni       5.76491765       2.86900321       8.62317947      -0.00111314      -0.00056930       0.00173394      -6.25986246
Al       7.19929295       4.29919815      10.06628210      -0.00142849      -0.00058466      -0.00306699      -4.63495327
Ni       5.77048449       5.73393214       0.01043707      -0.00497558      -0.00679552       0.00007093      -6.26279690
Al       7.16895037       7.22256253       1.43435889      -0.00328401      -0.00269967      -0.00356103      -4.63423248
Ni       5.77473099       5.73649499       2.86458686      -0.00571301      -0.00611769       0.00144865      -6.26281383
Al       7.16416834       7.21558752       4.32491244      -0.00318391      -0.00186820      -0.00136802      -4.63606837
Ni       5.76508043       5.73026939       5.75296098      -0.00215778      -0.00015705       0.00221249      -6.26165840
Al       7.17670100       7.25510209       7.18916355       0.00437756      -0.00972165      -0.00037031      -4.69965079
Ni       5.76000327       5.72665419       8.61627320       0.00005389       0.00326441      -0.00435385      -6.26174339
Al       7.16273844       7.21789011      10.04427049      -0.00188416       0.00149776       0.00489719      -4.64053917
Ni       5.72072674       8.65437510      -0.00756752       0.00395695       0.00451239       0.00009721      -6.26956396
Al       7.17074631      10.05727158       1.44906455      -0.00242901      -0.00158282       0.00149190      -4.63321745
Ni       5.72430316       8.64674004       2.88415020       0.00470150       0.00496828       0.00030906      -6.26917493
Al       7.17006125      10.05953760       4.44485225      -0.00010246      -0.00119031      -0.00077706      -4.74527172
Ni       5.69911753       8.57882811       5.74226915       0.00780451       0.00317156      -0.00537527      -6.09589888
Ni       7.17433415      10.10525929       7.17746259       0.00226053       0.00234410      -0.00188955      -5.82994891
Ni       5.69375886       8.58654769       8.62492037       0.00156877       0.00426045       0.00586659      -6.09485491
Al       7.16666439      10.04932094       9.92436604       0.00053839       0.00010079       0.00502251      -4.73043433
Ni       8.55551656      -0.10074735      -0.06319330       0.00064247       0.00156897       0.00346010      -6.12109673
Ni      10.03833726       1.31775050       1.42594665      -0.00895090       0.00384167      -0.00197653      -5.77157131
Ni       8.58281031      -0.08264790       2.94175780       0.00249919       0.00166829      -0.00094056      -6.13756049
Al      10.16844702       1.43513829       4.19651509      -0.00734033      -0.00265007       0.00988714      -4.85998278
Ni       8.67097584       0.06751867       5.69156471       0.00063835       0.00641706       0.00087366      -6.12262784
Al      10.07030821       1.43102543       7.18883461       0.00044687       0.00073084       0.00278848      -4.64453636
Ni       8.65780754       0.05669608       8.67501877       0.00277694       0.00114117      -0.00427726      -6.11049158
Al      10.06273987       1.42517724      10.18614087      -0.00152195      -0.00265527      -0.00713745      -4.75730457
Ni       8.62672278       2.88697222       0.01264539      -0.00406700       0.00007355      -0.00063972      -5.99728997
Ni      10.05978235       4.44506689       1.42210466      -0.00201412      -0.00322462      -0.00254201      -5.76773113
Ni       8.64513432       2.87176359       2.86676568      -0.00116117      -0.00130593       0.00010160      -6.00499964
Al      10.06086474       4.34597632       4.18691406       0.00067200       0.00642584       0.01038891      -4.74929050
Ni       8.66147861       2.86728259       5.72655740      -0.00004692      -0.00473471      -0.00056726      -6.27909478
Al      10.04797770       4.33230501       7.19641254      -0.00202932       0.00002009       0.00112461      -4.62303292
Ni       8.65560789       2.86903667       8.64734488       0.00250959      -0.00144651       0.00101018      -6.27075671
Al      10.07445639       4.33533937      10.19310867       0.00526443       0.00096960      -0.00764986      -4.74453069
Ni       8.55685966       5.82851023      -0.05380430       0.00425098      -0.00230230       0.00194914      -6.09694419
Al      10.06016590       7.11163550       1.44368261      -0.00239100       0.00359146       0.00105349      -4.76251068
Ni       8.55580763       5.82892466       2.92568245       0.00792418      -0.00079224      -0.00319010      -6.09590059
Al      10.07149405       7.19143835       4.32253997      -0.00309599      -0.00325032       0.00313912      -4.66550835
Ni       8.61283790       5.75194033       5.74057001       0.00340217       0.00014076       0.00070817      -6.27242919
Al      10.07971490       7.16526101       7.18079133       0.00345969      -0.00327408       0.00002621      -4.63293404
Ni       8.61841163       5.74972002       8.63160929       0.00348803      -0.00373009       0.00052472      -6.27097969
Al      10.06050697       7.19572968      10.04714478      -0.00211543      -0.00005043      -0.00316752      -4.65388561
Ni       8.62269662       8.64212479       0.00032432      -0.00013830       0.00201003       0.00401938      -6.28928266
Al      10.12555728      10.13727724       1.42130902      -0.01123197      -0.00543693       0.00016695      -4.84450548
Ni       8.61996061       8.63368910       2.87452249      -0.00162015      -0.00145161      -0.00467796      -6.28851159
Al      10.04666813      10.03833446       4.33698933      -0.00069757      -0.00229669       0.00112619      -4.66506987
Ni       8.64829314       8.57926184       5.75626286      -0.00873430      -0.00393599       0.00701879      -6.09772552
Al       9.95329798      10.09056520       7.18814829      -0.00250372       0.00089271       0.00181517      -4.73350742
Ni       8.65389579       8.58901813       8.61380075       0.00007439       0.00395690      -0.00408366      -6.09600953
Al      10.06388523      10.05930850      10.04174883       0.00525752       0.00313582      -0.00548614      -4.66490227
