160
Lattice="13.494206249807327 -0.06853573489531109 -0.23914438024378107 -0.06768595066404164 13.758825739293021 0.06046166796704659 -0.2389148886101008 0.060531035941726034 13.685247360479087" Properties=species:S:1:pos:R:3:forces:R:3:energies:R:1 rep=5 n_sites=250 energy=-716.2472783979948 stress="-0.0009162888846897316 -5.259739102561637e-05 0.0003972768434508602 -5.259739102561637e-05 0.00035158444780811687 -3.520267811173235e-05 0.0003972768434508602 -3.520267811173235e-05 0.000556875602976275" free_energy=-716.2472783979948 pbc="T T T"
Al       1.20020606       1.44397444       1.43776298      -0.00580659       0.01131831      -0.00154312      -4.21564233
Al       1.52311702       1.55259089       4.29393181       0.01260695      -0.00626342      -0.00377256      -3.96886524
Al       1.31114378       1.91177786       7.07293039       0.00309792       0.00460550      -0.00111704      -3.84536649
Al       0.86317024       0.77735605       9.67450358       0.00546534      -0.00337510       0.00537596      -4.06417272
Al       1.48144964       1.65107223      12.29645908      -0.00219620       0.00406350       0.00139336      -4.10222534
Al       1.44512604       4.19764784       1.50456056       0.00162142      -0.01022581       0.00684077      -4.25701891
Ni      -0.06372317       2.90222332       2.84022992       0.00311944       0.00074471      -0.01368648      -5.87974517
Al       1.33429906       4.18706803       4.33641798       0.00073701       0.01314722       0.00505761      -4.46243900
Al       1.07235363       4.62844412       7.36798961       0.00683102      -0.00172941      -0.00136278      -4.28485921
Ni      -0.34002873       2.81411538       8.50366411       0.00970422       0.00117136      -0.00691629      -6.00711642
Al       1.63834340       3.52399015       9.80746894      -0.00094441      -0.00034539       0.00481184      -4.36229625
Ni      -0.23522913       2.65175712      11.04889496       0.01310340       0.00009588      -0.00036256      -5.87618853
Al       1.04104398       4.33991984      12.39550099       0.00394940       0.00752954      -0.00337321      -4.14314105
Ni      -0.12931631       5.55845171       0.21935446       0.00057670       0.00947267      -0.00373270      -5.90258716
Al       1.48597418       6.94389189       1.40723977      -0.00266405      -0.00491130      -0.00340606      -4.38110660
Ni      -0.04657649       5.69938472       2.86970557       0.00354614      -0.00173805       0.00198715      -6.16072875
Al       1.43063141       7.17951304       4.17141249      -0.00086997      -0.00572081       0.00704892      -4.26380546
Ni      -0.01546726       5.80047109       5.60688059       0.00665894      -0.00044837      -0.00652528      -5.96635996
Al       1.49130279       7.41464573       6.88809992       0.00431604       0.00386612      -0.00403842      -4.02931543
Al       1.15465698       6.44805989       9.49077061       0.00681214      -0.00196056       0.00619969      -3.99250641
Al       0.77470966       7.05105150      12.29554625      -0.00254076      -0.00155836       0.00602114      -4.38847175
Al       0.95272343       9.64498230       1.32061287      -0.00336592       0.00160803      -0.00670437      -4.23451290
Al       0.08984477       9.99450707       3.95925223       0.00252494       0.00166259       0.00321515      -3.87961699
Al       1.22548580      10.28724127       6.63930117      -0.00382755       0.00273650       0.00428951      -3.67397904
Al       1.25193821       9.05345755       9.10566346      -0.00484115       0.00013695      -0.00216456      -3.83517002
Al       1.19041388       9.93078620      11.92960490      -0.00101931       0.00168212      -0.00445357      -4.44745199
Ni      -0.14354868      11.11101084      -0.34496488       0.00462965       0.00135379       0.00748046      -5.94354337
Al       0.92570360      12.46987398       1.38439344      -0.00485727      -0.01006208      -0.00427493      -4.46507641
Al       0.83375864      12.62317405       4.33968269      -0.00789514      -0.00068312       0.00426081      -4.02245547
Al       0.97406459      12.99167870       7.06826572      -0.00227216      -0.00539017       0.00177564      -3.68259422
Al       1.31580249      11.74163691       9.46830103      -0.00837732       0.00715759       0.00209777      -3.66051151
Al       1.01971725      12.70775231      12.13125287      -0.00491265      -0.00363884       0.00454991      -4.15388320
Ni       2.67654438       0.04815382       0.11288221       0.00056047      -0.00042493      -0.00300251      -5.95483065
Al       4.15251041       1.42413586       1.34908354       0.00313783      -0.00260677      -0.00428640      -4.40599394
Ni       2.58694266      -0.06123101       2.79753340      -0.01135404       0.00550612       0.00795137      -6.00403345
Al       4.25915360       1.24951148       4.03586866      -0.00087884      -0.00253686      -0.00116885      -3.96223037
Al       3.46620924       0.57035798       6.43251005      -0.00108259      -0.00330178      -0.00248757      -3.91554438
Al       3.53363826       1.56393708       9.04696668       0.00494064       0.00159209      -0.00503123      -3.84733813
Al       4.21469533       1.33813509      12.26998711       0.00422934       0.00203254       0.00092419      -3.82677387
Al       4.10014331       4.19848617       1.45193757       0.00148645      -0.00838587      -0.00731207      -4.45582586
Al       4.13451027       4.03912171       4.31603099      -0.00491717      -0.00657733       0.00517328      -4.33626319
Al       3.56888793       3.51791252       6.87667748      -0.00350917      -0.00832088      -0.00670194      -3.83627317
Al       4.26005113       4.21658771       9.47172109       0.00427589       0.00407001       0.00290442      -3.77375272
Al       4.04790018       4.08589437      12.28823792       0.00798276      -0.00696476       0.00891348      -4.23694067
Al       4.23915247       7.10714893       1.61812709      -0.00248516       0.00214175      -0.00227664      -4.28420128
Ni       2.88837773       5.64613664       3.03438184      -0.01434459      -0.00511992       0.00465043      -6.13483469
Al       4.31788132       6.97141973       4.55664688       0.00311027       0.00147095      -0.00234839      -4.21702022
Ni       2.65263019       5.57207736       5.70268699       0.00329654      -0.00294877      -0.00165960      -5.99748392
Al       4.17709985       6.26079027       7.40686061      -0.00439518      -0.00351638       0.00095670      -4.12499438
Al       4.29912535       6.94958317      10.11421693      -0.01558688      -0.00537256       0.01088681      -4.32526306
Ni       2.64947432       5.43354413      10.95837759       0.00339927       0.01169831      -0.00712160      -5.82651213
Al       3.61746444       6.70222580      12.73727788      -0.00084444       0.00321928      -0.00377429      -4.39159658
Ni       2.58353765       8.43616868      -0.05612741      -0.00048715       0.00915606      -0.00251660      -5.98947720
Al       3.73261223       9.68183080       1.69927158       0.00924535      -0.00845877       0.00728881      -4.21283036
Al       2.84337142       9.45461189       4.45032581      -0.00124726       0.00340226       0.00998280      -3.82568220
Al       3.76697926       9.07680574       6.89765516       0.00382971       0.00275628       0.00398188      -3.86625592
Al       3.83358353       9.78399928       9.59634726       0.00127472       0.00206497      -0.00129311      -3.98336705
Ni       2.47325913       8.13168615      11.03565502       0.00749200      -0.00103242      -0.00450903      -5.96565768
Al       4.09551776       9.49885736      12.28963178      -0.00086929      -0.00440458       0.00113717      -4.41770200
Ni       2.49775033      11.07263118       0.08203802      -0.00148135      -0.00380418      -0.00736775      -6.20657461
Al       4.02636218      12.36467542       1.66645274       0.01487969      -0.00614652      -0.00478307      -4.50965299
Ni       2.16241683      11.14129842       2.95645886      -0.00535226       0.00046824       0.00152436      -5.96963686
Al       3.75317285      12.20435226       4.47275525       0.00338626       0.00168967       0.00746625      -4.03875411
Al       3.51864849      11.75651412       7.40708907       0.00134483      -0.00523166       0.00485488      -3.88975775
Al       3.88849595      12.68004364       9.95306704      -0.00575166      -0.00576427       0.00073592      -3.84104868
Al       3.74749421      12.44725193      12.49010749      -0.00416715      -0.00407385       0.00210075      -4.03584760
Al       7.19094494       1.55933907       1.38395301       0.01209868      -0.01248436       0.00210347      -4.33862919
Al       6.95725274       1.04093658       4.02279861      -0.00191173      -0.00314122      -0.00389151      -3.95776585
Al       6.11444759       1.61655980       6.62534162       0.00074305       0.00794231       0.00408815      -4.22530866
Ni       5.06671589      -0.11351393       8.05197374      -0.00365248       0.00029485       0.00113283      -5.88994307
Al       6.27476087       1.29481201       9.56661747       0.00675032       0.00744047      -0.00189766      -4.12904718
Al       6.95814983       1.46123155      12.27406551      -0.00198808      -0.00215681       0.00347806      -3.81357550
Ni       5.71588095       2.85525028       0.07638979      -0.00873277       0.00478006      -0.00118326      -5.96064158
Al       7.17561679       4.26241988       1.64101077       0.00179020       0.00947956      -0.00539555      -4.31493729
Ni       5.60994066       2.76782771       2.77121454      -0.01076039      -0.00057741      -0.00053105      -5.98358810
Al       6.90652427       3.92698127       4.42338821       0.00033058       0.00207209       0.00642383      -3.94573851
Al       6.19753167       4.27929495       7.07960382       0.00315288       0.00206020       0.00172674      -4.03959562
Al       6.97548329       3.92586815       9.90228089      -0.00593068       0.00059429       0.00026525      -3.97624433
Al       6.99151160       4.36727297      12.53826887       0.00378737       0.00184712       0.00856332      -4.01485010
Ni       5.68692737       5.54962353       0.23065967      -0.00184528      -0.00459121       0.00195158      -5.97399070
Al       7.05469710       7.02608458       1.62662978      -0.00613378      -0.00212461      -0.00134697      -4.01880038
Ni       5.55317351       5.51373140       2.94137828       0.00052584      -0.00210283       0.00333212      -6.06475928
Al       7.10721054       6.70422562       4.37598469       0.00076225       0.00091057      -0.00609028      -3.74881535
Al       6.79778050       7.06166161       6.95476992      -0.00496702       0.00495223       0.00536289      -3.94858500
Al       6.94520101       6.66472846       9.72940742       0.01262536      -0.00056798      -0.00468677      -4.02399298
Al       6.31678984       7.24593825      12.36569280      -0.00752532      -0.00172974      -0.00254880      -3.86183755
Al       6.41768578       9.67032122       1.82280235      -0.00723388       0.00181038      -0.00277416      -3.82603978
Al       5.55396110       9.49316927       4.60002016       0.00176706      -0.00605628       0.00202449      -3.84317710
Al       6.43589197       9.91931537       7.29346073      -0.00273510      -0.00210083       0.00070618      -4.13268315
Ni       5.34866582       8.17993337       8.44069102       0.00870631       0.00826275      -0.01220491      -5.73261024
Al       6.62344238       9.33865766      10.12957352      -0.00781027       0.00277829       0.00070245      -4.20134116
Al       6.89234770       9.96334648      12.78697032      -0.00730654      -0.00991235       0.00461313      -4.05273918
Ni       5.24636716      10.94448487       0.16336735       0.00933788       0.01387940       0.00762753      -5.78634894
Al       6.81301908      12.55639048       0.74584177      -0.00634371      -0.00185274      -0.00148587      -4.17628372
Al       6.42980086      12.04713904       3.54137453      -0.00331972      -0.00981846      -0.00299131      -4.03507272
Al       6.12925026      12.57525557       6.25222521       0.00280759       0.00039704      -0.00349979      -4.40116581
Al       6.50639698      12.01187439       9.13210306       0.00971449      -0.00128131       0.00730900      -4.25304820
Al       6.26818674      12.54268958      11.79077113       0.00813481      -0.00016002      -0.00171004      -3.87395305
Al       9.51405322       0.51593843       0.43657388      -0.00379591       0.00208184       0.00039965      -3.93745324
Ni       8.19742330      -0.34631130       2.35865109       0.00438821       0.01766634       0.00109610      -5.74862616
Al       9.68308576       1.32180496       3.17115288      -0.00256248       0.00051478       0.00040949      -4.31095256
Al       8.95220445       1.23108647       6.22577534      -0.00145076       0.00191182      -0.00162091      -4.54749827
Ni       7.60623261       0.06607167       7.85939416      -0.00320531      -0.00068496       0.00537297      -6.00297967
Al       9.06505990       1.20884900       9.35476883      -0.00792239       0.00209782      -0.00510091      -4.13227167
Al       9.52515636       2.23254580      11.80805885      -0.00386666       0.00153818       0.00336720      -3.70546270
Al       9.51878198       3.31011434       0.60435006      -0.00493397       0.00556359       0.00095419      -3.78383026
Al       9.45131314       4.08766925       3.40691792       0.00025454       0.00733474       0.00553959      -3.76716192
Al       9.07028130       4.03353419       6.26369338      -0.00023441       0.00213239      -0.00388367      -4.37408566
Ni       7.87467266       2.72280429       7.98508364      -0.00340362       0.00424603       0.00458471      -6.12710040
Al       9.67233035       3.97546168       9.26792091       0.00185612       0.00178748      -0.00162746      -4.14564097
Al       9.41347547       4.94689894      11.71548884       0.00498821      -0.00014396      -0.00174949      -3.64569739
Al       9.46261653       6.18099659       0.58440185       0.00155466      -0.00405104      -0.00085890      -3.88781820
Al       9.63094651       6.89037895       3.35100935       0.00048072       0.00379292      -0.00333397      -3.58484290
Al       9.49185716       6.76867567       6.50065974      -0.00107704       0.00511192       0.00012166      -3.86980905
Ni       8.11071862       5.32679923       8.08794557       0.00558516      -0.00340599       0.00301234      -5.91048785
Al       9.67542452       6.72570882       9.32206158       0.00268368       0.00107533       0.00625779      -4.07670491
Al       8.82907045       7.80286618      11.66615652      -0.00310277      -0.00204944      -0.00275996      -3.95748794
Al       9.01645884       8.94717609       1.27957739      -0.00203660      -0.00689177       0.00505106      -3.98633199
Al       8.20765794       9.13974031       3.84092474       0.00386979      -0.00086980      -0.00447402      -3.92670173
Al       9.17797079       9.51319510       6.49936359       0.00931951      -0.00057388       0.00515135      -4.32054212
Al       9.48239154       9.63340394       9.57799926      -0.00452910       0.00149103       0.00051945      -4.26701738
Al       9.59689340      10.47447493      12.54781970       0.00088292       0.00412965       0.00012756      -4.16109680
Al       9.51558238      11.65462388       1.39009717      -0.00212251      -0.00151599       0.00211959      -3.92278423
Al       9.18597230      11.94446171       4.02958864       0.00064051      -0.01120735       0.00053477      -4.16883972
Ni       7.49220713      10.79592911       5.36429666      -0.00249513       0.00957813       0.00373688      -5.76278601
Al       9.05194827      12.32674655       6.59787024      -0.00577306       0.00235964       0.00711948      -4.18020913
Al       9.34431635      12.33276323       9.20309151      -0.00280464       0.00162931      -0.00489871      -4.10474264
Ni       8.01108683      11.13735230      10.88067572       0.00022849      -0.00422364       0.00444292      -5.80959333
Al       9.16269939      13.18835457      11.76982895       0.00966674       0.00198639       0.00805747      -3.89143986
Al      11.87145401       1.64058811       1.11644480      -0.00079863      -0.00328070      -0.00310752      -3.86674862
Al      12.37727082       1.18629653       3.91036017      -0.01696100      -0.00462501       0.01048161      -4.24696667
Ni      10.63348846      -0.05119432       4.94171072       0.00268498       0.00826448      -0.00329716      -5.86566818
Al      12.08976512       1.06108166       6.66213139      -0.00002117       0.00177962      -0.00845021      -4.37725911
Al      11.64465293       1.33744037       9.51583199       0.00514081      -0.00105086       0.00286909      -4.17359843
Al      11.98913239       1.01617389      12.18489495      -0.00289654      -0.00080277       0.00010906      -3.81479466
Al      11.82603837       4.33758948       1.38349048      -0.00231624      -0.00293359      -0.00523519      -4.15765180
Al      12.06083997       4.21998379       4.07617126      -0.00365655      -0.00505263      -0.00648313      -4.26278223
Ni      10.63713612       2.54838155       5.11056870       0.00564378      -0.00453441      -0.00518318      -5.99238249
Al      11.94904773       4.07719447       6.66011515       0.00275460      -0.00273716       0.00064494      -4.27939520
Ni      10.49966548       2.49052848       7.69568495       0.00514609       0.00376527      -0.00147848      -5.91128154
Al      12.32096865       4.58075277       9.62459505       0.00322260      -0.00221880      -0.00394642      -4.10638005
Al      11.83263948       3.79768286      12.38814966      -0.00348546       0.00239674       0.00310037      -4.08859131
Al      12.05636478       7.19474034       1.35808376      -0.00294195      -0.00193804      -0.00351124      -4.32121883
Al      12.16107362       7.27353532       4.14841571       0.00717523       0.00066432      -0.00618578      -3.99524431
Al      12.30568907       6.74324193       7.16259717      -0.00405802      -0.00650204      -0.00199094      -4.18313950
Al      12.25780419       7.41938435       9.80098317      -0.00032414      -0.00468281      -0.00186523      -3.86747391
Al      11.50099937       6.55850448      12.22273598       0.00017984       0.01041565      -0.00560462      -4.07240655
Ni      10.61118576       8.23613905      -0.27174779       0.00439463      -0.00449805      -0.00646299      -5.77921769
Al      11.78340900       9.97158283       0.99577419       0.00155712      -0.00373429      -0.00084422      -4.09517050
Al      10.84149615       9.60902249       3.53867990      -0.00716579       0.00475942       0.00134788      -3.68906001
Al      12.08282792       9.38479293       6.19614243      -0.00001347       0.00576100      -0.00265617      -4.00244656
Ni      10.79509711       8.39082412       7.95722347      -0.00565710       0.00176311       0.00052035      -5.88060459
Al      12.32974476      10.01504200       9.23456248       0.00148042      -0.00236457      -0.00332472      -3.98037111
Al      11.96979468       9.30157086      11.87438377      -0.00054842      -0.00330161      -0.00313658      -4.05676088
Al      11.79792909      12.70162498       0.34025411      -0.00267628      -0.00047763      -0.00027294      -3.88725740
Al      11.74900454      12.27657678       3.13832687       0.00495342      -0.00310252       0.00274180      -3.83272803
Al      11.97595008      12.05714279       5.94843718       0.00061873       0.00134455      -0.00286153      -4.12279700
Ni      10.72882994      10.89517841       7.74512201      -0.00699579      -0.00204549      -0.00825521      -5.88521194
Al      12.26179466      12.62141895       8.62332142      -0.00182942      -0.00483058       0.00041864      -3.86490842
Al      11.78996619      12.11167237      11.28109849      -0.00055518       0.00196735      -0.00368619      -3.86194995
