100
Lattice="11.34206824579229 0.029387262503708027 -0.0019369166743556506 0.02939063662997513 11.341312876525182 0.0034998941116366426 -0.0019405668073800455 0.003509026457490316 11.251689494443854" Properties=species:S:1:pos:R:3:forces:R:3:energies:R:1 energy=-497.83031462736136 stress="-0.00014368067287862964 -0.0001788949873462329 7.497405484865444e-05 -0.0001788949873462329 -0.00013753924035519622 -1.6790744719289126e-05 7.497405484865444e-05 -1.6790744719289126e-05 0.0004537989528240477" free_energy=-497.83031462736136 pbc="T T T"
Ni      -0.00641030       0.03813587      -0.09207121       0.00356009      -0.00396859      -0.00111177      -6.23806204
Al       1.37117709       1.43067970       1.43069664      -0.00898915      -0.00850203       0.00018802      -4.66222941
Ni      -0.03613314       0.02250198       2.86505643      -0.00472111       0.00132672       0.00161501      -6.13203228
Al       1.41760348       1.49596915       4.24136402      -0.00723681      -0.00347633      -0.00062635      -4.44881119
Ni       0.02153642       0.05606532       5.66795229      -0.00281437       0.00236892       0.00117577      -6.14645026
Al       1.48605024       1.44102607       7.06831954      -0.00538149      -0.01161468      -0.00371987      -4.29307656
Ni      -0.06291140       0.01434181       8.41109081       0.00355712      -0.00054534       0.00018149      -6.05550258
Al       1.45928169       1.41356991       9.77002478      -0.00316644       0.00004663       0.00424127      -4.56768266
Ni       0.01668171       2.86564180      -0.02563923       0.00078497      -0.00392529      -0.00734211      -6.14139735
Al       1.44459566       4.27273020       1.42727423      -0.00391149      -0.00020861      -0.00044031      -4.47987988
Al       1.45667496       4.28278352       4.20499414       0.00505939       0.00125880      -0.00169020      -4.03948235
Al       1.37194341       4.23879671       6.97361834       0.00527445       0.00239334      -0.00497288      -4.06501273
Al       1.43266268       4.32037780       9.84468376      -0.01026152      -0.00078468       0.00331814      -4.47792238
Ni      -0.06046281       5.62326324       0.00803773      -0.00092898      -0.00495362      -0.00070404      -6.16655011
Al       1.47131689       7.08448053       1.40546324      -0.00463113       0.00158517      -0.00623144      -4.19058853
Ni      -0.01743726       5.66066350       2.78581387       0.00338756       0.00310209      -0.00102672      -6.04900508
Al       1.41919810       7.05167019       4.21828254      -0.00106986       0.00109986      -0.00312829      -4.48372316
Al       1.32526285       7.05898744       7.04665188       0.00445353      -0.00542757      -0.00099531      -4.41520892
Al       1.40104128       7.06818326       9.86488828      -0.00137145       0.00594948       0.00207915      -4.36180771
Ni      -0.03002203       8.50142105       0.00859986       0.00623589       0.00467203      -0.00398540      -6.16023821
Al       1.44821059       9.91137317       1.41341940       0.00211603      -0.00004285      -0.00254491      -4.59205653
Ni      -0.00670205       8.51928046       2.81238942       0.00836431      -0.01216028      -0.00692923      -6.23536876
Al       1.46961920       9.90929171       4.19196584       0.00105837      -0.00118201       0.00151543      -4.65997483
Ni      -0.01156699       8.53799509       5.62833122       0.00215019       0.00028547      -0.00006731      -6.17558728
Al       1.43555732       9.92700145       7.11278741      -0.00303080       0.00051375      -0.01280598      -4.56155436
Al       1.46390683       9.88195846       9.81714207      -0.00842614       0.00580451       0.00907080      -4.39116716
Ni       2.83019490      -0.01710224       0.05572739       0.00662822       0.00292107      -0.00313713      -6.03613507
Al       4.35935393       1.41095054       1.40516466       0.00135630      -0.00888733       0.00085251      -4.56179713
Ni       2.88649173       0.05274151       2.79473062       0.00957447      -0.00811597       0.00050305      -6.25448105
Al       4.27354717       1.51313487       4.24789692       0.00943912      -0.00271008       0.00179089      -4.43942436
Ni       2.85371313      -0.02098532       5.58013331      -0.00186816      -0.00580684       0.00281593      -6.17675729
Al       4.22808320       1.43792336       7.04561590      -0.00261701      -0.00299880       0.00466107      -4.47855320
Al       4.27965155       1.34929912       9.83739543       0.00074642       0.00652368      -0.00035672      -4.59774333
Ni       2.86269644       2.79209959       0.02576998      -0.00989937      -0.00183895      -0.00109521      -6.24655016
Al       4.29343214       4.24721149       1.44020695       0.00562953       0.00702735      -0.00199687      -4.48005432
Ni       2.85170744       2.81862453       2.78504776      -0.00154789       0.00232471      -0.00371391      -5.99785388
Al       4.23032598       4.25446018       4.17547405       0.00617710       0.01158060       0.00703699      -4.28598553
Al       4.31246759       4.21875285       6.99540488       0.00225881       0.00338152       0.00203138      -4.57795934
Ni       2.86127697       2.93132525       8.45375749      -0.00125619       0.00115798       0.00426303      -6.05415818
Al       4.25340252       4.30035865       9.88886801      -0.00173670       0.00644429       0.00307054      -4.67921744
Al       4.21068699       7.13031504       1.41065059      -0.00180561       0.00412197      -0.00196618      -3.79908905
Al       4.26224695       7.15015102       4.18561517       0.00272686       0.00054183      -0.00268084      -4.27186536
Ni       2.88512718       5.72232754       5.65627993       0.00308646      -0.00660389      -0.00962615      -6.07996832
Al       4.36135597       7.14214469       7.01681518       0.00245973      -0.00336974      -0.00538561      -4.55253300
Ni       2.85204964       5.70310940       8.38353541      -0.00487083       0.00239501      -0.00343150      -6.17978073
Al       4.27409477       7.12662035       9.90794222      -0.00559280       0.00061331       0.00315101      -4.29026963
Al       4.33545589       9.89115553       1.39407405       0.00290451       0.00417185      -0.00186320      -4.03081886
Al       4.27726059       9.84687514       4.21780977       0.00310842       0.00085850      -0.00082740      -4.40663545
Ni       2.80266817       8.48053290       5.68623570      -0.00322197       0.00284781       0.00529917      -6.18175776
Al       4.26388743       9.92376473       7.07379334      -0.00334516      -0.00085429       0.00066983      -4.49198594
Ni       2.85839753       8.40810160       8.43622737       0.00534791      -0.00307446       0.00084404      -6.00948858
Al       4.24512706       9.94398136       9.81100818      -0.00238573      -0.00074495      -0.00308614      -4.06031161
Al       7.10439442       1.43525631       1.43037116       0.00114011      -0.00016318       0.00460024      -3.87291081
Ni       5.68668702       0.00094559       2.91011686      -0.00406950       0.00226015       0.01567473      -6.01225123
Al       7.13418229       1.48502385       4.22871986      -0.00828664      -0.00129563       0.00001746      -3.82174204
Ni       5.65193148       0.01755029       5.61687426       0.00002033       0.01329963      -0.00083413      -6.14701163
Al       7.14216597       1.40732785       6.96146649      -0.00973242       0.00609002      -0.00266945      -4.32279354
Ni       5.74380438      -0.01257059       8.36278492      -0.00577974       0.00306664      -0.00325058      -5.98855788
Al       7.16318696       1.37344431       9.88142110      -0.00278856      -0.00186812       0.00220235      -4.24113446
Ni       5.70257060       2.85058147      -0.02387285      -0.00352861      -0.00315832      -0.00839768      -6.05428910
Al       7.13360731       4.20343793       1.42403525       0.00172885       0.00011129       0.00274648      -4.42651006
Al       7.10203798       4.16457093       4.20381437       0.00538920       0.00479660       0.00802278      -4.20969558
Al       7.10876513       4.26100175       7.00575663       0.00269004       0.01135980      -0.00430098      -4.49178023
Ni       5.75752736       2.80518338       8.47706290      -0.00325173      -0.00107453       0.00510844      -6.25384861
Al       7.17157000       4.27692410       9.85114901      -0.00539062       0.00581232       0.01013866      -4.56064520
Ni       5.73314965       5.68462041       0.03855110      -0.00402272       0.00464609      -0.00638967      -6.16845230
Al       7.07693721       7.16207402       1.43596141      -0.00600020      -0.00137349       0.00069942      -4.57019269
Ni       5.70898139       5.69912094       2.81284789      -0.00134906       0.00118435       0.00530017      -6.13915619
Al       7.07498442       7.16296122       4.21288721      -0.00359358      -0.01076172       0.00295934      -4.55001671
Ni       5.69216243       5.65336976       5.56367162       0.00327659      -0.00500629      -0.00613794      -6.25162952
Al       7.11894189       7.10841422       7.05603547       0.00082562       0.00261958       0.00144333      -4.27997222
Ni       5.67404514       5.69870206       8.46299861       0.00840044      -0.00147669       0.00389684      -6.15693955
Al       7.10504344       7.14813848       9.82095756       0.00080240       0.00176121      -0.00204006      -4.28002398
Al       7.07818771       9.99342292       1.42605700       0.00363518      -0.00358622       0.00692361      -4.13560784
Al       7.12142239       9.93546256       4.26598176      -0.00441007       0.00024629       0.00761552      -4.37033178
Al       7.12623242       9.87396534       7.00621456       0.00598409       0.01083131      -0.00258999      -4.14118023
Al       7.06916475       9.94808239       9.86874124      -0.00314900       0.00316464       0.01065585      -3.98379809
Al       9.87801069       1.47747722       1.40250924       0.00517329      -0.00534586      -0.00328060      -4.04642420
Al       9.88248729       1.52692699       4.22501689      -0.00030073      -0.00171939      -0.00195375      -3.81184674
Al       9.92515687       1.51685985       6.98946954       0.00029731      -0.00595161      -0.00611518      -4.17583170
Al       9.89872931       1.51255552       9.79420971       0.00873566      -0.00281985       0.00522130      -4.30066109
Al       9.89804062       4.19090668       1.43307994       0.00185642       0.00351805      -0.00571230      -4.42565136
Al       9.99662088       4.23386366       4.27442987       0.00340326      -0.00062714      -0.00416503      -4.06889000
Al       9.93181421       4.30039451       7.02747588       0.00384332       0.00098191      -0.01067693      -3.85506393
Ni       8.48190766       2.83363686       8.37018177      -0.00662743       0.00622444       0.00857397      -5.90772128
Al       9.87205262       4.26889019       9.80161976       0.00527813       0.01002908       0.00633729      -4.31059715
Ni       8.51288891       5.73903898       0.02496513      -0.00349338      -0.00309315      -0.00273530      -6.17633961
Al       9.90976025       7.12401857       1.42772770      -0.00141574       0.00024669      -0.00018033      -4.72873350
Ni       8.53103737       5.64045280       2.85180165       0.00155726      -0.00877572      -0.00015479      -6.23430334
Al       9.96595590       7.08865883       4.23729888       0.00326268      -0.01287892      -0.00431912      -4.67233456
Ni       8.48255415       5.68647590       5.58509578      -0.00497432      -0.00410605       0.00171184      -6.07288112
Al       9.96417296       7.05996923       7.07986611       0.00171751      -0.00327445      -0.00225239      -4.05918042
Al       9.90972274       7.12178717       9.77544863       0.00595597       0.00371532       0.00205313      -4.20745618
Ni       8.50123689       8.56354424       0.01051345       0.00412378       0.00483659       0.00724724      -6.02213523
Al       9.91268619      10.03423835       1.39728280       0.00027564       0.00149298      -0.00222036      -4.56836507
Ni       8.52036348       8.57413396       2.81737505       0.00145903      -0.00883637      -0.00102726      -6.13235777
Al       9.90923747      10.01760092       4.24314466       0.00509314      -0.00023758      -0.00158770      -4.56258104
Ni       8.58136756       8.48975784       5.64140253       0.00197688       0.00115835       0.00436783      -6.05397696
Al       9.89746333       9.97125890       7.05959848      -0.00622498      -0.00575875      -0.00148951      -4.29654292
Al       9.89927744       9.95630122       9.80333010      -0.00087072       0.00421465      -0.00192231      -4.29842109
