89
Lattice="11.170485527418245 0.008004732399575921 0.03048312325481875 0.007985706776891723 11.225495303061791 0.01811926508070172 0.030497727718216204 0.018141156280244264 11.12856860577394" Properties=species:S:1:pos:R:3:forces:R:3:energies:R:1 energy=-418.4909089074722 stress="0.00015705594588257687 -0.0008526651337607061 -3.138637849426011e-05 -0.0008526651337607061 0.0003684828289371 0.00028156411128718773 -3.138637849426011e-05 0.00028156411128718773 -0.00041195502649548287" free_energy=-418.4909089074722 pbc="T T T"
Al       1.20268397       1.51089676       1.50058136      -0.00270955      -0.00139323      -0.00277877      -4.13506715
Al       1.39689946       1.47321262       4.19606400      -0.00549502      -0.01374139       0.00745767      -3.94130177
Al       1.29399680       1.20425036       6.89325470      -0.00604177      -0.00319531      -0.00153883      -3.97080789
Al       1.40417384       1.40588136       9.67355916       0.00460611      -0.00610107       0.00454276      -4.26117655
Al       1.27093981       4.30893487       1.39631330       0.00194896       0.00354154      -0.00898446      -4.29981892
Al       1.33501000       4.27460392       4.22945821      -0.00075831       0.00413339      -0.01025070      -4.22297978
Ni      -0.03032250       2.83087699       5.63093330      -0.00556806       0.00113185       0.00935739      -5.91848928
Al       1.61943746       4.10156238       6.94666711      -0.00653294      -0.00088414      -0.00569332      -4.21563501
Ni       0.02193560       2.74281044       8.21164111      -0.00137907      -0.00042823      -0.02019714      -5.92095811
Al       1.41439648       4.15051955       9.68588884       0.00739865       0.00673383      -0.00698031      -4.33258505
Al       1.56439029       7.31914644       1.37315435      -0.00864652       0.00085159       0.00445963      -3.93123850
Al       1.41938100       7.13875106       4.14919466      -0.00462838      -0.00059537       0.00413090      -4.04702097
Al       1.33004899       6.92504575       6.89142034       0.00442009      -0.00103629       0.00531583      -4.34780207
Al       1.31293983       6.95146619       9.80542722       0.00597696       0.00155767       0.00021230      -4.35165737
Al       1.08505840      10.02822323       1.52268255       0.01054285       0.00017217       0.00025540      -3.73814533
Al       1.46801337       9.96804845       4.18700425      -0.00219900      -0.00285550      -0.00271373      -3.68436328
Ni      -0.06082065       8.50629209       5.49072075       0.00260706       0.00205259       0.00215593      -5.99414737
Al       1.50910271       9.81327293       6.88609213       0.00133007       0.00129789      -0.00394226      -4.12738219
Ni       0.08682410       8.51737641       8.35538670      -0.00565607       0.00380872      -0.00460795      -6.00818265
Al       1.34393797       9.83032934       9.88896966       0.00364981       0.00332272      -0.00474057      -4.26615689
Ni       2.67018086       0.06744308       0.09005731      -0.00129872      -0.00016343      -0.00168171      -5.98777920
Al       4.18370447       1.34078436       1.49123427       0.00283518       0.00321135       0.00565074      -4.55851618
Al       4.13730322       1.44379322       4.35175521      -0.00200670       0.00198390       0.00280703      -4.26410495
Al       3.98885535       1.39882525       7.07279698       0.00294831       0.00013056      -0.00617052      -3.92289501
Al       4.20315115       1.49747395       9.77321110      -0.00054318      -0.00120765      -0.00491399      -4.34873742
Ni       2.70166570       2.76465657       0.10156193      -0.00403923      -0.00174795       0.00489257      -6.13925894
Al       4.28903380       4.19972781       1.40324996      -0.00135140       0.00103072       0.00018799      -4.61317269
Ni       2.82786816       2.89384083       2.82298797       0.00395885       0.00749343      -0.00035745      -6.07119608
Al       4.19630583       4.33968090       4.25369202      -0.00940301      -0.00528345      -0.00337407      -4.38606635
Al       4.31345248       4.12609662       6.98412558       0.00000816      -0.00054003       0.00467226      -4.09015089
Al       4.24026097       4.16382644       9.75939153      -0.00277155       0.00071508       0.00438470      -4.43834799
Ni       2.81581283       5.60426244       0.04836491      -0.00093690       0.00153639      -0.00637367      -6.17357416
Al       4.35285254       6.99148213       1.45692612      -0.00360967      -0.00515420      -0.00444061      -4.34553125
Ni       2.71998683       5.65859405       2.77597542       0.00114640      -0.00829601      -0.00189580      -5.98630592
Al       4.21470293       7.04146450       4.17687364       0.00702500       0.00694399      -0.00237054      -4.36837149
Al       4.23933005       7.10216432       6.97635721       0.00145957       0.00051311      -0.00085454      -4.50297156
Ni       2.85024493       5.66666636       8.37423021       0.00589396       0.00865260       0.00641352      -6.07276138
Al       4.25254239       7.11973983       9.78026364       0.00267284       0.00541758       0.00049801      -4.47607791
Al       4.03752579       9.74156311       1.44891042      -0.00333344      -0.00200832      -0.00396807      -4.25475141
Al       4.18028285       9.92821067       4.21615944      -0.00006636      -0.00214403       0.00522855      -4.14118620
Al       4.24348166       9.73485426       7.04421777       0.00744278       0.00996487      -0.00178906      -4.35321549
Ni       2.69164172       8.36760584       8.37580320      -0.00048452      -0.00129185       0.00034839      -6.03737128
Al       4.04204538       9.85716013       9.72235830      -0.00478440       0.00400782       0.00230989      -4.34299434
Ni       5.47956114      -0.08104391      -0.05933972       0.00919744      -0.00391247      -0.00563668      -6.01580478
Al       6.90522637       1.35406242       1.47718895       0.00785383      -0.00629218      -0.00441417      -4.16136481
Al       7.02921480       1.48951959       4.34668663       0.00015126      -0.00291408      -0.00510902      -3.99639627
Ni       5.56764034       0.04371558       5.74486333      -0.00158633       0.00339990       0.00440704      -6.02300909
Al       6.86431994       1.62567352       7.08972681      -0.00728653      -0.00659012      -0.00081497      -3.92662338
Ni       5.59875693       0.03923001       8.39559960      -0.00120547      -0.00041609      -0.00135470      -6.08695311
Al       7.07899076       1.31157599       9.81970687      -0.00391339       0.00180315       0.00788572      -4.29106507
Al       6.96939956       4.10969326       1.44376883       0.00812263      -0.00151230      -0.00550050      -4.46999060
Ni       5.53369752       2.76588819       2.90605850      -0.00181140       0.00444230      -0.00039717      -5.88944574
Al       6.96220561       4.29124254       4.16029137      -0.00191532       0.00255465      -0.00216956      -4.17689469
Al       7.19396617       4.24743608       6.89256812      -0.00060246       0.00580821      -0.00174697      -4.12614359
Al       7.03917910       4.03665225       9.73554826      -0.00392324       0.00528847      -0.00063425      -4.49749211
Ni       5.66387906       5.60639795      -0.05010494      -0.00066830       0.00066052       0.00488629      -6.12704621
Al       7.11597466       7.06759139       1.44145976       0.00081661      -0.01045625      -0.00303222      -4.41271242
Al       7.12142296       7.02747893       4.14504891      -0.00089606       0.00246529       0.01121124      -4.45740427
Ni       5.64958770       5.69550335       5.67327716       0.00383012       0.00606089      -0.00119021      -6.00780426
Al       7.10276031       7.15687491       7.00263917      -0.00218766       0.00401032       0.00080182      -4.52373231
Ni       5.70431423       5.59845314       8.34696648       0.00483052       0.00256298       0.00517022      -6.25902025
Al       7.04376989       7.10556662       9.79969051       0.00279020      -0.00656538       0.00024577      -4.22798142
Al       6.99068026       9.85681642       1.38553714       0.00108162       0.00100391       0.00243714      -3.98377759
Ni       5.62455226       8.51211123       2.83252617       0.00186274      -0.00779344       0.00182767      -5.90291647
Al       7.08375316      10.02015524       4.13894572       0.00429564       0.00121559      -0.00261825      -4.29177783
Ni       5.73714438       8.50702345       5.49013246      -0.00235116       0.00128635      -0.00434795      -6.19806987
Al       7.15953624       9.95112687       7.01518207      -0.00330187       0.00542895      -0.00133012      -4.39817504
Al       6.98558562       9.72570036       9.74366200      -0.00237865       0.00087234       0.00087067      -3.94200551
Al       9.69234225       0.87242803       1.35089791      -0.00022822      -0.00643088      -0.00344486      -3.84090683
Al       9.78702414       1.47741486       4.06098516       0.00302733       0.00308730      -0.00053103      -3.70955611
Al       9.53873310       1.50558120       6.88103242       0.00462972       0.01046751      -0.00447019      -3.97997300
Al       9.83031548       1.36009248       9.65991185      -0.00557252      -0.01351274       0.00371568      -3.93424860
Ni       8.44921171       2.62156670       0.07171655      -0.00632286       0.00336458       0.00424003      -5.87456340
Al       9.83088726       3.82491350       1.57284541      -0.00119052      -0.00431301      -0.00380776      -4.16743238
Al       9.70068190       4.23673303       4.33903775      -0.00517332       0.00064009      -0.00194832      -4.10707550
Al       9.93855302       4.43065443       7.04870320       0.00480181      -0.00162917       0.00121276      -4.25432574
Al       9.86729674       4.12745032       9.78595986      -0.00608804       0.00659557      -0.00058211      -4.37051962
Ni       8.41005257       5.48596611       0.04887169      -0.00097122      -0.00283536       0.00492172      -6.17061423
Al      10.15217296       6.62999601       1.32461360      -0.00314016      -0.00309963       0.00442458      -3.98988163
Ni       8.53611713       5.55994962       2.73736294      -0.00823868      -0.00347330       0.00074978      -5.89766683
Al       9.82221229       7.11391158       4.03810123       0.00342218      -0.00147331       0.00676857      -4.27057123
Al       9.75518701       7.14220283       7.03934822       0.00297303       0.00612892      -0.00189493      -4.31508498
Ni       8.42258269       5.65246598       8.46380126      -0.00494353      -0.00641959       0.00478393      -6.01241373
Al       9.78832213       7.14883374       9.82006534       0.00817008      -0.00539418       0.00414588      -4.23938497
Al       9.64536050       9.30268270       1.22997694       0.00486370      -0.01076659       0.00751221      -3.48864819
Al       9.87668488       9.98174238       3.91937079      -0.00403982       0.00093487       0.00047755      -3.99129799
Ni       8.53102098       8.60344418       5.50018991       0.00251295       0.00109515       0.00073174      -6.06295217
Al       9.88908892      10.05515582       6.94713017       0.01212206      -0.00280714       0.00592726      -4.13206283
Al       9.71621495       9.92355845       9.71348682      -0.00504655       0.00529150       0.00295733      -3.69786800
