128
Lattice="11.505341163283108 -5.7836650250146656e-05 0.0004186843570421387 -5.786886440322764e-05 11.496040762632273 0.00026378261551551074 0.0004186903113614414 0.0002637828208611866 11.50134172627031" Properties=species:S:1:pos:R:3:forces:R:3:energies:R:1 energy=-700.5115647800139 stress="-0.00021224895858511675 4.102041628814067e-05 -7.475000084727706e-05 4.102041628814067e-05 0.00161371973508815 -5.081470992518833e-05 -7.475000084727706e-05 -5.081470992518833e-05 0.0007541053303992102" free_energy=-700.5115647800139 pbc="T T T"
Ni       0.02049868       0.04307181      -0.07236086      -0.00309370      -0.00212076      -0.00019689      -6.11550028
Al       1.49963862       1.45639476       1.41037449       0.00001775      -0.00393672       0.00467519      -4.74743442
Ni       0.01926867       0.03611762       2.92115958       0.00037688      -0.00441367       0.00333523      -6.13220393
Al       1.41927347       1.46268219       4.32020387       0.00431303      -0.00222827      -0.00439271      -4.65073397
Ni      -0.00905396      -0.01048003       5.73471516      -0.00170868      -0.00557905      -0.00543805      -6.28168744
Al       1.41883309       1.44257871       7.21258680      -0.00245238      -0.00663006       0.00407496      -4.63550425
Ni      -0.02380799      -0.01075964       8.66882380       0.00225834      -0.00194229       0.00175027      -6.26706676
Al       1.46448957       1.44045681      10.05475433       0.00256216      -0.00347801      -0.00451930      -4.64359732
Ni       0.01026022       2.88796462      -0.01186495      -0.00223866      -0.00140890       0.00871041      -6.27173700
Al       1.45387130       4.31433101       1.43466419       0.00449655       0.00078480       0.00599077      -4.62407409
Ni      -0.00092055       2.89759401       2.85866469      -0.00232014       0.00062127      -0.00800439      -6.27177793
Al       1.45330692       4.31713593       4.31311771      -0.00295062       0.00750635       0.00086016      -4.62582173
Ni      -0.00199300       2.91178222       5.76627556      -0.00472145       0.00420285       0.00275889      -6.25014985
Al       1.47685576       4.30272749       7.19428693      -0.00101290       0.00001224      -0.00427032      -4.60516404
Ni       0.00564893       2.90262020       8.63964315       0.00256488       0.00097872      -0.00089391      -6.25047630
Al       1.47210401       4.31552642      10.06198908      -0.01197439       0.00595509      -0.00215642      -4.61378761
Ni      -0.00181644       5.72997741      -0.01766453      -0.00163026      -0.00463986       0.00143415      -6.26190127
Al       1.41900041       7.17024721       1.41383116       0.00127703       0.00316799       0.00192914      -4.64910234
Ni      -0.01150838       5.72314511       2.86392386       0.00219509      -0.00363212      -0.00019926      -6.26161506
Al       1.43427146       7.16262785       4.30910285       0.00498869      -0.01084224      -0.00422434      -4.64492311
Ni       0.00497840       5.70623028       5.76300578       0.00346295      -0.00115767      -0.00092185      -6.24974980
Al       1.40879323       7.17722222       7.21610318       0.00070576       0.00383809       0.00455776      -4.62588149
Ni       0.01205457       5.71240227       8.64329036       0.00373306      -0.00026433      -0.00089723      -6.25004723
Al       1.47214714       7.17850120      10.06153009       0.00507116      -0.00401981      -0.00231516      -4.63186789
Ni       0.01315955       8.58319136      -0.08298582      -0.00940737       0.00454743       0.00231411      -6.10511052
Al       1.28595162      10.05571836       1.41888544      -0.00323004       0.00063608       0.00355656      -4.75455280
Ni       0.01633339       8.58815962       2.93017568      -0.00400978       0.00460448      -0.00061087      -6.12159913
Al       1.50474452      10.04958751       4.32406876      -0.00399424       0.00551434      -0.00107150      -4.74817068
Ni      -0.00092698       8.63580964       5.73317464      -0.00244133       0.00493646      -0.00076647      -6.28076179
Al       1.42104094      10.07128812       7.20497685       0.00518494       0.00360484       0.00152376      -4.64512381
Ni      -0.01586182       8.63857827       8.67207433       0.00127471       0.00266346      -0.00367171      -6.26576175
Al       1.45311082      10.05711251      10.05611887       0.00135531       0.00174295      -0.00018784      -4.63993027
Ni       2.84772284      -0.05628664      -0.00137625       0.00321947      -0.00435948      -0.00281490      -6.12515883
Ni       4.34314830       1.41527308       1.46314044      -0.00628159       0.01020384      -0.00003933      -5.85958743
Ni       2.72076021       0.00212142       2.84197550      -0.00324935       0.00385555       0.00418032      -5.93134199
Al       4.30768104       1.28671749       4.18055349      -0.00606615       0.00260365       0.00182037      -4.85305983
Ni       2.81364032       0.06304468       5.78221634      -0.00034999       0.00331807      -0.00868770      -6.11084576
Al       4.33218464       1.42576904       7.16152822      -0.00320600       0.00488788       0.00208362      -4.64608845
Ni       2.91135953      -0.00527912       8.62216777       0.00314097       0.00460543       0.00547186      -6.27970465
Al       4.33106118       1.39855227      10.17852308      -0.00196882       0.00639793       0.00214662      -4.73487290
Ni       2.87599545       2.90595872      -0.02497749       0.00234650      -0.00298212      -0.00279632      -6.10017882
Al       4.34047332       4.21000889       1.45434617      -0.00115051       0.00101558      -0.00931362      -4.71649832
Ni       2.86010052       2.88863132       2.90822714       0.00503700      -0.00802564      -0.00074823      -6.11144320
Al       4.30072184       4.31503112       4.32068831      -0.00038311       0.00256446       0.00619150      -4.61008571
Ni       2.89696581       2.84766684       5.74014131       0.00600382      -0.00403666      -0.00092004      -6.26480399
Al       4.33737080       4.30563270       7.17309244       0.00889939       0.00258575       0.00442407      -4.62249078
Ni       2.91834608       2.85599460       8.63229626      -0.00151360      -0.00268698       0.00039139      -6.25822589
Al       4.32798329       4.31531004      10.05637331       0.00020039      -0.00063188       0.00106135      -4.61367990
Ni       2.91825831       5.73841596       0.01651480       0.00310478       0.00406106      -0.00302975      -6.25778970
Al       4.32837558       7.20920395       1.45819899      -0.00148574      -0.00436175      -0.00097130      -4.65919647
Ni       2.90379035       5.75560692       2.86492318       0.00306439       0.00377522       0.00150382      -6.26810673
Al       4.29843619       7.33189069       4.29730812      -0.00522090      -0.00181026       0.00182125      -4.74084331
Ni       2.89039471       5.77329118       5.75276612       0.00065843      -0.00116311      -0.00290257      -6.25987493
Al       4.32966841       7.19817579       7.16718208      -0.00237236      -0.00220349       0.00062993      -4.64304469
Ni       2.91020985       5.75733943       8.61905652      -0.00732120       0.00322957       0.00340379      -6.24964361
Al       4.32898637       7.22270014      10.07875323      -0.00196738      -0.00487600      -0.00114703      -4.63933738
Ni       2.88343199       8.65250001       0.02805086       0.00600279       0.00375778       0.00005794      -6.28779997
Al       4.29153618      10.16747053       1.57164663       0.00066161      -0.00839525      -0.00694505      -4.85018529
Ni       2.79164754       8.60075634       2.80052032      -0.00079369       0.00249474      -0.00024208      -6.11976754
Ni       4.21173277      10.05150260       4.30738954       0.00247068      -0.00074823       0.00727166      -5.77519029
Ni       2.79380963       8.56731865       5.80836710       0.00612161      -0.00099831      -0.00244389      -6.09596651
Al       4.28598431      10.06543294       7.05611186       0.00331121      -0.00608854       0.00416821      -4.73659240
Ni       2.89828823       8.63725765       8.60947137       0.00446584      -0.00395255       0.00292380      -6.27266510
Al       4.39471903      10.05457102      10.07275366      -0.00442334       0.00056065      -0.00528183      -4.72820464
Ni       5.76872840      -0.07115270       0.03888994       0.00023816      -0.00240550       0.00341693      -6.01087275
Al       7.04781692       1.44292289       1.45440676       0.01021344       0.00371125       0.00341265      -4.77184650
Ni       5.85961780      -0.08581103       2.91006463       0.00604044      -0.00172028      -0.00086338      -5.88345868
Al       7.21372413       1.33498864       4.32997312       0.00437542       0.01226208      -0.00764865      -4.75054605
Ni       5.75637812      -0.01335307       5.73321470       0.00017367      -0.00530116      -0.00129070      -6.01921514
Al       7.17037124       1.41862606       7.17659800       0.00899513      -0.00101194       0.00430095      -4.66584751
Ni       5.70411450      -0.01381800       8.57273179       0.00025827       0.00140688      -0.00006197      -6.11897681
Al       7.16375321       1.31084988      10.04958418       0.00241286       0.00650908      -0.00323673      -4.74672242
Ni       5.78769836       2.90418516      -0.05114573      -0.00420961       0.00083208      -0.00246430      -6.09518292
Al       7.17464897       4.31616152       1.45320713      -0.00950958      -0.00115965       0.00140204      -4.64455199
Ni       5.77839304       2.89947183       2.96169521      -0.00388472       0.00144974      -0.00124905      -6.09808925
Al       7.20808972       4.32316623       4.31741835      -0.00044951       0.00140879      -0.00049140      -4.62614208
Ni       5.74649939       2.84765276       5.70261117      -0.00357178       0.00213854       0.00177794      -6.26785413
Al       7.15638806       4.30684199       7.17676520      -0.00788549      -0.00053914       0.00107787      -4.61913306
Ni       5.74746573       2.84586225       8.64529785       0.00281108      -0.00367119      -0.00111726      -6.26805195
Al       7.18566163       4.32124438      10.05913488       0.00152603       0.00142398      -0.00011412      -4.61646537
Ni       5.74204883       5.75007455       0.00004898      -0.00332548      -0.00013986      -0.00143898      -6.26888430
Al       7.15956321       7.17883792       1.45353896       0.00591864      -0.00296843       0.00427989      -4.67525742
Ni       5.73305966       5.75676208       2.91239906      -0.00258445      -0.00275104      -0.00007112      -6.27190985
Al       7.20219986       7.29673210       4.31677857       0.00424914      -0.01522619      -0.00601173      -4.74680741
Ni       5.74938199       5.77765373       5.71049533       0.00013137      -0.00201291      -0.00000038      -6.26240267
Al       7.18111248       7.20241353       7.17714893       0.00395178      -0.00033146       0.00455554      -4.65590776
Ni       5.75314534       5.77272150       8.63102397       0.00803901       0.00446476       0.00205949      -6.25856287
Al       7.15588054       7.31071273      10.05667409       0.00010245      -0.00672731      -0.00136409      -4.73800064
Ni       5.72713270       8.65465557       0.07853117      -0.00246765       0.00352927       0.00195679      -6.12942087
Al       7.34271077      10.04654127       1.45444119      -0.00594361       0.00087524      -0.00288493      -4.91485303
Ni       5.77752803       8.66400548       2.85945291       0.00507166       0.00405969      -0.00131482      -6.02869913
Ni       7.32680413      10.04105241       4.33116248      -0.00562065       0.00130569       0.00103772      -5.72667223
Ni       5.77024640       8.64191401       5.75261674      -0.00585375       0.00590275       0.00142048      -6.01301780
Al       7.21822092      10.06605508       7.16506419      -0.00891972       0.00017114       0.00356090      -4.81113223
Ni       5.71319491       8.64200244       8.55786971      -0.00150621       0.00072078      -0.00082043      -6.11471980
Ni       7.21592929      10.05072197      10.05527023      -0.00149145      -0.00243874      -0.00245472      -5.79691689
Ni       8.60732038       0.10931172       0.03772270      -0.00111891      -0.00229115      -0.00396385      -5.94254450
Al      10.10532978       1.38652316       1.42476489      -0.00007885       0.00568778      -0.00239091      -4.73888452
Ni       8.64867644       0.11524479       2.83185895      -0.00502590      -0.00021398       0.00580532      -5.95457608
Al      10.07384075       1.45776250       4.31449468      -0.00557556       0.00582102       0.00531615      -4.65188584
Ni       8.70593369       0.03914718       5.80618844       0.00052047      -0.00446798      -0.00461391      -6.12395862
Al      10.09522343       1.46005926       7.20316942      -0.00253626       0.00187364      -0.00161477      -4.63644381
Ni       8.66950815       0.02165095       8.58314375      -0.00509792      -0.00317375       0.00350735      -6.12088875
Al      10.04766856       1.45682966      10.06388410      -0.00181871      -0.00073316      -0.00255619      -4.64277299
Ni       8.58329041       2.85156602       0.00821848       0.00323310       0.00332260       0.00222533      -6.27953880
Al      10.04306491       4.30569856       1.41952198       0.00136626       0.00117905      -0.00055469      -4.62639770
Ni       8.61496480       2.86030699       2.86263572      -0.00004015       0.00081871      -0.00125976      -6.28369409
Al      10.04894865       4.30509533       4.30718529       0.00361120      -0.00062340       0.00469296      -4.61336325
Ni       8.61990863       2.87303099       5.76297133       0.00280657      -0.00167049      -0.00137390      -6.26333714
Al      10.04366327       4.31262436       7.20707640       0.00005640       0.00038267      -0.00336218      -4.60292339
Ni       8.58991902       2.86655878       8.62262224      -0.00134972      -0.00276358       0.00214480      -6.25959200
Al      10.02913374       4.30423877      10.07173876       0.00903236      -0.00185437       0.00079022      -4.61562039
Ni       8.60003892       5.76700655      -0.00238844       0.00269210      -0.00597537      -0.00038044      -6.27072627
Al      10.10795401       7.23725856       1.42197266      -0.00296987      -0.00452769       0.00112962      -4.72811191
Ni       8.63302570       5.76124354       2.87232854      -0.00132009      -0.00079230       0.00062398      -6.27360301
Al      10.08029527       7.16318588       4.32709067      -0.00496073      -0.00560783       0.00002825      -4.64117840
Ni       8.61800439       5.74944479       5.75815754      -0.00273918       0.00474250      -0.00164185      -6.26240832
Al      10.09915626       7.16022137       7.20512693      -0.00322396       0.00013200      -0.00238250      -4.63964728
Ni       8.58771043       5.75337697       8.62682389      -0.00296143       0.00319843       0.00154797      -6.25879468
Al      10.05313662       7.16416889      10.05155317      -0.00369633      -0.00108293      -0.00017259      -4.63294034
Ni       8.62637295       8.51753731       0.02121243       0.00320817       0.00365341      -0.00492944      -5.93661194
Ni      10.09034616      10.06204339       1.42088359       0.00378518      -0.00527944      -0.00441543      -5.84842815
Ni       8.67258532       8.50927357       2.84442620      -0.00234436      -0.00167254       0.00183563      -5.94527320
Al       9.96993246      10.06611837       4.20890118       0.00780431      -0.00034478       0.00517064      -4.84341907
Ni       8.70787286       8.57944642       5.80644212       0.00327609       0.00406370       0.00037600      -6.12351688
Al      10.09000408      10.05730038       7.19836809       0.00378041      -0.00147620      -0.00071263      -4.63592130
Ni       8.66973321       8.60084708       8.58669639      -0.00473568       0.00350495       0.00161011      -6.12248957
Al       9.93070882      10.06787509      10.18102359       0.00952859       0.00078297      -0.00384066      -4.83086020
