128
Lattice="12.56269294691416 -0.006786116251408985 0.19319149448529244 0.005872262134869254 12.01690398701049 0.07921051798689675 0.19354372483876117 0.06427457877416955 12.285593469184114" Properties=species:S:1:pos:R:3:forces:R:3:energies:R:1 energy=-603.313404470807 stress="-0.000162957498023601 -0.00017239498040589883 -0.00020857829593802022 -0.00017239498040589883 -0.0003121831640204353 0.00010998807897372173 -0.00020857829593802022 0.00010998807897372173 -8.009322786106237e-05" free_energy=-603.313404470807 pbc="T T T"
Ni      -0.15524802       0.13548595      -0.04790877       0.00079081      -0.00178497       0.00312028      -6.13998284
Al       1.77439745       2.06143521       1.74139534       0.00317073      -0.00268644       0.00061706      -4.23906067
Ni       1.28134382      -0.86780211       3.90329305      -0.00135200      -0.00213235       0.00160036      -6.05275032
Al       1.07094906       1.58150419       4.63666760       0.00549220      -0.00577121      -0.00440058      -4.47874539
Ni       1.07732139      -0.18789983       6.36956085       0.00358431      -0.00695042      -0.00707390      -5.96253560
Al       2.06081029       1.72807839       8.01084107       0.00170422       0.00187924      -0.00570415      -4.31053824
Ni       0.33159672       0.15297903       8.88888705      -0.00991822      -0.00104046       0.00112481      -6.16174680
Al       1.54369640       1.86567235      10.94795000       0.00027981       0.00621673      -0.00257844      -4.41424460
Al      -0.78714068       2.36063327       0.72599965       0.00233910       0.01436563       0.00382565      -4.12347974
Al       0.92664026       4.58086252       1.31369128      -0.00032518       0.00792556       0.00392487      -4.36830303
Ni      -0.33376535       2.98951642       3.07198687       0.00633086      -0.00874685      -0.00042466      -6.12254109
Al       1.63362846       4.11420846       4.09173088       0.00727314       0.00981793       0.00162232      -4.28957740
Al      -0.93266362       4.37575293       5.15126959      -0.00630796       0.00236900      -0.00261475      -4.31998776
Al       1.23499928       4.29625118       7.49261008      -0.01522703      -0.00074985      -0.00434400      -4.33336403
Ni       0.20039512       2.81624685       9.06778016      -0.01232641       0.00109432      -0.00067852      -5.94046958
Al       1.71931293       4.58611987      10.54326623      -0.00457280       0.00195577       0.00178520      -4.34930789
Ni      -0.04598254       5.98349664      -0.52875132       0.00981015       0.00388115      -0.00404649      -6.09078400
Al       1.17451339       7.49713641       1.28486252       0.00431897      -0.00103356       0.00881770      -4.27240509
Al      -0.65167862       6.36262328       3.12906222      -0.01050684       0.00035388       0.00217780      -3.84862704
Al       1.29664933       7.11233583       5.06652701      -0.00916652      -0.00654320      -0.00210752      -4.09984712
Ni      -0.22301792       6.07955002       6.64825130       0.00800131      -0.00781215      -0.01291298      -5.75906776
Al       1.22388744       7.53272148       7.90440910      -0.00483418      -0.00729796      -0.00552546      -4.39461316
Ni      -0.03527778       5.74330211       9.22162968      -0.00012426       0.01347708       0.00236691      -6.19212479
Al       1.91185807       7.39140402      10.78873757       0.00462731      -0.00104930      -0.00904209      -4.33325446
Ni       0.54794893       9.28700202      -0.23755763       0.00815719      -0.00010456       0.00481400      -6.16851303
Al       1.46278557      11.02365253       1.38021696      -0.01022708       0.00043874      -0.01387156      -4.25049586
Al      -0.01478664       9.18698993       3.42990531      -0.00143570      -0.00251095       0.00711000      -3.77019686
Al       2.16651132       9.70921121       5.78259550       0.00448214       0.00229183      -0.00261248      -4.21749182
Al      -0.16139112      10.04368585       7.72076559      -0.00193262      -0.00370097      -0.00675268      -4.34243521
Al       2.53502881      11.11625713       8.25743004       0.00369234       0.00486737      -0.00403252      -4.23718942
Ni       1.20089134       9.43339264       9.54686840       0.00000084       0.00345497      -0.00090410      -5.99658781
Al       1.90853694      11.28114452      10.89413228      -0.00127480       0.01035240      -0.00081183      -4.51705819
Ni       3.14021386       0.50629135       0.08610134      -0.00109480       0.00387619       0.00147255      -6.12258928
Al       4.57199339       2.06175728       1.27619818       0.00460036       0.00255748       0.00461451      -4.44254692
Al       3.25672345       0.10419146       2.82757345       0.01139082       0.00897872       0.00923973      -4.03514327
Al       5.50908350       1.15269202       3.89422387      -0.00216117       0.00253831      -0.00822724      -4.21703921
Al       3.31542711       0.41481425       5.57167592       0.00661857       0.00089362       0.00140497      -4.26104536
Al       4.69085507       2.04747663       7.46003381       0.00235164       0.00023737       0.00345712      -4.12362359
Ni       3.69562321       0.81211637       9.69480623      -0.00849081       0.00329500       0.00217043      -6.05220176
Al       5.63811400       1.06531595      11.23670990      -0.00032676      -0.00397900       0.00433261      -4.33279002
Ni       2.82137196       3.31925787      -0.03394777      -0.00540410      -0.00316054       0.00271198      -5.92614617
Al       3.62183974       4.37291714       2.22866164       0.00012997      -0.00042925       0.00694946      -4.42062053
Ni       3.47293077       2.35089028       3.66337028       0.00410386       0.00063676      -0.00606480      -6.14360141
Al       5.09008582       3.58045478       5.12233114      -0.00006094      -0.00010377      -0.00439642      -4.37537895
Ni       2.82534830       2.90393455       6.00021401       0.00140254      -0.00072505       0.00999816      -5.82296327
Al       5.47885391       4.62936041       7.61094636       0.00299740       0.00036749       0.01165684      -4.19839259
Al       4.05737675       3.28172974       9.95312062      -0.00141799       0.00050173       0.00105472      -4.00822513
Al       5.17369933       4.52677037      12.10439137       0.00125764       0.00383810      -0.00110611      -4.46604245
Ni       2.65900818       5.82436020       0.27383477      -0.00288858      -0.00202530      -0.00604118      -6.04494779
Al       4.33436514       6.96916462       1.54600762      -0.00315820       0.00756616      -0.00433125      -4.33910382
Ni       2.17290934       6.19739434       2.93785708       0.00384666       0.00333518      -0.00379656      -5.85103075
Al       3.90294215       7.40976573       4.26091548      -0.00378026       0.00518792      -0.00064262      -4.27402754
Al       3.17761858       5.29712452       6.03539590      -0.00746954      -0.01411779       0.00034208      -4.24708687
Al       5.65997919       7.25323263       7.87944554       0.00548358       0.00968872       0.00093561      -4.31093307
Al       3.40020838       5.90526931       8.77812337      -0.00212865      -0.00541149       0.00489568      -3.90383483
Al       4.51102534       7.08886479      11.03497933       0.00767237      -0.00095762      -0.00073691      -4.12266666
Al       3.07968446       9.16304688       0.21800402      -0.00329730      -0.00000713      -0.00391683      -3.76710447
Al       4.98764337      11.11268311       1.12099886      -0.00474713      -0.00844976      -0.00157009      -4.18281977
Al       2.83627239       9.40593269       2.98376081       0.00663477      -0.00879485       0.00314452      -3.95874658
Al       5.33783910      10.59230649       4.36654811       0.00648679       0.01486898      -0.00115346      -3.89596777
Ni       3.33096158       7.63049290       6.66752061       0.00501948       0.00482032      -0.00820174      -6.09426381
Al       4.79396617       9.62161500       6.72736578      -0.00215335      -0.00263126       0.01135438      -3.92704626
Al       3.49142505       8.67267091       8.98017748      -0.00060129      -0.00222459      -0.00195014      -4.15487520
Al       4.57591292      10.62739859      10.72096622      -0.01169898      -0.00723139       0.00722843      -3.91020364
Ni       7.33443606      -0.34648156       0.16662265      -0.00056607      -0.00841057      -0.00739172      -6.03475371
Al       7.59424052       1.27564429       2.05335929       0.00048287      -0.00461603       0.00137165      -4.38289406
Ni       7.46068332      -0.13882572       4.24911776       0.00124276      -0.00174832       0.00041884      -5.88799434
Al       7.79105370       2.46440952       4.48214461       0.00412086       0.00479542      -0.00374962      -4.35176126
Al       6.90908221       0.62693693       6.42571577       0.00092851      -0.00321155       0.00327682      -4.09818597
Al       9.05187785       1.98787681       7.69388691       0.00642339      -0.00447104       0.00524494      -4.25803072
Al       5.33937592      -0.33135267       8.32630314      -0.00034706       0.01154646      -0.00643466      -3.96985613
Al       8.30968954       1.39104550      10.71432734       0.00827598      -0.00630327       0.00434929      -4.28382355
Ni       6.76612927       2.68573496       0.27817282      -0.00111061       0.00776569       0.00071170      -5.92964608
Al       7.49143995       4.79715576       1.50364703       0.00222716       0.00898016       0.00390158      -4.21580246
Ni       5.95459438       3.25183617       2.79883936       0.00084156      -0.00253673      -0.00012643      -5.90961407
Al       7.51884479       5.17798236       5.71824696      -0.00203700      -0.01034184      -0.00066973      -4.36642445
Ni       6.98422393       3.00218558       6.81460441      -0.00293571      -0.01429568       0.00271789      -6.07462519
Al       8.42309378       4.80430934       8.18970240       0.00170892       0.00329900       0.00176270      -4.26361299
Al       6.74631553       2.91628983       9.25654743       0.00165477       0.00147967       0.00527206      -3.90381719
Al       7.74325021       4.69606453      11.03837085      -0.00436283       0.00336742       0.00093884      -4.30991098
Ni       6.36469236       6.48860100      -0.14491896      -0.00514208       0.00447362      -0.00598242      -6.07736523
Al       7.19745915       7.48954154       2.14598429      -0.00643730       0.00533083       0.01287632      -4.23345515
Al       5.87620288       5.58515648       3.50685115       0.00403300       0.00169021      -0.00607177      -3.93393990
Al       8.97969177       6.97114113       4.45216240      -0.00835929       0.00314305      -0.00132181      -3.94840729
Ni       5.33803188       6.20082703       5.75129388      -0.00041740      -0.00500511      -0.00284631      -5.90413311
Al       8.35498291       7.72795385       7.18089045      -0.00941824      -0.00684191       0.00028268      -4.00969198
Ni       5.78115437       5.41204626       9.82771979      -0.00354736      -0.00418470       0.00267300      -6.09622048
Al       7.20772761       7.56209113      10.02708826      -0.00491621       0.00041182      -0.00788626      -4.10988190
Al       6.03050920       8.87234919       0.14470390       0.00303481       0.00173884      -0.00141399      -4.09396673
Al       7.32091010      10.38943531       2.41418751       0.00081603       0.00105998       0.00363914      -4.16992218
Ni       5.24931027       8.97049911       2.60911024       0.00641413      -0.00248253      -0.00422374      -6.10112881
Al       8.65510049       9.77801534       5.15677550       0.00387686       0.00132313       0.00210314      -4.16009698
Al       6.49487218       8.11979930       4.78752266      -0.00026141      -0.00119381      -0.01550162      -3.95534255
Al       7.77754811      10.37345719       7.70175059      -0.00914878       0.00380941      -0.00405681      -4.16156961
Ni       5.89802057       9.43572273       8.94570909      -0.00974256      -0.01210870      -0.00099170      -5.92692994
Al       7.28252992      10.63872135      10.42988552       0.01077513      -0.00045284       0.00639985      -4.29492710
Al       9.85270874       0.28902577       0.64855420       0.00749189      -0.00149110      -0.00694623      -4.33863937
Al      12.12205603       0.47908963       2.82322280      -0.00104273       0.00272772      -0.00292669      -4.25699895
Al       9.67317269      -0.30447236       3.49654921      -0.00874589      -0.00659649      -0.00074315      -4.17604779
Al      10.58743762       1.81764727       4.94925497       0.00148397      -0.00434852       0.00387894      -4.25586577
Ni       9.31691545      -0.14368237       6.15424590       0.00084920      -0.00312055       0.00420754      -6.00388950
Al      11.93666096       1.48848811       7.31549016       0.00404932      -0.01112613      -0.00275849      -4.15614666
Ni       9.49069431      -0.65465297      10.75861921      -0.00511285      -0.00446797       0.01250602      -5.87328962
Al      11.17380455       1.33630960      10.48203625       0.00032577      -0.00125909      -0.00005774      -4.38702823
Al       9.20470066       2.98662533       0.28920277      -0.00096277       0.00386495       0.00123307      -4.07741135
Al      10.84960374       4.91424395       1.10853637      -0.00925855       0.00439825      -0.00095750      -3.99574294
Ni       9.98673509       1.90274650       2.50977171      -0.00166707      -0.00213154      -0.00735827      -6.02142036
Al       9.71828347       4.21230551       3.46685338      -0.00557737       0.00414720       0.00160420      -4.22938333
Ni       9.34110536       3.62920367       5.94236085      -0.00149824       0.00047528      -0.00385883      -5.91380537
Al      11.03642244       4.18482497       8.01949502      -0.00230690      -0.00049698      -0.00004544      -4.47234285
Ni       9.49254987       3.40308646       9.92273812       0.00093034       0.01029933       0.00196781      -6.16142619
Al      11.64810306       3.97251274      11.00236044      -0.00246485      -0.01146363      -0.00693198      -4.23834391
Al       8.67392507       7.02598346      -0.04984451       0.01021210      -0.00129930       0.00441700      -3.93051357
Al      11.12447393       7.66681560       0.84843559      -0.00512134      -0.00011140       0.00627227      -4.10750519
Ni       9.45554983       6.40925702       2.23080540       0.00318791       0.00144378       0.01088524      -5.97238586
Al      11.19573420       8.02352499       5.63576227       0.00111801       0.00289027      -0.00950354      -4.12793713
Ni       9.81843579       5.96493518       6.46054390       0.00359121       0.00797617       0.00921981      -6.03547562
Al      10.87694835       7.35039454       8.16120582      -0.00780233      -0.00436367      -0.00537713      -4.21271736
Al      10.07376252       5.89673479      10.24074143       0.00261885      -0.00562075       0.00511769      -3.88545310
Al      11.95433760       7.93351897      10.50556464      -0.00463477       0.00164173      -0.00019341      -4.26778090
Al       8.90641215       9.69628424       0.28036940       0.00389729       0.01656631      -0.00725966      -3.99227478
Al      11.40691417      10.24176092       1.38858482       0.00572255       0.00275673       0.00792008      -3.89767287
Al       9.72478556       8.87281001       2.82712370       0.01136903      -0.00642787       0.00872241      -3.80616909
Al      11.57175133      11.00448850       5.55848166       0.00104468      -0.00189343      -0.00075608      -4.29869196
Ni      10.07077541       9.58803437       7.20208605       0.00372621      -0.00167136       0.00068169      -6.10286699
Al      10.24678901      11.64040639       8.53418733       0.00709111       0.00083362      -0.00083326      -4.23974593
Al       9.57293180       9.15288981       9.67640685       0.00182234      -0.00051804      -0.00010225      -3.97853429
Al      11.79249328      10.63442351      10.78525947       0.00391660      -0.00538930       0.00140734      -4.45183020
