107
Lattice="11.342703980526014 0.00180087101325192 0.001821807504515315 0.0017978649368777422 11.364709520663812 -0.0011144438421472256 0.001820595826155229 -0.001114651566146713 11.376463349017795" Properties=species:S:1:pos:R:3:forces:R:3:energies:R:1 energy=-547.8643733583232 stress="0.001381912913781159 -0.00036946755081780636 -0.00025962571424358147 -0.00036946755081780636 -0.00039953553001124416 9.41204205569291e-05 -0.00025962571424358147 9.41204205569291e-05 -0.0013606017079350712" free_energy=-547.8643733583232 pbc="T T T"
Al       1.29477734       1.40368188       1.44435453      -0.00766105       0.00672429      -0.00088560      -4.48500811
Ni      -0.14017436       0.00778571       2.93923664       0.00065635      -0.00151963       0.00055866      -6.12539072
Al       1.36450514       1.44682883       4.19109659      -0.00192516       0.01433203       0.00118928      -4.62385995
Ni      -0.03298241       0.06780028       5.65560187      -0.00376063       0.00025281       0.00043533      -6.17809931
Al       1.38492280       1.44453563       7.15550417      -0.00302931       0.00038571      -0.00602537      -4.62727429
Ni      -0.08898800      -0.03411496       8.46930434      -0.00141235      -0.00395893      -0.00162843      -6.16432730
Al       1.34185396       1.41978628       9.96063808      -0.01124572      -0.00199110       0.00156932      -4.47965536
Ni      -0.09303747       2.81092378       0.01067753       0.00705358      -0.00146377       0.00440807      -6.05164144
Al       1.33785497       4.24366572       1.43532694      -0.00721407      -0.00563006      -0.00286637      -4.48826427
Al       1.36232383       4.24299420       4.25188947      -0.00791795      -0.00680423       0.00622328      -4.50545349
Ni      -0.03825942       2.76560236       5.67702172       0.00318423      -0.00034840      -0.00295370      -5.99316072
Al       1.36632598       4.24632028       7.09703681      -0.00719359      -0.00559554      -0.00028266      -4.48818400
Al       1.35267810       4.24015759       9.96551726      -0.01011597      -0.00427788       0.00312608      -4.47280963
Al       1.35451888       7.10770560       1.42386075      -0.00726229       0.00115453      -0.00242402      -4.48334611
Ni      -0.02320170       5.69841710       2.88557360      -0.00481436      -0.00105360      -0.00064846      -6.05283554
Al       1.37879052       7.12701455       4.27535283      -0.00023025       0.00055589      -0.00228075      -4.36117331
Al       1.41754243       7.12062159       7.07214709      -0.00057715       0.00139121      -0.00166156      -4.49131541
Ni      -0.01671241       5.73471385       8.49553900       0.00073521       0.00189550       0.00133719      -6.11940006
Al       1.41666145       7.08082473       9.98888724       0.00010441      -0.00057991       0.00363137      -4.59297776
Ni      -0.02240586       8.54376369      -0.02795020      -0.00076598       0.00152235      -0.00047491      -6.09824429
Al       1.33167614       9.97195616       1.44393674      -0.00701883      -0.00130967      -0.00049974      -4.46422131
Al       1.37414285       9.93576529       4.25185911       0.00192018      -0.00429762       0.00298822      -4.51753770
Al       1.39097460       9.93396575       7.07075781       0.00131959      -0.00502114      -0.00120664      -4.60823618
Ni      -0.02836442       8.51667991       8.56123311       0.00127915      -0.00241084      -0.00069291      -6.22597834
Al       1.39922910       9.99338466       9.98677821      -0.00204086       0.00144796       0.00210969      -4.59911146
Ni       2.86330373       0.04936014       0.05794890       0.00145479      -0.00057182      -0.00282426      -6.21604602
Al       4.38991933       1.42674699       1.43184326       0.00271983      -0.00081757      -0.00179403      -4.15715836
Ni       2.85100546       0.01681558       2.80062929       0.00839467      -0.00396635      -0.00066610      -6.22948008
Al       4.31148402       1.41334993       4.25632387       0.00755441       0.00439467      -0.00104758      -4.15301097
Ni       2.81502027       0.02402681       5.65395799       0.00304448       0.00090186       0.00404972      -6.23247112
Al       4.28507083       1.41905362       7.05325251       0.00196605       0.00268686       0.00134606      -4.51627657
Ni       2.82758940       0.03671448       8.55884465       0.00508742       0.00042905       0.00079093      -6.26400979
Al       4.31143230       1.43016926      10.01619413       0.00029609      -0.00274987       0.00504503      -4.50348328
Ni       2.79326095       2.81971665       0.05570602      -0.00599558       0.00232458      -0.00012863      -6.23373735
Al       4.32862409       4.24539307       1.42221980       0.00850560      -0.00229837      -0.00207429      -4.34493947
Ni       2.88374726       2.80023696       2.81151206       0.00162941       0.00435497       0.00398099      -6.23027921
Al       4.28651280       4.20554500       4.25730849       0.00284711      -0.00241934       0.00146583      -4.52976689
Ni       2.78806496       2.82035112       5.64554386      -0.00664444      -0.00095098      -0.00078549      -6.23308846
Al       4.28367468       4.21579609       7.04950118       0.00466035       0.00248947      -0.00098180      -4.60649298
Ni       2.88737848       2.83157766       8.54762481       0.00439187       0.00113716      -0.00422736      -6.22740048
Al       4.30381615       4.24053891      10.00536361       0.00033943       0.00030010      -0.00002258      -4.49484159
Ni       2.85302668       5.64587997       0.02956996       0.00128247       0.00074966      -0.00206853      -6.20864892
Al       4.33251662       7.08349353       1.43830818       0.00768156       0.00185762       0.00119929      -4.46590718
Ni       2.80450718       5.66972749       2.82025008       0.00444858      -0.00176305      -0.00458529      -6.29011515
Al       4.29788941       7.11574287       4.21452720       0.00505345       0.00137833      -0.00400954      -4.61716946
Ni       2.86899518       5.66661477       5.66180344       0.00543340       0.00159517       0.00049778      -6.22109691
Al       4.27116503       7.07619240       7.12694617       0.00264837       0.00237445       0.00379283      -4.69756780
Ni       2.80305249       5.63090267       8.54518346       0.00003415      -0.00042572       0.00052807      -6.26424747
Al       4.29004283       7.06579838       9.96112874       0.00132311      -0.00042437       0.00163814      -4.58929167
Ni       2.85575823       8.53380866       0.05283296      -0.00301383       0.00001161      -0.00152223      -6.27300700
Al       4.32932836       9.96078155       1.44023080       0.00516445      -0.00170800      -0.00222732      -4.33812942
Ni       2.84024615       8.55622740       2.83775595       0.00062587      -0.00352161       0.00367376      -6.22438732
Al       4.30957300       9.98572601       4.23766774       0.00400189      -0.00214425      -0.00488691      -4.34863896
Ni       2.89056772       8.54461395       5.64350509       0.00229255       0.00099725       0.00094607      -6.21736842
Al       4.28611415      10.01778501       7.10828475       0.00143928       0.00217730       0.00149386      -4.59690687
Ni       2.84420727       8.55595135       8.53149567       0.00268417      -0.00223986      -0.00266059      -6.25504659
Al       4.29818394      10.00950611       9.97310814      -0.00256596      -0.00303380       0.00024584      -4.58448290
Al       7.13290951       1.40450054       1.40281013      -0.00377022       0.00117322      -0.00333075      -3.81342370
Al       7.01435878       1.40679761       4.23185985      -0.00026354       0.00043860       0.00590409      -3.58565214
Al       7.13893210       1.45678147       6.98995826       0.00246393       0.00440890       0.00048192      -3.97191928
Ni       5.79492717       0.12530463       8.52688468      -0.00812642       0.00144647       0.00365523      -6.22208152
Al       7.18261685       1.48056736       9.99194648       0.00374767       0.00037500       0.00589064      -4.22506099
Al       7.08800510       4.16970394       1.47100090       0.00014718       0.00171598       0.00060369      -4.28017245
Al       7.13563105       4.11922839       4.27681280      -0.00086958       0.00187813       0.00122589      -4.19523622
Al       7.13732084       4.16279084       7.06567114      -0.00088188      -0.00095833      -0.00225786      -4.37353842
Ni       5.68678597       2.80401705       8.52072487      -0.00011725      -0.00088757      -0.00201093      -6.13450899
Al       7.14765459       4.19988587       9.92673251      -0.00229373      -0.00505114       0.00440881      -4.41325291
Al       7.03477757       7.07928629       1.44991107      -0.00604326       0.00146174      -0.00268434      -4.49846870
Ni       5.74613314       5.59915580       2.90567899       0.00070774      -0.00714902       0.00333030      -6.11581970
Al       7.10490491       7.19565634       4.26019299      -0.00458885       0.00340079      -0.00325795      -4.51358284
Ni       5.73681510       5.67951560       5.63286727      -0.00287416       0.00487913      -0.00280150      -6.22972348
Al       7.11697479       7.13451054       7.08907082      -0.00220174       0.00065839      -0.00390963      -4.62816541
Ni       5.72758698       5.57034934       8.48340740       0.00129960      -0.00030287      -0.00281967      -6.21226432
Al       7.08282837       7.04220576       9.96231932      -0.00533639       0.00017793       0.00228213      -4.60958639
Ni       5.70838878       8.55738222      -0.02199184       0.00413830       0.00434770       0.00201946      -6.11030176
Al       7.05215794      10.00601698       1.41998759      -0.00451685       0.00563282      -0.00099223      -4.27193776
Al       7.04734374       9.94798878       4.29227406      -0.00544925       0.00066265       0.00299675      -4.14100750
Ni       5.64865611       8.54749407       5.70958764       0.00106458      -0.00189495      -0.00263628      -6.03748509
Al       7.11110341       9.97397914       7.04387611      -0.00698529      -0.00450589       0.00040038      -4.36766499
Ni       5.70504991       8.56190194       8.53428013      -0.00261305       0.00358760       0.00055868      -6.27047803
Al       7.11512481      10.00902284       9.99827818      -0.00164306       0.00261317       0.00200289      -4.51260770
Al       9.88905595       1.42551295       1.47968320       0.00369828      -0.00764960       0.00670238      -4.37415490
Ni       8.50224870      -0.05734785       2.88065792       0.00136410      -0.00202593      -0.00474240      -6.01733385
Al       9.77521334       1.47308719       4.30280327      -0.00018960      -0.00372274      -0.00375675      -4.29580177
Al       9.85858976       1.47369404       7.11303978      -0.00086326       0.00071953       0.00246209      -4.26243047
Ni       8.50169098      -0.00294374       8.49772489       0.00274334      -0.00368337      -0.00147998      -6.13257896
Al       9.91398836       1.41437225       9.94138263       0.00317052      -0.00794870      -0.00498440      -4.34079054
Ni       8.59405536       2.88955036       0.03336073      -0.00110263       0.00202409       0.00200946      -6.01440380
Al       9.97539550       4.28010274       1.47630056       0.00387465       0.00474959       0.00329370      -4.44689735
Al       9.95312104       4.23552497       4.30051267       0.00517301      -0.00031660       0.00242595      -4.27230476
Al       9.97317108       4.24815457       7.05952445       0.00704132       0.00071848      -0.00105916      -4.25033477
Al       9.98124525       4.28365139       9.93141230       0.00329252       0.00127517      -0.00387754      -4.42448121
Ni       8.47988875       5.60571359       0.04392104       0.00281263       0.00179188      -0.00525317      -6.23011304
Al       9.95729689       7.10187845       1.43996719       0.00351088      -0.00261711       0.00079938      -4.50672698
Ni       8.51708523       5.68935589       2.89711489       0.00226629      -0.00039769      -0.00141169      -6.26396647
Al       9.92268671       7.15845471       4.29574580       0.00063964       0.00461285      -0.00021900      -4.16499080
Ni       8.46670858       5.64961215       5.66785630      -0.00286318      -0.00317877       0.00207072      -6.14163392
Al       9.92786084       7.14438355       7.01860984      -0.00396801       0.00019786      -0.00457298      -4.35358327
Ni       8.56489839       5.68053375       8.45685524       0.00073622       0.00151356       0.00315696      -6.23091302
Al       9.91569205       7.06717294      10.00416952       0.00207854      -0.00656150      -0.00084341      -4.60550143
Ni       8.47380470       8.48905878       0.05854064      -0.00312221       0.00299674      -0.00085310      -6.24055220
Al       9.95551033       9.95532406       1.41528778       0.00081984       0.00324139       0.00265449      -4.42901912
Ni       8.48773116       8.60131106       2.82237575      -0.00044146       0.00324742       0.00376304      -6.14279305
Al       9.88923006       9.89401163       4.34959400      -0.00052372       0.00485693      -0.00266114      -4.24959268
Al       9.90297642       9.92619398       7.03265217       0.00254143       0.00014449      -0.00093160      -4.33801844
Ni       8.51760713       8.55302244       8.54525810      -0.00100666      -0.00091630       0.00073811      -6.23221137
Al       9.89408181       9.98513336      10.01026065       0.00247085       0.00429475       0.00028332      -4.50730415
