250
Lattice="16.022625736752914 -0.004381413067313323 0.05819631380735725 -0.004520550725924658 16.10124906079856 0.05027103837756383 0.058169287474326835 0.05028911872256632 16.038527503289192" Properties=species:S:1:pos:R:3:forces:R:3:energies:R:1 rep=5 n_sites=250 energy=-969.4697265625 stress="-0.0002939558180514723 0.0005196052952669561 -0.0003438236308284104 0.0005196052952669561 -0.0002009050513152033 0.00046625890536233783 -0.0003438236308284104 0.00046625890536233783 -0.00014595167886000127" free_energy=-969.4697265625 pbc="T T T"
Al       0.22145141      -0.00462542       0.09233031       0.00039303      -0.00172977       0.00049091      -3.68788135
Al       1.22958747       1.57441783       2.31698263      -0.01924808      -0.00164145      -0.00194795      -3.93012458
Ni      -0.09698311       0.01530949       3.86852930       0.00011056      -0.00016224      -0.00260009      -6.03044415
Al       1.97563561       0.82448149       4.96880057       0.00153844      -0.00501092       0.00777976      -4.24721885
Al      -0.26263521       0.32875632       6.35347570       0.00680668       0.00607103      -0.00142071      -3.78503370
Al       1.69432947       1.68951098       7.72186671      -0.00270011       0.00044178      -0.00336808      -3.95712376
Al       0.30009126      -0.18531057       9.31373412       0.00173517       0.01220408      -0.00523684      -3.67862821
Al       1.53444797       1.37488371      11.43302746      -0.00288086      -0.00934604       0.00117263      -3.90917540
Al      -0.17372912      -0.09755836      13.15715174      -0.00101421       0.00083986       0.00565848      -3.72356486
Al       1.91340031       1.42717963      14.34874639       0.00052969       0.00186406      -0.00570355      -3.68360281
Al       0.25109622       3.08608655       0.06711782       0.00138272      -0.00150689       0.00715366      -3.67507899
Al       1.80764943       4.99504630       1.59201450      -0.00357792       0.00170533      -0.00191398      -3.65869820
Al      -0.30880497       3.70969392       2.87449303      -0.00690727      -0.00557322      -0.00568479      -3.62039804
Al       1.24834756       5.17351397       4.53441791       0.00120720      -0.00286859       0.01056651      -3.66069949
Al      -0.04568736       3.37383390       6.13015976      -0.00019668      -0.00331919       0.00177998      -3.63924539
Al       1.53180282       4.75371482       8.28210445       0.00305000      -0.00086731       0.00421801      -3.85971898
Ni       0.54736219       2.94333203       9.74504591       0.00426047      -0.00342750      -0.00551620      -6.11209929
Al       1.49965227       4.65352991      11.29289970       0.01017642      -0.00855085       0.00927991      -3.87009269
Al      -0.00665105       2.87909627      13.24959490       0.00055558       0.00223772      -0.00190621      -3.61048543
Al       1.67546446       4.96418521      14.21315855       0.00140644      -0.00387035       0.00166448      -3.68102634
Al       0.22979444       6.55700597      -0.14560857       0.00237178      -0.00028442      -0.00083311      -3.70063734
Al       1.92449796       7.88885026       1.77310765       0.00207597       0.00640272       0.00088793      -3.84158719
Al      -0.36074956       6.55529106       2.71899099      -0.00376208       0.00186232       0.00011838      -3.75109470
Al       1.14752668       7.92085282       4.73609783       0.00525725      -0.00626284      -0.00067605      -3.92471993
Al      -0.24121296       6.37636823       6.62823942       0.00326307       0.00010941      -0.00373509      -3.68013954
Al       1.30624620       8.17484852       7.90120726      -0.00694738      -0.00307198      -0.00296296      -3.67114055
Al       0.09243065       6.75752554       9.92834892      -0.00600147      -0.00152206      -0.00610919      -3.67955697
Al       1.94065315       8.29051054      11.53381070       0.00389537      -0.00669284      -0.00385173      -3.63922489
Al      -0.00796469       6.61127413      12.68526604       0.00122582       0.00331845       0.00444787      -3.70010090
Al       1.98123250       7.90875839      14.19009746      -0.00169480      -0.00217461       0.00113235      -3.69009483
Al       0.22285971       9.39084474      -0.11722895      -0.00099317      -0.00039456      -0.00191841      -3.58676648
Al       2.56270824      10.49197268       2.11472651      -0.00143819      -0.01050186       0.00074074      -3.77975869
Al      -0.38134882       9.49222845       2.61707823      -0.00184488       0.00190772       0.00205117      -3.61766493
Al       1.54492171      10.82243216       4.68022486       0.00462392      -0.00283767       0.00289483      -3.88840425
Al      -0.47765054       9.65181599       6.16446432       0.00290694       0.00163067       0.00707348      -3.64610124
Al       1.42941892      10.90916975       7.79804645      -0.01368217       0.00868071      -0.01079990      -3.65431583
Al       0.15277157       9.59946024      10.06399409      -0.00538810       0.00236595      -0.00760160      -3.69122303
Al       1.58047593      11.55446732      11.48571318       0.00009446       0.00135041      -0.00439917      -3.72042286
Al      -0.01092410       9.72493247      13.01058317      -0.00768499      -0.00545739       0.00952111      -3.71912920
Al       1.68490725      11.55481794      14.69182453      -0.00791680      -0.00559871       0.00441772      -3.65098512
Al       0.25666760      13.37588491       0.22494952       0.00458863       0.00223205       0.00683666      -3.62873590
Al       1.76765134      15.02069373       2.41858142       0.00858452       0.00493735      -0.01098827      -3.97396684
Al       0.72792930      12.31840084       2.56353962      -0.00147383      -0.00258445       0.00334494      -3.60093594
Al       1.13413423      14.02750358       4.74511603      -0.00512256      -0.01013720       0.00452321      -3.76369226
Al      -0.09174298      12.63370629       6.57640445       0.01407524      -0.00404119       0.00536395      -3.67062783
Al       1.85246478      14.67155818       7.36294954       0.00226668      -0.00320095      -0.00114507      -3.85874224
Al       0.20812602      13.04336088       9.33129082       0.00423721      -0.00149800       0.00456831      -3.73974609
Al       1.64946986      14.53167624      11.29412848       0.00044554       0.00086678       0.00162997      -3.69965231
Al       0.01285609      13.28259432      13.13076477      -0.00091649      -0.00061982       0.00064105      -3.63605201
Al       1.95674679      14.72619861      14.59973223      -0.00486607       0.00641192      -0.00874945      -3.68132401
Al       3.05976821       0.39105730       0.48168764       0.00321101       0.00322459       0.01612929      -3.84179223
Al       5.12709909       1.85941539       1.60797035      -0.00565006      -0.00157967       0.01493943      -4.05967814
Ni       3.46656945       0.80046784       2.92768381       0.01806766      -0.00306181      -0.00754073      -6.04572368
Al       4.54178896       1.79411370       5.05016431      -0.00256513       0.00538915      -0.00716045      -4.12883705
Ni       3.63532637       0.16603570       6.83298630       0.00276546       0.00553018       0.00017739      -6.01759088
Al       4.80291105       1.82135817       7.98083695      -0.00793242      -0.00630808      -0.00097419      -3.92746460
Al       3.20388009       0.01050727       9.38037490       0.00469049       0.00926848      -0.01040438      -3.85199440
Al       4.96703543       1.53269206      11.06503093      -0.00082039      -0.00401583      -0.00175677      -3.68977427
Al       3.51246500      -0.10017592      12.67575790      -0.00519735       0.00119603       0.00137199      -3.69878328
Al       4.80801622       1.46410136      14.57051014       0.00583790      -0.00123253       0.00019909      -3.68046319
Al       3.29274369       3.41564699      -0.26934002       0.00335350      -0.00198337       0.00155911      -3.60596168
Al       4.91878072       4.61658231       1.58292496      -0.00124571      -0.00172751      -0.00195249      -3.66547608
Al       3.12260793       3.30363817       3.29273610       0.00557410      -0.00446245       0.00015946      -3.83716714
Al       4.92736582       4.82646460       5.11624781       0.00379983       0.00164447      -0.00912231      -3.70540524
Al       2.75032069       3.59867565       6.10017477      -0.00437683       0.00417252      -0.00388632      -3.60052764
Al       4.52138720       4.59967363       8.10435137      -0.00035757      -0.00113868       0.00627499      -3.73110616
Al       3.05132012       2.97555463       9.80478802       0.00363871      -0.00040498      -0.00168450      -3.79093242
Al       5.03678717       4.40826401      11.12018045      -0.00843981      -0.00935099      -0.00064078      -3.82756889
Al       3.39726553       3.18189972      12.86665614      -0.00075571      -0.01009822       0.00052974      -3.68528426
Al       5.34815270       5.02820251      14.14472135      -0.00298015       0.00684901       0.00058359      -3.84661818
Al       3.49690013       6.41610908      -0.06076149      -0.00355829      -0.00409560       0.00398247      -3.64994109
Al       4.87889820       8.50584380       2.06521585       0.00110921       0.00066058      -0.00153911      -3.92983675
Al       3.47820859       6.38238223       3.43744056       0.00147770       0.00218421      -0.00376792      -3.85559267
Al       5.17609925       8.04802961       4.92689799      -0.00107151      -0.00280437       0.00094718      -3.92339331
Al       3.10536360       6.47321607       6.53678738       0.00306083       0.00171310       0.00152340      -3.68393075
Al       5.07162864       8.58217575       8.24088178       0.00240655      -0.00049403       0.00469664      -3.61885762
Al       3.06603707       6.71879910       9.50384291      -0.00282688       0.00024411       0.00157286      -3.65171516
Al       4.90803116       8.51664536      11.17142106      -0.00401853       0.00423357      -0.00466277      -3.96062946
Al       3.44034082       6.20525409      12.38092495      -0.00819781      -0.00501559       0.00016438      -3.82806981
Al       4.87837758       7.90335574      13.98464717       0.00211886      -0.00162233      -0.00189015      -3.86946058
Al       3.40033165       9.49378771      -0.24663907      -0.00063484      -0.00067129      -0.00204649      -3.66235280
Al       5.12230387      11.20896859       1.48747094       0.00483038       0.00050368       0.00025083      -3.69023204
Ni       3.15573136       8.84198162       3.85229768      -0.00495166       0.00178787      -0.00132385      -6.02183461
Al       4.56205341      10.75955525       4.32625770      -0.00040258      -0.00782102      -0.00010630      -3.89723802
Al       3.23582714       9.40260869       6.37643236       0.00542639      -0.00086338      -0.00302806      -3.80434608
Al       5.02641129      11.34434703       8.15067180      -0.00130766       0.00246481       0.00678141      -3.71971989
Al       3.02495101       9.81368910       9.58511891       0.01086319       0.00181700       0.01530015      -3.70242131
Al       4.67949330      11.51176289      11.03290707      -0.00009431       0.00329010      -0.00352838      -3.73567915
Al       3.43658769      10.13242328      13.04796507      -0.00458718      -0.00347930       0.00210355      -3.69730282
Al       4.91695754      11.75386261      14.83947348      -0.00076235       0.00646359      -0.00106451      -3.69674027
Al       3.03961418      13.03088270       0.63850787      -0.00251557       0.00032603      -0.00248216      -3.70566916
Al       4.82325729      15.03462140       2.15516832      -0.00805204       0.00473347       0.00004354      -4.05183929
Al       3.34822757      12.91281395       3.36847465       0.00292073       0.00301076      -0.00346511      -3.67004395
Al       4.00782508      15.06878659       4.79080056      -0.00230112       0.00579035       0.00068130      -4.05958283
Al       3.19349117      12.45334803       6.22439071      -0.00489424      -0.00461934      -0.00272294      -3.69468963
Al       4.76682952      14.30963141       7.87036498       0.00882666      -0.00429165      -0.00243596      -3.88512957
Al       2.91103226      12.77585128       9.28387735       0.00246938       0.00190591       0.00196584      -3.67710662
Al       4.61813500      14.36106545      10.86887246       0.00427766      -0.00976332       0.00717478      -3.66212356
Al       3.35637144      13.06749967      12.97106053       0.00027224       0.00897323       0.00343238      -3.71137941
Al       4.67740725      14.73417199      14.94336167       0.00217409      -0.00039492       0.00502319      -3.68664396
Al       6.87189466       0.09337078      -0.28158061      -0.00154757       0.00227563       0.00068567      -3.67221820
Al       7.97189542       1.65149746       1.99581863       0.00781044      -0.00897107      -0.01047030      -3.91398853
Ni       6.12946113       0.73476049       3.54192765      -0.00280519      -0.00238103       0.00112332      -5.98175794
Al       8.18956822       1.25755833       4.86774332       0.00117280       0.00216989       0.00039095      -3.87826729
Al       6.14457426      -0.04736903       6.15095131       0.00541779      -0.00087309       0.00022823      -3.83528602
Al       8.14020830       1.28997666       7.78171028      -0.00682597      -0.00033062       0.00253226      -3.69367433
Al       6.49689247      -0.10681678       9.58005436       0.00198145       0.00431298       0.00333675      -3.64986300
Al       8.16679509       1.20430506      11.29807527      -0.01019832      -0.00678030       0.00679977      -3.90299988
Al       6.34293751      -0.15049237      12.88621217      -0.00123694      -0.00247622       0.00238296      -3.71614194
Al       8.68142040       1.49922930      14.03616584       0.00515200       0.00388610      -0.00565943      -3.89512664
Al       6.62595777       3.00205800      -0.28900457      -0.00415572       0.00146539      -0.00304686      -3.65152180
Al       7.88931053       4.61570388       1.55992971       0.00393645       0.00201433      -0.00683803      -3.69952834
Al       6.54519933       3.25165168       3.65741125      -0.00358354       0.00576469      -0.00978863      -3.85710013
Al       7.82853894       5.20518743       5.13010788       0.00447077       0.00365802      -0.00388157      -3.68316376
Al       6.65357021       3.30319053       6.64013666       0.00684823       0.00078307      -0.00511733      -3.69113922
Al       8.10703285       5.15996516       8.24362677       0.00270274      -0.00004680       0.00842528      -3.92511338
Al       6.66656778       3.03621043       9.42453018      -0.00568819       0.00215201      -0.00099213      -3.68023050
Al       7.85556350       5.14426527      11.23602585      -0.00330867       0.00746427      -0.00171874      -4.25872421
Al       6.57918770       2.86819050      12.82323612      -0.00255200      -0.00070782       0.00181670      -3.82302046
Al       8.21144167       4.63376031      14.20345338      -0.00285941      -0.00121687      -0.00341314      -3.80108690
Al       6.29045581       6.61894932       0.28296229      -0.00430915      -0.00181928      -0.00794316      -3.65729916
Al       7.86589517       8.29363533       1.85695898       0.00111913      -0.00005769      -0.00441701      -3.70575440
Al       6.38115592       6.30798023       3.11447024       0.00497084       0.00525155       0.00268086      -3.68320322
Al       7.95713820       7.91113743       4.88314063       0.00188417       0.00248580      -0.00512224      -3.70288789
Al       6.16896180       6.50006312       6.88227335      -0.00370214       0.00191818      -0.00083963      -3.66040719
Al       8.10193660       8.08278096       8.30925130      -0.00317952       0.00432964       0.00403212      -3.91253191
Al       5.91441520       6.43760417       9.61482521       0.00365110       0.00277245      -0.00199246      -3.85053927
Al       7.91769169       7.86035171      11.13028395       0.00660743      -0.00430757       0.00210135      -3.95471799
Ni       5.93745773       6.52605772      12.10697629       0.00478181      -0.00198695       0.00869200      -6.06145048
Al       7.53003564       7.41708410      13.84745716      -0.01142432       0.00090074       0.00497234      -3.85059059
Al       6.30984123       9.39365814      -0.32753257      -0.00503385      -0.00183346      -0.00746292      -3.74782097
Al       7.92421575      11.07610968       1.32197575      -0.00696555      -0.00644083      -0.00232241      -3.73835921
Al       7.10442358      10.22745328       3.71753620       0.00047080       0.01074404       0.00024473      -3.63298690
Al       9.00770702      11.60818511       5.39383130      -0.00178055       0.00434956       0.00532719      -3.83289504
Al       6.73077854       9.85769380       6.41552192      -0.00421557      -0.00227711       0.00001777      -3.66259575
Al       8.02988547      11.63764717       7.90377788       0.00361319       0.00328924      -0.00711630      -3.81483543
Al       6.88069871      10.17194824       9.96265869      -0.00749693       0.00610751       0.00263304      -3.68317342
Al       8.48335323      11.88457883      11.89111728       0.00358215       0.00324589      -0.00005683      -3.84588683
Al       6.42638012      10.19931292      12.87449540       0.00290784       0.00289918       0.00076791      -3.70300698
Al       7.83314446      11.69575785      14.69187604      -0.00755260      -0.00552671      -0.00169842      -3.68091249
Al       6.38662383      13.40019682       0.44847105       0.00082098       0.00633374      -0.00187207      -3.70559680
Al       7.53962766      15.08150907       2.39633965       0.00822757       0.00934026      -0.00152549      -3.80539143
Al       6.37436771      12.82108356       3.27630878      -0.00463660      -0.00481503       0.00212676      -3.63182998
Al       8.14727720      14.26000533       5.06048627      -0.00195332      -0.00297392      -0.00872059      -3.84455919
Al       6.01636888      12.64857878       5.96337766       0.00756640      -0.00702513       0.00219056      -3.59692180
Al       7.73071475      14.52631206       7.81070917      -0.01182348      -0.00068474      -0.00895461      -3.88340598
Al       6.71383213      12.98528046       9.89368931      -0.00713324      -0.00172195      -0.00144610      -3.70363486
Al       8.32015605      14.56858220      11.40871781      -0.00333944       0.00665642       0.00411703      -3.80096507
Al       6.15717043      13.16037114      12.83794235       0.00429306      -0.00330835       0.00189333      -3.71696246
Al       8.35639286      14.39620725      14.19613604       0.00113949       0.00720350       0.00495848      -3.87848639
Al       9.60462942       0.05834169       0.40228005       0.00001605      -0.00407732       0.00260784      -3.72213221
Al      10.94487183       1.83617584       2.09713300       0.00314492       0.00951939       0.00050775      -3.65182412
Al       9.93441691      -0.35452813       3.34689644      -0.00100947      -0.00807604      -0.00359033      -3.61346555
Al      11.32438051       1.89386419       4.89166095      -0.00260034      -0.00256585      -0.00315283      -3.73227668
Al       9.99795585      -0.18151315       6.37977059      -0.00240033      -0.01004097       0.00025432      -3.83631027
Al      11.05503016       1.90234048       7.95617246       0.00193383      -0.00326277       0.00204023      -3.63051879
Al       9.91060225      -0.00498786       9.56830773       0.00023317      -0.00012590      -0.00342560      -3.65306735
Al      11.05553404       1.99867596      11.62847004      -0.00149354      -0.00272286       0.00579304      -3.87465882
Al      10.31471626      -0.29071554      12.74912966      -0.00533128      -0.00296798      -0.00428002      -3.79907763
Al      11.45684585       1.24404883      14.59758131       0.00134851       0.00904539       0.00466832      -3.70509803
Al       9.51302766       2.94117516       0.06883322       0.00445107      -0.00181139       0.00101145      -3.67601562
Al      10.84100252       4.77669355       1.56619026       0.00281155       0.00683438      -0.00388490      -3.64556897
Al       9.38371417       3.52409460       3.61916069       0.01082790       0.00680131      -0.00297124      -3.69636202
Al      11.43855781       4.91893502       4.88675783       0.00609517      -0.00264465       0.00396935      -3.71185434
Al       9.47017760       3.45032115       6.41322226      -0.00445967       0.00271092      -0.00123456      -3.71885061
Al      10.96548188       4.92483232       8.34866248       0.00246146       0.00134984       0.00110510      -3.86134177
Al       9.32965171       3.03679503       9.68076742       0.00724535       0.00402061       0.00146317      -3.83824003
Al      10.66081589       4.95276080      11.18158733       0.00280952      -0.00166129      -0.00113539      -4.03652346
Ni       9.03153222       3.30164397      12.22246205       0.00418424      -0.00207433       0.00728203      -6.05756080
Al      10.86914667       3.90066028      13.81264101       0.00060497      -0.00509674      -0.00579394      -3.88440794
Al       9.16466422       6.48515996       0.01880963       0.00195232       0.00426972      -0.00521125      -3.70007479
Al      11.02467114       8.12574173       1.17143448       0.00201154      -0.00175500      -0.00821577      -3.69413161
Al       9.58803644       6.49633535       3.20313138       0.00609566       0.00463567       0.00713221      -3.71950686
Al      11.46903974       7.94844848       4.76347414       0.00417472       0.00040479       0.00439544      -3.65249097
Al       9.82061664       6.52008171       6.41036133       0.00031956      -0.00679990       0.00619036      -3.66938162
Al      11.14194569       7.92451831       8.47680388       0.00583148      -0.00236483       0.00113168      -3.86123908
Ni       9.49030116       6.54707134       9.71964897       0.00026498      -0.00455444      -0.00083791      -5.91542256
Al      11.03068439       7.87271409      11.25720192      -0.00057516       0.00621091       0.00564110      -3.83149660
Al      10.07430843       6.50633950      13.45702391       0.00045316       0.00440884      -0.00155319      -3.56496584
Al      11.48029886       8.53258649      14.24043398      -0.00449213      -0.00480285       0.00122150      -3.62417710
Al       9.10976125       9.32116645      -0.47824526       0.00226902      -0.00276590      -0.00110680      -3.69148672
Al      10.74559058      11.12055484       1.11121597       0.00430240      -0.00607024      -0.00394836      -3.83860397
Al       9.79276530       9.65552008       3.33600298       0.00085311      -0.00385231       0.00280065      -3.71639121
Al      11.74571683      11.22054589       4.34173497       0.00233500       0.00045592       0.01016649      -3.77019167
Al       9.77264689       9.28711208       6.46198524      -0.00431248       0.00646906       0.00457123      -3.61604035
Al      10.95635138      11.45758557       7.63652507       0.01092389       0.00089389       0.00267866      -3.83934736
Al       9.63337558      10.12210350       9.80273463      -0.00213426       0.00115122      -0.00538915      -3.64030230
Al      11.19073887      11.55571234      11.51483632      -0.00141250       0.00812653      -0.00429191      -3.89737284
Al       9.30571429       9.45035489      12.82669020      -0.00338331      -0.00275883       0.00145569      -3.64315152
Al      10.74396033      11.50723583      14.36020415      -0.00462301      -0.00632945      -0.00168501      -4.06078118
Al       9.06282119      13.47939036       0.58353292       0.00855643       0.00482835      -0.01331841      -3.59635007
Al      11.73855606      13.66123783       1.77551473       0.00760198      -0.00397617       0.00414493      -4.08888459
Al       9.31275630      12.69273427       3.03446630       0.00122439      -0.00222498       0.00204680      -3.62166953
Al      11.08162352      13.79302543       5.00631709      -0.00921853       0.00300208       0.00512659      -4.16710258
Ni       9.64125302      13.43049136       6.95549375       0.00485812       0.00156755      -0.00974363      -6.04575372
Al      11.63140388      14.39338150       7.97189712      -0.00725132       0.00001203      -0.00258305      -3.89656985
Al       9.66208462      13.13519694       9.46765839      -0.00359829       0.00159334       0.00029707      -3.88042140
Al      11.65934143      14.33576891      11.00563365       0.00255980       0.00342709      -0.00230283      -3.83064938
Ni      10.27942689      13.41767646      12.82602573       0.00221400       0.00573473      -0.00399170      -6.05892146
Al      11.18867279      14.32199011      15.01417497      -0.00575466       0.00205010      -0.00328660      -4.04644978
Al      12.46184292       0.05610909       0.74866067       0.00825114      -0.00046225      -0.00850927      -3.59053254
Al      14.54594796       1.27645655       1.97044314       0.00277304       0.00466622      -0.00064258      -3.77969050
Al      12.58679462      -0.32187952       3.50759035      -0.00494303       0.00016718       0.00407559      -3.80331528
Al      14.28876296       1.80919313       4.64010313      -0.00607476      -0.00000305       0.00047763      -3.80654752
Al      12.91074226       0.42958118       6.65907088      -0.00804455      -0.00012329       0.00290803      -3.65224802
Al      14.74705764       1.87352635       8.34486429      -0.00306627       0.00382213      -0.00382929      -3.87630594
Al      12.73260491       0.40011404       9.65859588      -0.00277217       0.00066638       0.00021611      -3.70992315
Al      14.81049420       1.56261509      11.07921676      -0.00272201       0.00392181       0.00139408      -3.87645274
Al      13.11102557       0.05956590      12.72850640      -0.00262162       0.00035829       0.00330369      -3.64823079
Al      14.27210723       1.35963584      15.01881115       0.00056222      -0.00229784       0.00283446      -3.66146326
Al      12.48606351       3.18022286       0.01901567      -0.00145796      -0.00237468      -0.00132021      -3.67610025
Al      14.22640346       4.98257449       1.05130452       0.01481411       0.00510053       0.00915887      -3.66808009
Al      12.91552554       3.48217907       2.94322528      -0.01037147       0.00461129       0.00220024      -3.67937195
Al      14.25382469       5.05620280       4.80108809       0.00399553      -0.00015646      -0.00221972      -3.72052431
Al      13.00530307       3.42475884       6.74825204       0.00244828       0.00398415      -0.00400095      -3.72486734
Al      14.84754009       4.56503891       8.50547897      -0.00369503      -0.00157955      -0.00618282      -3.77185881
Al      12.65071672       3.27106305       9.82068521      -0.00007878       0.00000647       0.00314176      -3.65541542
Al      14.83823551       4.41646190      11.25612349      -0.00915514       0.00333121      -0.00278676      -3.81534958
Al      13.25972140       2.95139857      12.95978404      -0.00274937       0.00426264       0.00268416      -3.65637863
Al      14.62553126       4.88556991      14.45065740      -0.00254972       0.00810546       0.00178724      -3.69420803
Al      12.06754237       6.03653339      -0.60390193       0.00019221      -0.00467332       0.00015448      -3.72153115
Al      14.00937494       7.76128158       0.92922862      -0.00528367       0.00436471       0.00499224      -3.66462827
Al      12.66003524       6.41346781       2.85731627      -0.00493769      -0.00096412      -0.00254764      -3.73630476
Al      14.21332223       7.87759195       4.72566442      -0.00295800       0.00233420       0.00723951      -3.69473040
Al      12.89383999       6.37552815       6.86900059       0.00111188      -0.00388848       0.00393499      -3.70839238
Al      14.31990738       8.16499817       8.44787953       0.00665497       0.00323481       0.00067312      -3.71432054
Al      13.06549425       6.09187153       9.87441048      -0.00177184      -0.00133807       0.00063147      -3.67620385
Al      14.06510912       8.14841697      11.40075489       0.00192948      -0.00380934      -0.00275170      -3.67426646
Al      12.79084228       5.96763266      12.69180301       0.00239160      -0.00203280       0.00467092      -3.72656846
Al      14.20043399       7.91705557      14.28403497      -0.00204643      -0.00140063      -0.00076711      -3.70036697
Al      12.87705059       9.95865215      -0.11834860      -0.00703884      -0.00721923      -0.00064271      -3.86973614
Al      13.92424481      11.97201465       1.71739133      -0.00036937       0.00217013       0.00637238      -4.06240201
Al      12.85230482       9.37975591       2.76427356       0.00249983      -0.00598375      -0.00894826      -3.61108959
Al      14.71302896      11.49221129       4.31846580      -0.00399669       0.01457120      -0.00661415      -3.83656776
Al      12.72053145       9.57320644       6.61836114       0.00073298      -0.00017402       0.00789168      -3.70248842
Al      14.63825866      10.92932198       8.38174828       0.00711756      -0.00906932      -0.00132361      -3.67209625
Al      12.52659370       9.89057867       9.85800993       0.00224868      -0.00219252       0.00353938      -3.67551589
Al      14.72821715      11.65013967      11.33053571       0.00702165      -0.00348226       0.00339131      -3.67305517
Al      13.12615011      10.16964440      12.92507330      -0.00512625       0.00163596       0.00054586      -3.58957791
Al      14.78889787      11.63689851      14.90356403       0.00844783      -0.00357822      -0.00881119      -3.78641796
Ni      12.53104296      12.36993584      -0.25204342       0.00460157      -0.01168996      -0.00136730      -5.99843633
Al      14.87737538      14.51423306       2.43725109      -0.00119240       0.00153930      -0.00723729      -4.02866292
Ni      13.07475662      13.23032284       3.77225823       0.00606588      -0.00948100       0.00239503      -5.93545115
Al      14.43239764      14.51705560       5.20156857      -0.00240640      -0.00871216      -0.00237572      -4.10623282
Al      13.22179628      12.40714580       6.45621081       0.00221739       0.00021345      -0.00187431      -3.74704206
Al      14.36276169      14.57621478       8.03209677      -0.00413584       0.00914124       0.00232906      -3.75293016
Al      12.94335778      12.59988400       9.47255848      -0.00265628       0.01245923       0.00710535      -3.59890902
Al      14.50829068      14.51410696      11.06620628      -0.00222408      -0.00333145       0.00043914      -3.71128297
Al      12.91363828      13.03906740      13.20945921       0.00166216      -0.00352128      -0.00829235      -3.95854431
Al      14.05565263      14.50853618      15.25897710       0.00048441       0.00075673       0.00845727      -3.83656013
