169
Lattice="13.903737870286404 0.10369041835707857 0.015936644457850452 0.10443071469343145 13.823014216668255 0.01810734696962315 0.016044784818420185 0.018070336589839933 13.866221786543608" Properties=species:S:1:pos:R:3:forces:R:3:energies:R:1 rep=5 n_sites=250 energy=-781.7588342168409 stress="0.00024448000779580864 -0.0007068745478109013 -7.03859710688486e-05 -0.0007068745478109013 -0.0004228926115895059 -5.189138814526651e-05 -7.03859710688486e-05 -5.189138814526651e-05 2.232882030211188e-05" free_energy=-781.7588342168409 pbc="T T T"
Ni      -0.17319745      -0.14150646       0.25622508      -0.00374256      -0.00252271       0.00331671      -6.00945553
Al       1.43854027       1.26313646       1.37899950      -0.00114303      -0.00381749      -0.00163847      -4.52779370
Ni      -0.03225564       0.08057846       2.92363175       0.00110610      -0.00081422      -0.00148775      -6.06226301
Al       1.45009115       1.42360768       4.23430472      -0.00171662       0.00529336      -0.00562779      -4.49481769
Ni       0.09175496      -0.01767994       5.64188152       0.00060670      -0.00121325       0.00049012      -6.00376900
Al       1.49826291       1.46095839       7.03551832      -0.00366537       0.00232828       0.00031680      -3.88996922
Al       1.38163945       1.03173520       9.76951260      -0.00107974      -0.00252236      -0.00018621      -3.77667292
Al       1.34889282       1.27487951      12.58730531       0.00487380      -0.00373773       0.00813441      -4.11814619
Al       1.34145414       4.18115310       1.38087788      -0.00058341      -0.00266255       0.00088699      -4.36609015
Al       1.43875243       4.16968174       4.12737439      -0.00177919       0.00361884      -0.00199371      -4.57923313
Al       1.41131051       4.11867934       6.89190220      -0.00007170      -0.00161913       0.00044473      -4.32753194
Al       1.50808021       3.94796321       9.65884039       0.00268086       0.00391293       0.00111964      -4.01388122
Ni       0.03642021       2.66552406      11.12788121      -0.00488414       0.00404119      -0.00089985      -5.87721320
Al       1.30896454       4.16717744      12.51160815      -0.00150495      -0.00105516       0.00269502      -3.92064236
Al       1.57076713       7.12603782       1.23203233      -0.00588449      -0.00602629      -0.00342970      -4.00531567
Ni       0.15038722       5.74366937       2.79626966       0.00404558      -0.00303066      -0.00239766      -5.99952983
Al       1.47391657       7.16096981       4.19443046       0.00617050      -0.00237437      -0.00312272      -4.28883664
Ni       0.08123779       5.64240693       5.59989557      -0.00405695       0.00305245      -0.00042634      -6.26022392
Al       1.59582240       7.06605491       6.98733102       0.00123732       0.00201125       0.00140298      -4.35371687
Ni       0.12615760       5.52427567       8.28516604      -0.00682632      -0.00998449      -0.00672672      -5.89491700
Al       1.62050947       6.79115359       9.71342075      -0.00031213       0.00779876       0.00169401      -4.12540124
Al       1.95594613       6.81574317      12.40572452       0.00101669      -0.00030993      -0.00256841      -3.80237407
Al       0.87130572       9.60637486       2.03764289       0.00156980      -0.00085044       0.00218686      -4.00100247
Al       1.86136938       9.73055636       4.68051545      -0.00132283      -0.00214772       0.00374633      -3.95817670
Al       1.47973549       9.90406091       7.52499883       0.00655939       0.00315791       0.00523106      -4.14494818
Al       1.86044611       9.43196319      10.32451275      -0.00000968      -0.00038270       0.00321727      -4.31151232
Ni       0.18072379       8.21058205      11.33872508       0.00652621       0.00122321      -0.00867530      -5.98044666
Al       1.37994565       9.42381248      13.15240603      -0.00271333      -0.00218569       0.00112078      -4.23689981
Ni      -0.26677638      11.00327411       0.26749358       0.00033690       0.00021835      -0.00501285      -5.99307726
Al       1.21315344      12.23728813       1.71851701      -0.01145322       0.00459993      -0.00648407      -4.50819096
Al       1.81181651      12.45060506       4.53531046      -0.00389631       0.00194230      -0.00026877      -4.54350286
Ni       0.24420987      11.14726354       5.89391288      -0.00492148       0.00005671       0.00490570      -5.98260600
Al       1.62835568      12.62992296       7.38246147       0.00378806       0.00469886      -0.00403913      -3.97301359
Al       1.84894796      12.14697870      10.10840333      -0.00369114       0.00001196       0.00371094      -3.80579668
Ni       0.20200299      10.82599231      11.43494245       0.00253136      -0.00152621      -0.00297084      -5.99774493
Al       1.49183836      12.34728248      12.81904965      -0.00279431       0.00141984       0.00481018      -4.18545952
Al       4.31316916       1.26616461       1.32668142      -0.00532539      -0.00120751       0.00007925      -4.35947006
Ni       2.83399073      -0.12858199       2.81687841      -0.00231242       0.00456180      -0.00193817      -6.10261388
Al       4.29708448       1.27328407       4.20695177       0.00356123       0.00275427       0.00302010      -4.35623670
Al       4.26047025       1.33358785       7.06832120       0.00217434       0.00261908       0.00092299      -4.14319752
Al       3.88953273       1.86805189       9.69467679       0.00441730      -0.00782148      -0.00248129      -4.00660718
Al       4.12065924       1.36237404      12.40170761       0.00664159      -0.00398867       0.00131761      -4.09681965
Ni       2.76824140       2.76511054       0.05691067      -0.00468623       0.00001371      -0.00559976      -5.90589359
Al       4.20903969       4.26457919       1.25908824       0.00104406       0.00080136       0.00019575      -4.09515829
Ni       2.88551270       2.68480893       2.68533520      -0.00226389       0.00093400       0.00079992      -6.23596977
Al       4.28697600       4.15478808       3.98708784      -0.00537085       0.00268169      -0.00410193      -4.62139158
Ni       2.92401829       2.79756902       5.53242690       0.00360401      -0.00098016      -0.00356014      -6.07308582
Al       4.11157891       4.19309763       7.12434030       0.00141856      -0.00099542       0.00041802      -4.45431653
Al       4.22357317       4.71023401       9.74960549       0.00088280       0.00353853       0.00009040      -3.91136141
Al       4.00161400       4.18423401      12.39914150       0.00241842      -0.00248363       0.00078587      -3.98280867
Al       4.51587295       7.01972366       1.45873269      -0.00241431       0.00079918       0.00085415      -3.86452966
Ni       2.82807130       5.71864514       2.72526793      -0.00077560       0.00063683       0.00516778      -6.02351304
Al       4.37716879       7.02444295       4.16750791       0.00212654      -0.00376180      -0.00528031      -4.16327235
Ni       2.90426450       5.60492935       5.50798895       0.00100675       0.00662260      -0.00275677      -6.16525568
Al       4.43812060       6.93053739       7.16556476      -0.00319873       0.00017329      -0.00265521      -4.31979457
Al       4.63712565       7.47823955       9.98676213      -0.00353268      -0.00471513      -0.00153577      -3.93089923
Al       4.75984396       6.74581132      12.61191803       0.00451774       0.00412056       0.00183418      -3.62425853
Al       3.58661745       9.59422723       1.02513950       0.00331073       0.00073532       0.00076151      -4.02181882
Al       4.59197977       9.61071872       3.82406720       0.00136459       0.00775939      -0.00339880      -3.97372765
Al       4.22144843       9.65414278       6.72288988      -0.00423462       0.00151921       0.00143122      -4.23132672
Ni       3.02684854       8.38648016       8.44636010       0.00369133       0.00568563      -0.00707337      -5.77188951
Al       4.17782035      10.27956262       9.54522996      -0.00183407      -0.00500029       0.01062512      -4.08042561
Al       4.15624453       9.42348023      12.18392634      -0.00246138       0.00333778      -0.00088074      -3.89327307
Al       3.83443748      12.36352316       0.99184797       0.01011901      -0.00162382       0.00561667      -4.47773837
Ni       2.87678290      11.02455056       2.84898115       0.01103241      -0.00402674       0.00642510      -5.88355922
Al       4.68787012      12.36468997       3.81738827      -0.00152340      -0.00043767       0.00084113      -4.22205343
Al       4.28179115      12.50749449       6.52494069       0.00392380      -0.00348894       0.00020846      -3.91169361
Al       4.32596431      13.00256494       9.17949410       0.00259076       0.00063687       0.00531521      -3.83359674
Al       4.12648645      12.37434719      12.00484222       0.00073130       0.00242457       0.00537045      -4.01046794
Ni       5.47856707      -0.25237062      -0.14172694      -0.00202413       0.00256765       0.00730876      -5.88165993
Al       7.10665193       1.03650168       1.39343549       0.00273056      -0.00349618       0.00139674      -4.23571763
Al       6.97802781       1.51065614       4.13689322       0.00125252      -0.00221793      -0.00361365      -4.10772459
Al       7.04519134       1.45912252       6.92565138      -0.00344739       0.00324239       0.00259013      -4.34858546
Al       6.84108669       1.30134053       9.76282981       0.00282125      -0.00116495       0.00355061      -4.29548957
Al       6.78295089       1.43921142      12.57395668       0.00581184      -0.00152395       0.00441878      -4.33049357
Al       6.87836961       4.46122217       1.45658527      -0.00292953      -0.00072476      -0.00106351      -3.95881439
Al       7.04983360       4.30177707       4.19864073       0.00244718      -0.00119974      -0.00183079      -4.28112608
Ni       5.55102833       2.87250927       5.65318511      -0.00590247       0.00057647       0.00314578      -6.07848111
Al       7.00846969       4.47384439       7.05510767      -0.00076130      -0.00469991       0.00086212      -4.41024787
Ni       5.68048431       2.92464136       8.41685279      -0.00285171       0.00107292       0.00002153      -6.13991676
Al       7.00832294       4.52796434       9.80691256       0.00507749       0.00436293       0.00261039      -4.30650079
Ni       5.54424031       2.96457916      11.02097085      -0.00075361       0.00638337       0.00113739      -6.00178321
Al       6.77825861       4.43589822      12.60032264       0.00314155      -0.00275782       0.00036923      -4.24316605
Al       7.15536514       6.97067556       0.09589500      -0.00574752      -0.00067611      -0.00122575      -3.70703221
Al       7.12293167       6.97534615       2.81134650       0.00577519      -0.00304445       0.00051498      -3.67726010
Ni       5.47341345       5.47746964       5.58304586       0.00058112       0.00362740      -0.00346766      -5.70432701
Al       7.12649090       7.13097272       5.61615850      -0.00262756      -0.00176699       0.00171651      -3.89445815
Al       7.16465406       7.11572383       8.49002038       0.00089126      -0.00460219      -0.00034582      -3.65456745
Al       7.11714045       7.00211984      11.20159675      -0.00657583       0.00187586      -0.00160274      -3.68615640
Al       6.29636222       9.26649247       1.38049492      -0.00113434       0.00276096      -0.00369145      -3.92217765
Al       7.37717412       9.53334139       4.01178822       0.00469857      -0.00515859      -0.00301813      -3.91035841
Al       7.14147130       9.49950948       6.93311573      -0.00055006       0.00396105       0.00025409      -4.01987007
Al       6.90381886       9.63367414       9.67773605       0.00175136      -0.00898445      -0.00176244      -4.08600223
Al       7.04377798       9.52085346      12.52904564       0.00080790      -0.00178394      -0.00318765      -4.10437289
Ni       5.36525370      10.92294322      -0.21901927       0.00075068       0.00114461       0.00306829      -5.90754663
Al       6.80986204      12.05822042       1.37433793       0.00237338      -0.00468861      -0.00051156      -3.99414753
Al       7.37190157      12.37518590       3.98952289       0.00113387      -0.00221213      -0.00178982      -3.98204446
Ni       5.88159025      10.94108129       5.43222795       0.00074625       0.00212905       0.00161824      -5.91776010
Al       7.22894365      12.45667339       6.79736302      -0.01262213      -0.00659157       0.00125389      -4.32990128
Ni       5.70873774      11.16582774       8.01568501       0.00688149       0.00613812      -0.01477443      -5.87357430
Al       7.05889864      12.42934163       9.59225789       0.00361728      -0.00168589       0.00084261      -3.96455051
Al       6.97694324      12.35143800      12.34809275       0.00073184      -0.00179071      -0.00381385      -4.27425316
Al       9.85654935       1.49151837       1.34435854      -0.00201885       0.00014314       0.01018717      -4.07902028
Al       9.71987615       1.53421249       4.18051384      -0.00339906       0.00065093       0.00086917      -4.29175917
Ni       8.43061814       0.06016847       5.46393637       0.00862649       0.00609853      -0.00475059      -5.76017882
Al       9.71634511       1.42678698       6.98105240      -0.01111811       0.00727413      -0.00077965      -4.36207123
Al       9.56824321       1.39085950       9.81663330      -0.00010158      -0.00174347       0.00002557      -4.62488427
Al       9.64213127       1.39984004      12.56163327      -0.00317529      -0.00169028      -0.00180858      -4.33692494
Ni       8.20875611       2.87215442       0.09585200      -0.00387890      -0.00098658      -0.00442449      -6.05785525
Al       9.71952005       4.42324114       1.39503121       0.00044872      -0.00062161       0.00266518      -4.36271671
Ni       8.37581380       2.93013217       2.66248164      -0.00319725      -0.00242368       0.00513750      -5.99366758
Al       9.73313955       4.43281845       4.19794021       0.00169601      -0.00390171       0.00532743      -4.19091368
Al       9.72944866       4.34005368       6.99316391      -0.00090431       0.00010302      -0.00120849      -4.19694627
Ni       8.30805893       2.94048796       8.43625130       0.00208754       0.00549834      -0.00434113      -6.12526269
Al       9.75833723       4.27113700       9.84164823      -0.00461100       0.00007038      -0.00016088      -4.43344351
Ni       8.17284743       2.89425615      11.25851691      -0.00218605      -0.00054794       0.00095878      -6.21847168
Al       9.70603213       4.22662975      12.61205348       0.00588459       0.00633900       0.00086466      -4.51894830
Al       9.73026735       7.29332774       1.49002575       0.00615136      -0.00122782      -0.00199547      -3.83702087
Al       9.53039649       7.20523229       4.22768302       0.00285351       0.00091485       0.00256854      -4.03636249
Al       9.58481265       7.17999405       7.07204701       0.00477673      -0.00409806       0.00110914      -4.03080409
Al       9.66926853       6.92786654       9.78174082      -0.00494543      -0.00391227       0.00236685      -4.00277736
Al       9.57422257       7.07456332      12.57959854       0.00317588      -0.00683877       0.00717982      -4.18522182
Al       8.95679622       9.96469186       1.42561675       0.00106262      -0.00441854      -0.00680060      -3.59652821
Al      10.15317657       9.83383675       3.86271336       0.00243422       0.00511819       0.00148495      -4.06174679
Al       9.79677755       9.89018993       7.06074030       0.00045892      -0.00350833      -0.00077818      -3.93299000
Al       9.87137802       9.59535988       9.75247063       0.00235157      -0.00314238      -0.00488305      -3.96085302
Al       9.83280846       9.74875728      12.62166795      -0.00548500       0.00332787      -0.00334899      -3.94450865
Al       9.44362833      12.66081906       1.45231898       0.00130557      -0.00305692      -0.00065686      -3.51584176
Al      10.10489758      12.57479870       4.12529048      -0.00069374       0.00406387      -0.00061624      -3.99103198
Al       9.96094583      12.54962491       6.92119614      -0.00143753      -0.00124223      -0.00080249      -4.12566270
Al       9.85574860      12.32938821       9.70672174       0.00144637      -0.00189747      -0.00114816      -4.29755934
Ni       8.38315515      10.97491791      11.07862931       0.00513400       0.00417370      -0.00165079      -5.76090071
Al       9.71594783      12.47133461      12.53129977      -0.00690692       0.00118549      -0.00589823      -3.91441511
Al      12.57624056       1.71639908       1.48027331      -0.00544713      -0.00272025       0.00489216      -4.27701719
Al      12.45780636       1.56620532       4.30978001      -0.00199275       0.00418545      -0.00391201      -4.19989565
Al      12.58543459       1.50767730       7.01396317      -0.00175341       0.00191748       0.00561312      -4.21664459
Ni      11.14951004       0.05451304       8.51151174      -0.00002520       0.00393811       0.00929797      -5.99868453
Al      12.60054747       1.43425977       9.75252271      -0.00947765       0.00353366      -0.00029685      -4.45570815
Ni      11.07476893       0.01673609      11.11278609       0.00403074       0.00911649      -0.00784438      -5.99374463
Al      12.50307929       1.32845026      12.59573545       0.00131555       0.00375141       0.00049106      -4.37174888
Al      12.48551553       4.47356944       1.52989364      -0.00402846      -0.00533290       0.00140547      -4.10796485
Ni      11.06110234       2.95772764       2.86091953      -0.00710753       0.00091534       0.00100777      -5.89429863
Al      12.51489865       4.35847760       4.21939886       0.00115034       0.00332534       0.00243332      -4.29865753
Al      12.43934739       4.29494131       7.00860685       0.00025022       0.00143621       0.00036111      -4.31012543
Ni      11.05307951       2.79622676       8.38251076       0.00007373      -0.00069340       0.00786523      -6.05345976
Al      12.57939609       4.26549281       9.75112917       0.00248570      -0.00157877      -0.00035868      -4.43946182
Ni      11.17685284       2.80896735      11.16799951       0.00298494      -0.00739757      -0.01035526      -6.24861534
Al      12.51578515       4.09538946      12.70421029       0.00125916       0.00330652      -0.00594268      -4.35251197
Ni      11.09496322       5.80202906       0.05118287      -0.00289170       0.00132908      -0.00569432      -5.89318458
Al      12.59589861       7.26865600       1.41995071      -0.00426089       0.00274050      -0.00179652      -3.94592949
Al      12.49892717       7.12038142       4.13920002      -0.00310889      -0.00177129       0.01117503      -4.32627778
Ni      11.05656264       5.88085334       5.62858848       0.00087890       0.00549273      -0.00229806      -5.99676444
Al      12.57330909       7.12397532       7.08497823      -0.00144127       0.00013048      -0.01012920      -4.33661779
Al      12.72021742       6.93073788       9.81803632      -0.00363404       0.00037704       0.00132797      -4.36916770
Ni      11.14267857       5.65548633      11.29688076       0.00562800      -0.00241141       0.00535620      -6.12593614
Al      12.92280790       6.75781143      12.63843247      -0.00275577      -0.00729674       0.00777604      -4.37098086
Al      11.86060469       9.92289724       1.58032134       0.00380635      -0.00400032      -0.00707539      -3.81579160
Al      12.99986286       9.69660252       4.34036511       0.00206827       0.00256420       0.00286103      -4.16461243
Ni      11.16543986       8.47591005       5.61691670       0.00193646      -0.00589009       0.00141326      -6.08177291
Al      12.65406313       9.76423144       7.20436284      -0.00424112       0.00466092       0.00108298      -4.08655856
Al      12.69583840       9.72694134       9.87747587      -0.00047128      -0.00394409      -0.00625406      -4.11496400
Ni      11.25256724       8.21689928      11.21261862      -0.00373523      -0.00248682      -0.00156057      -6.01205884
Al      12.50830318       9.55494443      12.77279435       0.00305380       0.00760024      -0.00146389      -4.36371208
Al      12.18989055      12.67862631       1.64612592       0.00699049       0.00066107      -0.00029672      -4.14813416
Al      12.78433321      12.45253834       4.27304724       0.00314943       0.00485220       0.00485752      -4.36878966
Ni      11.37834396      11.01945555       5.58820662      -0.00336694       0.00169156      -0.00048372      -6.00412003
Al      12.62867060      12.58017722       7.12106730       0.00405823      -0.00506146       0.00032585      -4.37057487
Al      12.87391968      12.47306826       9.88961233       0.00307769      -0.00591908      -0.00043645      -4.23408833
Al      12.47947635      12.43663318      12.58257446       0.00397108      -0.00222449       0.00869010      -4.36470535
