250
Lattice="15.510640340269347 0.18687566486918786 0.11057168378348116 0.19235493488154692 16.221234242667673 -0.10588530724222654 0.10506437488095165 -0.10422307697707019 16.272767444902453" Properties=species:S:1:pos:R:3:forces:R:3:energies:R:1 rep=5 n_sites=250 energy=-1014.5601806640625 stress="-0.0001785544736776501 3.4266809961991385e-05 -0.00041304202750325203 3.4266809961991385e-05 0.00015020513092167675 -0.00018528934742789716 -0.00041304202750325203 -0.00018528934742789716 -0.0003833852242678404" free_energy=-1014.5601806640625 pbc="T T T"
Al       0.11533015       0.01037234       0.66864804       0.00330143      -0.00021490       0.00071383      -3.78445184
Al       1.50881558       1.90085202       2.02565110       0.00144088      -0.00343252      -0.00042853      -3.66117942
Al      -0.21495514       0.22824571       3.45120342       0.00146408       0.00325780      -0.00145073      -3.71193540
Al       1.54085427       1.86647832       4.88339672       0.00283057      -0.00569325      -0.00286062      -3.75022697
Al       0.03701445      -0.07582541       6.36614831       0.00263697      -0.00317496      -0.00014145      -3.74139333
Al       1.35540992       2.04631395       7.69501774       0.00233395      -0.00100982      -0.00070067      -3.71845102
Al      -0.28392867       0.22500617       9.76458239       0.00327448       0.00028773       0.00072271      -3.71100402
Al       2.06290924       1.39277490      11.61068288       0.00113465       0.00238145      -0.00049266      -4.05342394
Al      -0.08874727       0.33729043      13.44422443      -0.00134084       0.00687921      -0.00163041      -3.97302568
Al       1.70460094       2.20807978      14.24106202      -0.00166757      -0.00283977      -0.00031471      -4.11127079
Al      -0.12439785       3.25797037      -0.02322539      -0.00149655       0.00476506      -0.00464436      -3.93692154
Al       1.25192816       4.88242351       2.06550454       0.00365875      -0.00268207       0.00185688      -3.74866712
Al      -0.41089017       3.22751478       3.48807573       0.00218016       0.00016492       0.00100944      -3.57538414
Al       1.36734012       4.81610092       4.85829399       0.00554773      -0.00261825      -0.00161344      -3.85503507
Al      -0.61200445       3.61670707       6.21894804       0.00128305       0.00237179       0.00002201      -3.86923307
Al       1.36906839       5.03427980       7.65327756      -0.00138283       0.00143795      -0.00520185      -3.91800827
Al      -0.24259973       3.23142752       9.53586786       0.00205699      -0.00252522      -0.00129381      -3.70467889
Al       0.61737652       3.80850702      12.12606998       0.00200503      -0.00662783       0.00023016      -4.16421145
Ni      -0.75422226       2.63851116      13.94005862       0.00074647      -0.00738495      -0.00594649      -5.89744371
Al       1.84177632       4.86686768      14.35648906      -0.00247847       0.00101835      -0.00057375      -3.84328496
Al       0.06539632       6.34188188       0.04598634       0.00309041       0.00044169       0.00664804      -3.66598272
Al       1.39327818       7.76573979       1.82137846       0.00108617       0.00077686      -0.00744507      -3.71004915
Al       0.18436344       7.23791094       4.09538802      -0.00140453       0.00255831       0.00231218      -3.86124915
Al       1.74540833       7.52797706       6.22227078      -0.00062785       0.00065633      -0.00274195      -4.03895253
Ni      -0.32195482       6.09492558       6.20559877       0.00119863      -0.00236493       0.00201554      -6.06884515
Al       2.69578630       8.69463371       8.99049277      -0.00297454      -0.00091127       0.00308217      -4.12831396
Al       0.66049186       5.77172049      10.12181262      -0.00097921       0.00310153      -0.00468177      -3.92376977
Al       1.66670964       8.14378453      11.48820320      -0.00995261       0.00169053      -0.00272575      -4.20860159
Ni       0.44810842       6.29238797      12.52006975      -0.00204450       0.00360582      -0.00393087      -6.19515681
Al       2.03242998       7.50037035      14.17884943       0.00188423      -0.00809561      -0.00112611      -4.00646973
Al       0.16056151       9.30306789       0.00860602       0.00371119       0.00413928      -0.00223652      -3.71645153
Al       2.15847332      10.52556355       1.65505734      -0.00546091       0.00540657      -0.00488675      -3.57704091
Al      -0.02341212       9.74618174       3.04760147      -0.00180960      -0.00007588       0.00219963      -3.59795940
Al       1.50481541      11.55027969       5.87862164      -0.00210637       0.00243004      -0.00051889      -4.14888048
Ni       1.37136944       9.67522467       7.34161496      -0.00192687       0.00274921       0.00681137      -5.88653857
Al       2.71321759      11.62268244       8.39702902      -0.00223035      -0.00068016       0.00197370      -4.16314620
Ni       0.52244717       9.53756359       9.73068196      -0.00017004       0.00319253      -0.00191441      -5.95872581
Al       2.28059617      10.62404712      11.13769429       0.00234304      -0.00035488      -0.00043060      -4.28512400
Al       1.01006616      10.06076883      13.78423451       0.00500298      -0.00601619      -0.00120614      -3.82811952
Al       1.41405013      11.77874642      15.76759300      -0.00253256      -0.00060323      -0.00371826      -3.85044968
Ni      -0.15610777      13.76195426       0.06283480      -0.00140719      -0.00307249       0.00031339      -6.00293612
Al       2.21260721      14.20703370       0.58411381      -0.00064620       0.00238870      -0.00457710      -3.83331859
Al       0.21256614      13.88471095       2.46774544      -0.00654452      -0.00067941      -0.00436515      -3.87046885
Al       1.50868147      14.05464995       4.91166738       0.00385514      -0.00189476       0.00317720      -4.07919848
Ni      -0.33060715      13.31367196       6.36841404      -0.00187619      -0.00053450      -0.00126886      -5.95002860
Al       1.33072937      13.99274719       8.16525296       0.00644336       0.00339574      -0.00232713      -4.20050329
Ni       1.20658032      12.56416018      10.23669105      -0.00444791      -0.00218570       0.00380145      -6.00512391
Al       1.49147317      14.80065179      11.45744587      -0.00219465       0.00113570      -0.00045423      -4.08908290
Al       0.46324502      12.46269530      12.65011529      -0.00108265      -0.00661565       0.00258723      -3.77346790
Al       1.25935348      14.30603252      14.36405783       0.00144736      -0.00092289       0.00263752      -4.04788840
Al       2.73982525       0.51520817      -0.31662614       0.00011118      -0.00243001       0.00006333      -3.88718474
Al       4.39319623       1.31652267       1.84299181      -0.00000370      -0.00042636       0.00136872      -3.70682490
Al       2.52749476      -0.44027919       3.12748292      -0.00093953       0.00304166       0.00006069      -3.71045566
Al       4.19907826       1.19021191       4.81325143      -0.00061008      -0.00035830      -0.00401084      -3.71173549
Al       2.70202687      -0.30910346       6.60615283      -0.00010712      -0.00265586       0.00340428      -3.84981561
Al       4.24662772       1.47892794       8.00830204       0.00035956       0.00313333      -0.00044354      -3.67649174
Al       2.41073115       0.10595500       9.36367312       0.00038350      -0.00618108      -0.00382080      -3.50933635
Al       4.76486618       2.30116905      10.72489099       0.00078644       0.00183168       0.00196931      -3.97844797
Ni       2.32992975      -0.09166703      13.52148389       0.00396141      -0.00416701       0.00381848      -6.00733346
Al       4.33407242       1.48768696      13.54673757       0.00244546      -0.00640935      -0.00248009      -4.00906944
Al       2.90056835       3.39433234       0.33074923       0.00211343      -0.00046897       0.00089266      -3.63889790
Al       5.13513154       5.77181494       2.06718449      -0.00183754       0.00333960       0.00262706      -3.79766810
Al       3.47006950       3.60754668       3.23709464       0.00457520      -0.00219981      -0.00039461      -3.73624825
Al       5.29851487       5.02989719       4.67561633      -0.00356084       0.00711176      -0.00069934      -3.86534673
Al       3.32207694       3.52261916       6.28619093       0.00204225       0.00518764       0.00138869      -3.68940127
Al       5.02508750       4.13406981       8.55028188       0.00114754       0.00211893       0.00089076      -3.89047843
Al       2.50106642       3.55386899       9.89628460      -0.00049774      -0.00091680       0.00114331      -3.86232531
Al       5.28096920       4.91083340      11.85916400      -0.01031712       0.00224137      -0.00044533      -4.08373743
Ni       3.19631897       3.41773737      12.48875032      -0.00043228       0.00635567      -0.00882773      -6.16326404
Al       4.52948552       4.29242974      14.45257640      -0.00151614      -0.00040133      -0.00058278      -3.89215136
Al       2.89212939       6.12664461       0.22333803       0.00046567       0.00206989       0.00139933      -3.62770581
Al       3.96200117       8.24406017       1.74254268      -0.00536774      -0.00448586       0.00526693      -3.90811890
Al       3.03839367       6.55857347       3.75243752      -0.00061529      -0.00228962      -0.00081071      -3.72231638
Al       5.34235902       8.16494688       4.41252983       0.00504871       0.00303505      -0.00224307      -3.87995255
Al       4.00672342       6.23726329       6.65834977      -0.00090323      -0.00115220       0.00284914      -3.63003910
Al       5.37013150       7.97260981       8.34005650      -0.00038676       0.00039952       0.00031087      -3.66976893
Al       3.35062402       6.10181263       9.27110679      -0.00038064       0.00085661       0.00232678      -3.58381569
Al       4.36978950       7.92891166      10.97708956       0.00287444      -0.00381856       0.00391191      -3.76821923
Al       2.74841604       5.69822039      11.88818455       0.00594059      -0.01283684       0.00623107      -4.05240631
Al       5.34523304       8.14903302      13.43154755      -0.00628148      -0.00009641       0.00231887      -4.10659909
Al       3.30379508       9.58651906      -0.82374151      -0.00235564       0.00252658       0.00335278      -4.16711533
Al       4.89624626      10.58073524       2.67390308      -0.00033236      -0.00369230      -0.00576285      -3.88784462
Al       2.62976993       9.30929538       4.05251879       0.00054311       0.00240375      -0.00254761      -3.67322814
Al       4.07609606      11.69305250       4.93444549       0.00002512       0.00184503      -0.00530399      -3.75368190
Al       3.73681748       9.42748402       6.57830810       0.00419289      -0.00215567      -0.00055892      -3.89198172
Al       5.32191904      12.25683755       7.27163446       0.00657301      -0.00360158       0.00177641      -4.10288948
Al       4.96623757      10.40424573       9.31807138      -0.00251541      -0.00262901      -0.00764330      -3.71882296
Al       5.13117287      10.60456066      11.98468413      -0.00120458      -0.00019163       0.00406888      -4.08412629
Ni       3.22547276       9.32965704      12.98779644      -0.00192772       0.00008318      -0.00141741      -6.04140365
Al       5.79394988      10.92263014      14.63792827       0.00008716      -0.00240678       0.00249267      -4.07797652
Al       4.17867117      12.09559921       0.34128389      -0.00221086       0.00186917       0.00289105      -3.91041976
Al       4.71917634      14.85496750       1.16265592      -0.00250106      -0.00107307      -0.00051446      -3.73119390
Al       3.12060249      12.98414181       2.76078677       0.00528248      -0.00854340       0.00098415      -3.57623255
Al       4.56405981      14.50775093       4.89078620       0.00842798       0.00110947      -0.00657015      -3.86874861
Ni       3.25915877      13.35891820       6.57559142      -0.00323071       0.00339522       0.00055370      -5.99932152
Al       4.42495973      14.55090086       8.36640011       0.00437304       0.00234644       0.00341871      -3.79034150
Al       3.51395990      12.96921651      10.86842959       0.00110176      -0.00449383      -0.00001095      -3.80997467
Al       4.15799472      15.46526243      11.63951581      -0.00416732      -0.00401421       0.00364554      -3.80044651
Al       3.25258648      11.83172599      13.66236609       0.00026947      -0.00079358      -0.00417054      -3.85387897
Al       4.05978619      14.46932872      14.42842183      -0.00606115       0.00202379       0.00071809      -3.85672945
Al       5.60653149       0.25293281      -0.62067864       0.00296955      -0.00196201       0.00258181      -3.59550071
Al       7.38102432       1.35872996       1.15442151      -0.00147642       0.00169047       0.00023678      -3.60571778
Al       6.23253691      -0.16004183       3.61026486      -0.00194825      -0.00107885       0.00223142      -3.66826618
Al       8.27212339       1.92533254       5.61748751       0.00149950       0.00093460       0.00174142      -3.79788888
Al       6.18869583       0.01518851       6.61353115       0.00056355       0.00354809       0.00265024      -3.66226661
Al       6.95356936       1.83829401       8.74382679      -0.00265683      -0.00347483       0.00021006      -3.81463623
Al       6.05865586      -0.34913729       9.96989459       0.00167727       0.00264478      -0.00120161      -3.68910003
Al       7.01188188       2.32397729      12.16997049       0.00316130      -0.00204773       0.00266330      -3.83514893
Al       6.36082206      -0.24746910      12.82740589      -0.00347390       0.00054778       0.00262792      -3.59774435
Al       7.93116927       1.28978363      14.58898473      -0.00590263       0.00643490      -0.00235692      -3.63635790
Al       5.62024712       3.43522346       0.59332347       0.00282321      -0.00004992      -0.00058218      -3.59186947
Al       7.60945632       4.73019997       2.03612895       0.00443256      -0.00002152       0.00227992      -3.79528117
Al       6.25565642       2.62053612       3.47519757       0.00361450       0.00215642       0.00178916      -3.69375217
Al       8.08174530       4.58825046       4.82373788       0.00046970       0.00224143       0.00053487      -4.19815922
Al       5.90301003       2.84691250       6.25816131       0.00337056      -0.00253720      -0.00347685      -3.63747180
Al       7.85348486       4.27648459       7.86395950      -0.00186874      -0.00022556       0.00166948      -4.10127079
Ni       6.77869539       3.80187777      10.21920667       0.00189036      -0.00166612       0.00145489      -5.99934685
Al       7.98531443       5.01779015      12.08836795       0.00374663      -0.00117557       0.00038807      -4.06850225
Al       7.36580154       3.87638837      14.62870490      -0.00385797      -0.00497642       0.00058883      -3.85372096
Al       8.01814361       6.20594244      15.90167030       0.00190605      -0.00317320      -0.00331474      -4.02366090
Al       5.27606015       7.17318805      -0.38955711      -0.00206864       0.00273970       0.00147109      -3.88145596
Al       6.90484862       8.21185241       1.88015506      -0.00105755       0.00031061      -0.00064438      -4.26343763
Ni       7.02055183       6.48936805       3.73749688      -0.00276734       0.00030343       0.00261655      -5.97357887
Al       8.35355413       8.10960047       4.98143721       0.00179660       0.00416456       0.00734380      -4.00515270
Al       6.75914079       6.52789556       6.50419253      -0.00213688       0.00073243       0.00288051      -3.75498438
Al       8.37337683       8.35251549       7.97584711       0.00173514      -0.00152363       0.00051261      -3.87905669
Al       6.78254386       6.16572754       9.65485226      -0.00174019       0.00076339       0.00138675      -3.86622155
Al       7.94375750       7.45439632      13.16777980       0.00334227      -0.00330065      -0.00179692      -4.27505481
Ni       6.33344813       5.88901674      13.94318043      -0.00015503       0.00088020       0.00091165      -5.73830789
Al       7.52200360       9.01844595      15.46484278      -0.00712811       0.00289592       0.00080411      -4.22686875
Ni       5.37406321       9.70712251       0.45652306       0.00716256       0.00850966      -0.00853799      -6.02517545
Al       7.08942097      11.32766992       1.12917567      -0.00133233       0.00014734       0.00027984      -3.91171759
Al       7.09592634      11.14965717       4.17134484       0.00195706       0.00117531       0.00562590      -3.83947182
Al       9.30200124      10.40304061       5.70705137      -0.00107603      -0.00802130      -0.00726341      -3.97701353
Al       6.43639256       9.74006732       6.48997790       0.00024155      -0.00125554       0.00324928      -3.86631107
Al       7.67093175      11.04050013       8.66236345      -0.00174616       0.00119732      -0.00288594      -3.97849911
Al       7.04094081       8.89507902      10.64392697      -0.00035622       0.00104602      -0.00217667      -3.93440336
Al       7.91756659      11.46931762      11.41936728      -0.00102352       0.00639054      -0.00315951      -4.00167257
Ni       7.25318057       9.78811314      13.02881147       0.00381317      -0.00322170       0.00392897      -6.01487911
Al       8.47906270      11.53625019      14.15571261       0.00095177      -0.00238043      -0.00091355      -3.91696995
Al       6.34368500      13.59530637      -0.76014481       0.00027500      -0.00262617      -0.00007334      -3.70005798
Al       7.55474058      14.89002704       1.36457392       0.00185960       0.00162001       0.00153984      -3.65061891
Al       5.91288456      13.21528090       2.87768386      -0.00248798       0.00072659      -0.00313871      -3.68861187
Al       7.48903953      13.94154018       5.08353675      -0.00262889      -0.00022700      -0.00266193      -3.85679603
Ni       7.54537120      11.95135679       6.45446397      -0.00933538      -0.00583000      -0.00324357      -5.77142990
Al       7.53950059      13.99577542       7.99804934      -0.00588670      -0.00585799       0.00084215      -3.86220402
Al       6.00014236      12.90453330      10.02172990       0.00247426      -0.00083263       0.00206653      -3.67751610
Al       8.17800708      14.19753167      10.99911700       0.00178736      -0.00254145      -0.00238606      -3.72317219
Al       5.83615275      13.26655325      12.74047313       0.00159168      -0.00101827      -0.00162633      -3.64941263
Al       8.41479262      14.35243497      13.78600994       0.00193098      -0.00483223      -0.00049792      -3.70678210
Al       9.20829844      -0.40049139      -0.33224064       0.00907719      -0.00276181       0.00346452      -3.83162868
Al      10.94450036       1.24934088       1.32826479      -0.00110205       0.00206187      -0.00166723      -3.94043356
Al       9.05944786      -0.16750308       3.67255256      -0.00485274      -0.00143777       0.00156035      -3.68436968
Al      10.86560565       2.23562366       4.82028744      -0.00157012      -0.00048080       0.00064735      -3.83349109
Al       9.02650770      -0.46868077       6.58386477      -0.00524455       0.00080366       0.00168849      -3.65431881
Al      10.01712998       1.96157748       7.83955010       0.00067306       0.00502613      -0.00272605      -3.90322775
Al       8.94255547      -0.06558820       9.35546711      -0.00513475       0.00282438       0.00260764      -3.67125309
Al      11.40456287       1.48231507      11.76413153       0.00347526       0.00105666      -0.00068517      -3.63276815
Al       8.93849589       0.35282522      12.06804758       0.00415824      -0.00071829      -0.00051254      -3.72509110
Al      10.92089146       1.70230165      14.84321239       0.00179886      -0.00441021       0.00420450      -3.85864449
Al       9.29083769       3.43536984       0.19913328      -0.00436332       0.00399513      -0.00227126      -3.69587588
Al      10.49450191       5.91785169       0.64612040      -0.00285698       0.00114614      -0.00088373      -4.03637373
Al       9.00247849       2.54711502       2.89052003      -0.00467033      -0.00169836      -0.00108099      -3.57296789
Al      10.93157870       4.97245691       4.56962610       0.00072016      -0.00180082       0.00121026      -4.02420837
Ni       9.81123767       3.89652722       6.41430413       0.00435901      -0.00271043      -0.00505139      -6.00153250
Al      10.46064535       4.77219857       8.73315122       0.00057353       0.00078736      -0.00262249      -3.72699475
Al       9.09481032       2.82141414      10.33229235       0.00004825      -0.00512038       0.00040214      -3.85975409
Al      10.80310361       4.88281970      11.47887194      -0.00155843      -0.00063968       0.00335521      -3.90493554
Al       9.51833981       2.91212492      13.01033355      -0.00326270       0.00118272       0.00011044      -3.68630791
Al      10.19698239       5.09581361      14.32425078       0.00919207       0.00098118      -0.00293860      -3.89436376
Ni       9.10397358       8.16317375       0.72518458      -0.00186592      -0.00137373      -0.00080362      -5.99204457
Al      11.33146086       8.41710242       1.57628448      -0.00529486      -0.00073403      -0.00134169      -4.06422907
Al       9.28676773       6.82916782       2.82817011      -0.00114883       0.00444144      -0.00031492      -4.08282632
Al      11.40514641       7.86085574       4.36845144       0.00324593       0.01149401       0.01269725      -4.14045876
Al       9.65860244       6.29781550       6.63241903      -0.00007932       0.00447889      -0.00110736      -4.06796086
Al      11.08644845       7.58977717       8.62266871      -0.00466263       0.00340499      -0.01040088      -4.00813121
Al       9.20743703       7.03680670      10.46753101      -0.00214618      -0.00012710      -0.00020334      -3.82278216
Al      11.77836384       8.09620443      11.20418659       0.00143417       0.00305754      -0.00342549      -4.12875259
Ni      10.21339818       6.95723247      12.68003967      -0.00302140      -0.00100300       0.00243750      -5.90987426
Al      10.51350160       7.87833052      14.94661765      -0.00200269       0.00174794       0.00100998      -4.09313464
Al       9.73310625      10.35790970      -0.00032314       0.00343939      -0.00215471      -0.00206973      -3.81209040
Al      11.44203327      11.93392885       1.25489756       0.00332522       0.00430242      -0.00083093      -3.59895062
Al       9.20076739       9.99218451       2.70751679      -0.00316295       0.00188930       0.00238274      -3.78461909
Al      10.97311568      11.80901405       4.07909374       0.00114724       0.00052740       0.00060216      -3.60247672
Ni      10.59203476       8.52691084       6.47597273       0.00412697      -0.00675742       0.00019328      -5.93163311
Al      11.10118000      10.56721057       7.87749950       0.00164343      -0.00156598       0.00481240      -3.80654180
Al       9.66180284       9.75056275       9.97809762       0.00241257      -0.00568463       0.00306517      -3.68232107
Al      11.78911721      10.85360355      11.37203101      -0.00124985      -0.00929847       0.00157113      -3.72777867
Al       9.71176925       9.41219013      12.68231669       0.00271565      -0.00653532      -0.00021828      -4.06770462
Al      11.42612876      10.98087745      14.20514018       0.00135439       0.00098228      -0.00034077      -3.63563657
Al       8.99564434      13.02212155       0.08208762       0.00317901       0.00146795      -0.00080044      -3.67910838
Al      10.79339515      14.67080500       1.60035696      -0.00401790      -0.00004276      -0.00388481      -3.83354616
Al       8.86797919      12.93415352       2.81248183      -0.00040756      -0.00022901      -0.00248563      -3.67019653
Al      11.01587419      14.35347943       4.92968328       0.00191542       0.00098487       0.00359022      -3.68828213
Al       9.75959888      12.77512482       6.74811485       0.00481418       0.01309555       0.00219963      -3.89708239
Al      11.18180506      14.50838344       8.07960748      -0.00616100      -0.00789182      -0.00364791      -3.68196857
Al       9.92884675      12.48318753       9.68432868      -0.00096401      -0.00231447       0.00525530      -3.71722019
Al      11.17560011      14.76108341      10.76941165       0.00534804       0.00385776      -0.00249787      -3.70205033
Al      10.27228812      12.85742792      12.51364274      -0.00034018      -0.00083823      -0.00282146      -3.71105874
Al      11.23014405      15.44454472      13.40425940      -0.00431383       0.00564232      -0.00402227      -3.92974097
Ni      11.60053723      -0.26789970      -0.46670378      -0.00738017       0.01013357       0.00037698      -5.97770065
Al      13.57611187       1.97141442       1.98265742      -0.00196274       0.00157638      -0.00438040      -3.67295539
Al      12.05644332       0.07911930       3.56552621      -0.00202159       0.00116660      -0.00091657      -3.69493139
Al      13.59254614       1.74644991       5.12137634       0.00067578       0.00412708       0.00791968      -3.68149817
Al      11.83871557       0.26723793       6.53397811       0.00416175       0.00196197      -0.00818438      -3.69198716
Al      13.93046954       1.74032378       7.87600550       0.00151852       0.00160710       0.00095024      -3.68293047
Al      11.97615615       0.56858393       9.32062105       0.00168835       0.00145415       0.00187188      -3.64720154
Al      14.16111539       2.14032519      11.73251528       0.00259088      -0.00113220       0.00208527      -3.80162024
Al      13.38199940      -0.43512322      11.97610160       0.00082463       0.00116359      -0.00267569      -3.65578949
Al      13.54192295       1.32165809      15.56443271      -0.00164591       0.00238698      -0.00023594      -4.06597692
Al      12.32660495       4.06073287      -0.40626108      -0.00276954      -0.00280635       0.00516551      -3.68304396
Al      13.84055485       5.00941218       1.77060328       0.00029644       0.00080927       0.00162262      -3.87219089
Al      11.38803376       3.78184447       2.21702334      -0.00229155       0.00090533       0.00068376      -3.79837954
Al      13.55295487       5.77040444       4.54406307       0.00312715      -0.00031471      -0.00055064      -4.01589757
Al      12.18463616       3.63985304       6.85758650       0.00226757      -0.00043646       0.00402911      -3.83794880
Al      13.83589807       5.39663020       8.27245173       0.00162339      -0.00428513      -0.00378239      -4.05948871
Al      12.43128524       3.26411903       9.80177913       0.00402950      -0.00167803      -0.00432977      -3.67779028
Al      13.65784600       5.53212501      11.10856263       0.00250378       0.00403947       0.00060317      -3.86690909
Al      12.46050282       3.55870686      13.24475256       0.00016704       0.00111488      -0.00187562      -3.87156093
Al      14.56575843       5.18915053      14.24455523      -0.00450104      -0.00091380       0.00423473      -4.06481636
Al      12.93367908       6.95516868      -0.26276812      -0.00252909      -0.00199982      -0.00221875      -3.67999232
Al      13.88541568       7.74124569       2.24967659       0.00072390      -0.00005284       0.00145793      -3.87553161
Ni      11.87665863       6.19043827       2.74625418      -0.00069629      -0.00356976      -0.00432143      -6.03959382
Al      15.08885151       9.57089403       5.86773765      -0.00046510      -0.00149134      -0.00145939      -3.79749095
Al      13.09963841       7.70877450       6.79248327      -0.00257007       0.00058290      -0.00109182      -4.04408056
Al      15.44859177       7.91869040       8.31490096       0.00391978       0.00256808       0.00436632      -4.39827996
Ni      13.31621014       7.39544196       9.42995079       0.00101298       0.01176311       0.00517655      -5.77465659
Al      14.56838266       8.26356072      11.31058504       0.00213371       0.00225037       0.00052294      -4.14739615
Al      12.41913587       6.50108745      13.39365026      -0.00459501       0.00347789       0.00829144      -3.84857887
Al      14.76095736       7.99120748      14.18831755       0.00382252      -0.00026855       0.00151385      -3.83787930
Al      12.95323377       9.85513543      -0.15727171      -0.00180684      -0.00086866       0.00006674      -3.64967132
Al      14.53340532      11.87481046       1.37886186      -0.00020531       0.00317007      -0.00099991      -3.84971178
Al      12.82804466      10.27368315       2.89080377       0.00706710      -0.00196499       0.00156023      -3.69738412
Al      14.66114796      12.11647960       4.52128567      -0.00582132       0.00237271       0.00378874      -3.78561389
Al      12.44417690      10.07548734       5.58406414      -0.00087753      -0.00437127      -0.00142924      -3.73023105
Al      15.37361424      11.70711932       8.27209324      -0.00227511      -0.00660655       0.00577690      -4.28437847
Al      13.41862712       9.75517652       9.11828484      -0.00204837      -0.00109860      -0.00152905      -3.99159718
Al      14.65526968      11.31190768      10.93130834      -0.00303450      -0.00285622      -0.00527464      -3.97939181
Al      13.80104333      10.27435898      13.23254773       0.00054096      -0.00131157       0.00141643      -3.58175993
Al      14.17728113      12.23386554      15.02706548      -0.00434978       0.00558461       0.00948030      -3.90363353
Al      11.45702642      13.58251237      -1.02915245       0.00270319      -0.01111341       0.00039498      -3.87400252
Al      13.43779845      15.26969494       1.08237543       0.00322915       0.00564720      -0.00121909      -4.07208657
Al      12.81983663      13.46707001       3.01018364      -0.00591045       0.00347288      -0.00403716      -3.62641072
Al      13.91508069      14.87532942       5.01540320       0.00481682       0.00191626       0.00060917      -3.96724701
Al      12.84813178      12.60781154       6.61850961       0.00128883       0.00561862       0.00352101      -3.86934322
Al      13.92136519      14.96337074       7.96605923      -0.00145037      -0.00079341      -0.00390424      -3.94200808
Al      12.63350306      12.50015254       9.39244502      -0.00157859       0.00558698      -0.00185025      -3.68300331
Al      14.66946992      13.97903445      10.36090614      -0.00026631      -0.00141813       0.00116576      -3.80463922
Al      13.04249902      13.09021182      12.54583172       0.00109139       0.00303047       0.00128880      -3.79510605
Al      13.95027243      14.90120061      14.62819077      -0.00046709       0.00055054       0.00059396      -4.00477308
