128
Lattice="12.646092727739891 0.08258150088624394 -0.1277407209344728 0.0906258768710623 12.481347427296862 -0.23631416212537573 -0.1288475281362372 -0.24200103770405854 11.879970690093451" Properties=species:S:1:pos:R:3:forces:R:3:energies:R:1 energy=-605.544824138789 stress="-0.0008051542248878558 0.0009469833739405135 -0.0002148939865037675 0.0009469833739405135 -0.0005536062847222632 0.0017083830457902112 -0.0002148939865037675 0.0017083830457902112 0.00012287462382737442" free_energy=-605.544824138789 pbc="T T T"
Ni       0.45116176      -0.43410726      -1.01122939      -0.00969832      -0.01921566      -0.02501712      -5.85149728
Al       1.82551220       1.69775504       2.31986162      -0.01436769      -0.00664980      -0.04069647      -4.11810599
Ni       0.38819527      -0.68495064       3.48966344      -0.00734732       0.03074785       0.02014129      -5.97686779
Al       1.94033631       0.74427456       4.83104436      -0.00107977       0.00825339      -0.00607359      -4.25911700
Ni      -0.39665695      -0.05715237       6.16302255       0.04814652      -0.03266360       0.01066466      -6.06303246
Al       2.71140512       0.58998307       7.65696315      -0.01612870       0.00390537      -0.04091666      -4.38223337
Al       0.45686376      -0.87080199       8.45284680       0.01167344       0.00699745       0.00559325      -4.39044879
Al       1.28729824       1.40382206      10.16233251      -0.00512225       0.00102566      -0.01191030      -4.50359491
Ni       0.51521701       2.56859916       0.45723818      -0.02075539      -0.00019099       0.01887439      -6.05154359
Al       1.28567847       4.73553950       1.47936680      -0.01660885       0.01642603       0.00725838      -4.28259861
Al      -1.05513975       3.59213342       2.71847303       0.01701875       0.01661449      -0.03080847      -4.18131417
Al       2.41363892       3.71655832       4.11688920       0.04329624      -0.02067409       0.02115827      -4.29773544
Al       0.65695588       2.08420405       6.75847455       0.01613018       0.03057307       0.00440583      -4.17843922
Al       1.70143840       4.68688468       7.57287834       0.00768092      -0.00053955      -0.00332976      -4.59593396
Ni      -0.02093289       3.14417950       8.78973181       0.02352548       0.02645848      -0.03658611      -6.02425773
Al       1.34397349       4.02005184      10.58273036       0.01858605       0.03036818      -0.02719801      -4.42255162
Ni       0.27757630       6.18586282      -0.45118905      -0.02027502       0.00860190      -0.00868202      -5.95298663
Al       1.52144190       8.01795073       0.58042615       0.00090163      -0.00097161       0.01076440      -4.45564446
Al      -0.63059734       6.65074918       1.87008821       0.02619223       0.00258860      -0.03359748      -4.17868578
Al       1.53404344       7.04449124       3.33755696      -0.00679869      -0.00322487      -0.02202521      -3.94656848
Ni       0.14298004       6.44371399       6.96296766       0.01541460      -0.02165780      -0.02934200      -5.96519638
Al       2.38826342       7.63521484       6.69298716       0.00515008       0.00145874      -0.01245316      -4.40385832
Al      -0.90078220       5.73206522       9.05498949       0.02444123       0.00930740       0.03024086      -4.32232915
Al       1.75002786       6.64717788       9.72441752       0.02118708       0.02694771      -0.00598186      -4.43064686
Ni      -0.79332716       8.78729626       0.67973768      -0.02452588      -0.03028763      -0.01189003      -5.96267393
Al       0.76472187      10.82441933       0.95509085       0.01752785       0.03578945      -0.00520297      -4.45122175
Al      -0.08393772       9.20322620       2.94709238      -0.00250732      -0.01799409       0.00747417      -4.00354330
Al       1.29484958      10.61851461       5.33538454      -0.04028566       0.00771097      -0.01066534      -4.17808531
Al       0.00113894       8.32635267       5.49366377       0.00544692       0.01370601      -0.01004819      -3.85197340
Al       3.00232791      10.35435601       7.46288964      -0.01464319       0.01935344      -0.00801106      -4.27952970
Al       0.39044245       8.58196624       8.22588747      -0.00154885       0.00848113       0.02479308      -3.89932007
Al       1.63931220       9.73921767      10.35012427      -0.00605242       0.00277974      -0.01129475      -4.27243912
Al       2.70459156      -0.18658659       0.07491725       0.00256992      -0.02270125       0.03456118      -4.39533759
Al       4.56641196       0.89995394       1.91622723      -0.01492068      -0.00479180       0.00481332      -4.38656359
Ni       2.70339539      -0.57547467       2.37990131      -0.02665015      -0.00903038      -0.02486375      -5.86688730
Al       4.79523775       2.12334942       4.63671758      -0.00606801       0.03676038      -0.02585156      -4.34316222
Ni       4.53435512       0.38317565       6.18767309      -0.04800925      -0.00891246       0.02513370      -5.79192092
Al       4.94018171       2.40281159       7.67911122      -0.02012921       0.00163955      -0.02739523      -4.41564368
Ni       2.65713762      -0.63829934       9.62782236       0.00715815       0.02149411      -0.01899595      -6.06387304
Al       4.11013579       1.34970515      10.20288172      -0.01278818      -0.01389720      -0.01997541      -4.15293294
Al       3.07806443       3.00275480       0.30766588       0.01280323      -0.00788789       0.01869799      -4.25224717
Al       4.91480685       4.98246466       0.84441781      -0.02667701      -0.00579096       0.00351190      -4.53199650
Ni       4.14515718       3.12571459       2.45175206       0.04069623       0.03592702       0.04074208      -5.92189071
Al       5.25110284       4.67285193       3.81447089      -0.04944197      -0.12073297      -0.01056563      -4.23838993
Ni       2.97029480       2.51381242       6.21238446       0.01651532       0.01561922       0.04076667      -5.90071030
Al       4.10224635       4.72617247       6.36089715       0.00556768       0.00646520      -0.00525226      -4.17031925
Ni       2.60081745       2.81112111       8.72911907       0.00709603      -0.00538025      -0.00169604      -6.02056052
Al       3.90519443       4.54630639       9.91202948       0.02103778       0.00294360       0.03692770      -4.29392696
Ni       2.83441862       5.92606970      -0.02827396       0.01438243       0.02318772      -0.00299813      -6.07962129
Al       4.08957008       7.69908656       1.36643931      -0.01687309       0.01268320       0.00791803      -4.45287830
Ni       3.34321531       5.61310898       2.59319324      -0.00833785       0.00236939      -0.00676052      -5.92209572
Al       3.89380800       7.06043925       4.58305446      -0.02044149      -0.00380388       0.01961772      -4.38164803
Ni       1.97423235       5.73449928       5.32439270       0.00886174      -0.03493146      -0.01722428      -5.84150616
Al       5.05792534       8.30841370       7.47480290      -0.00422910      -0.01569694      -0.00102051      -4.24897210
Ni       3.75384498       6.25667104       8.20004088       0.02152441      -0.01696874       0.01717030      -5.86708353
Al       4.39174104       7.19362149      10.48567926      -0.02792151       0.00989839      -0.00460233      -4.44571167
Ni       3.15453690       9.84977976       0.56712072       0.01489481      -0.01570806       0.00186352      -6.03114139
Al       5.09997344      10.87274361       1.41399996       0.01212076      -0.01403986       0.00361611      -4.33075315
Al       2.52505363       9.66584259       2.97623707       0.00819966      -0.01977867       0.00423505      -4.28116432
Al       4.14507870      11.58669823       4.04651776       0.00691025      -0.00609234       0.03366380      -4.19815097
Ni       3.53269148       9.41595450       5.28486259      -0.00173658      -0.00980060      -0.00043010      -5.97065875
Al       5.40620515      11.91677328       8.30794683       0.02300934       0.00421828      -0.01543085      -4.24878186
Ni       2.97755148       8.47015310       8.85009434      -0.01390334       0.01707671       0.01525736      -5.83565684
Al       4.27539256      10.08987544      10.16944904       0.01065297      -0.00596977       0.01419634      -4.23851073
Al       6.77814767       0.73433575      -0.80382095       0.00324622      -0.01014877       0.00654738      -4.16578576
Al       8.70204672       1.57998613       0.96033582       0.02734887       0.02338887      -0.03796000      -4.17279173
Ni       6.86647051       0.15039532       1.64725620      -0.01948188      -0.00675370       0.00023819      -5.86625157
Al       8.38023720       2.17774038       4.50325665       0.00799431      -0.02534776      -0.01559392      -3.73038697
Al       6.85475571       0.64339388       6.22551368       0.04666797       0.02020759      -0.00512980      -4.10652215
Al       8.58712811       2.42685315       7.34872840      -0.01953951       0.02791105       0.00963803      -4.00628577
Ni       6.87405508       1.30969174       8.70774640       0.00476476      -0.01680714      -0.00897806      -5.91982565
Al       8.89043127       2.10581768      10.08638701       0.00890240      -0.01105216       0.00930883      -4.12894838
Ni       5.50714787       2.53900501       0.34616945      -0.00725107       0.00122315       0.00909821      -5.97926883
Al       7.48900923       4.25473840       0.50769231       0.02002521       0.00535622       0.02694314      -4.31105144
Al       6.62840572       2.57782371       2.52222958      -0.00150435       0.00141802       0.00368641      -4.31107305
Al       7.81869866       5.50205660       3.19718063      -0.00864339       0.01917867       0.01179805      -4.46423647
Al       6.70563733       3.79610181       6.01117547      -0.01189590       0.02509072      -0.01720486      -3.62687818
Al       8.83747767       5.21393562       7.24045651      -0.01041763      -0.01389823       0.00435662      -4.24869252
Al       6.24502698       3.14506787      10.04729178       0.01575006       0.00617230       0.01898381      -4.14676446
Al       8.51042190       4.87731815       9.85471586      -0.00559949      -0.00437272       0.04635341      -4.39952812
Ni       6.39033774       5.68206887      -1.15040428      -0.00526878      -0.00466837       0.02703488      -6.10975299
Al       6.73174416       7.21758829       0.93655948       0.02044069       0.01536858      -0.04963583      -4.32597065
Ni       5.74212799       6.82748151       3.04416211       0.04563091       0.04689351       0.00171868      -5.99327474
Al       7.68063287       8.21421420       3.77798638      -0.03282722      -0.01945200      -0.02212176      -4.20308418
Al       6.42782527       6.40067738       5.48157384       0.00841390       0.00520724       0.03381256      -4.02738101
Al       7.82372997       7.83816717       7.17945057       0.02338817      -0.00345965      -0.02356219      -4.11980569
Al       6.05316314       5.54198341       8.27736001       0.02641926       0.01390198      -0.02707565      -4.06981915
Al       7.18899247       7.68568912      10.05543012      -0.00483675      -0.00162721      -0.01245008      -4.42870697
Ni       5.71621017       9.16923992      -0.14268902      -0.00961771      -0.00423498       0.01547635      -5.82095396
Al       7.73327143      10.20558972       1.02783258      -0.01259670       0.00380773       0.00305626      -4.31912577
Al       5.23178928       9.11170182       3.58316086       0.02222246       0.01535721       0.01273067      -3.95285379
Al       6.89059135      11.24870655       3.53039655       0.00674266       0.02422588       0.00376574      -3.92912854
Al       5.62372020      10.54095707       5.95387348      -0.01094224       0.00895189      -0.01855670      -4.16565365
Al       8.54921127      12.02741837       8.10267651      -0.03309299      -0.01707269       0.01043223      -4.27758583
Ni       7.07064166      10.00034796       7.74417393       0.02671553       0.00518245       0.00882096      -5.84414846
Al       6.97044201      10.31147884      10.19698092      -0.01034068      -0.00859469      -0.01623681      -4.00843959
Al       9.28357305      -0.65244517      -0.72068430      -0.00729300       0.00152403      -0.01626070      -3.97712659
Al      11.82093637       0.78668596       1.53970247      -0.02190158       0.02469258       0.04804836      -4.16225348
Al       9.04194613      -0.01832913       3.08294672       0.01986195       0.01509304      -0.01354598      -3.89562262
Al      11.67611540       1.43435427       4.19530758      -0.00928984       0.02105222       0.05951496      -3.81603488
Al       9.74954971       0.37535019       5.88824292      -0.03448597      -0.02476145      -0.00211224      -3.79497885
Al      11.09671862       1.37714223       7.99771588       0.01734563       0.00153350       0.01322219      -4.32207923
Ni      10.72199250      -0.75587595       9.26207857      -0.00483835      -0.01274260       0.00191442      -5.91471973
Al      11.29673899       1.09043773      10.75074397       0.00676539      -0.02920101       0.02861407      -4.32120289
Ni      10.63283407       2.76431986       0.61784155      -0.04852406      -0.01005839       0.00842335      -5.62960272
Al       9.92890738       5.13209498       0.91188174       0.04731248      -0.01129482      -0.03819493      -4.32071318
Ni       8.95376171       3.55919814       2.46071214      -0.00708712      -0.01431025      -0.01888423      -6.00913875
Al      12.23966986       5.72532822       4.55169289      -0.00547976      -0.00477096      -0.01438756      -4.21781529
Al       9.80541346       4.32403421       4.78255209      -0.01657823       0.00108475       0.01655096      -4.07730781
Al      11.59430486       4.27971143       6.74749140      -0.03815497       0.00643014      -0.00526598      -4.11388215
Ni      10.17659346       3.65652822       8.62548510       0.02664553      -0.03248254      -0.00198104      -5.91840368
Al      11.37718688       3.90642014      10.79691835      -0.01802814       0.01208197       0.01026529      -4.48799929
Ni       8.62662895       6.68784375      -0.32413750      -0.05853126      -0.02550085       0.01461291      -5.73533392
Al       9.59395683       8.01401950       1.56336043      -0.02229550       0.01438598      -0.00030431      -4.46415439
Ni      10.24997656       5.94976711       3.14174143      -0.01703894      -0.01778168       0.01939594      -5.95900135
Al      10.32088332       8.17898533       4.20218942       0.03157121       0.03577443       0.01671099      -4.16612091
Ni       8.86104616       6.59906406       5.26090353       0.00620280      -0.01186482      -0.00704302      -5.91850873
Al      10.57508857       7.53743173       6.93012750      -0.01551811      -0.03291128      -0.01164418      -4.21382723
Ni       9.34473289       7.03445960       8.98897768       0.00860512       0.01805025       0.00060788      -5.93637473
Al      10.69908468       7.08851238      10.94189976       0.04611571       0.00996968      -0.00078674      -4.38897783
Ni       9.42910145       9.32996371      -0.61016963       0.02578289       0.02744708      -0.00738638      -6.15805243
Al      10.51182880      10.66032340       1.31096562       0.00128161      -0.03299749       0.00898384      -4.16545140
Ni       9.05695334      10.05964768       3.23409716       0.00843346      -0.02085086      -0.03325267      -6.02898128
Al      11.11599326      10.97526046       4.21599630       0.00968323      -0.00347508       0.01263566      -4.20642877
Al       8.48748949      10.40777008       5.70079666      -0.02260661      -0.00160992      -0.00798944      -4.09425809
Al      11.14563273      10.50030371       6.90594087      -0.02066554      -0.01534269      -0.01161463      -4.04596441
Al       9.33204178       9.50666884       8.80539145      -0.03258160      -0.01316463       0.02056831      -4.31480970
Al      11.55677346       9.92630194      10.41578891       0.00402733       0.00225609      -0.00797810      -4.33504977
