179
Lattice="14.011174274267646 -0.03266990436573679 -0.01353775027515129 -0.03268818505657378 14.011168356218954 -0.0055153288956809625 -0.01356362047876915 -0.00551855066935197 13.973847487260649" Properties=species:S:1:pos:R:3:forces:R:3:energies:R:1 rep=5 n_sites=250 energy=-854.8227708585231 stress="0.0005235571408270857 0.000176710405637512 0.0004890444170600575 0.000176710405637512 0.0002659884288113923 -0.00031879709026300557 0.0004890444170600575 -0.00031879709026300557 -0.0007664629504822893" free_energy=-854.8227708585231 pbc="T T T"
Al       1.39141446       1.43769023       1.36577208       0.00962476       0.01026790       0.00041206      -4.31553899
Ni       0.10735122      -0.01454454       2.82348900       0.00577334      -0.00674198      -0.00299093      -6.02863922
Al       1.32134749       1.54172239       4.28900319      -0.00143673      -0.00110476       0.00133969      -4.09235249
Al       1.43042634       1.42432084       6.95962433      -0.00253065       0.00342092      -0.00961615      -3.92496018
Ni       0.13230697      -0.09234994       8.32077288      -0.00791240       0.00194247      -0.00022736      -5.88977705
Al       1.34706557       1.34474969       9.79501739       0.00208863      -0.00466363       0.00007320      -4.23601412
Al       1.36095657       1.30205609      12.55605214       0.00204176       0.00161616       0.00038378      -3.88201777
Al       1.43910927       4.24073566       1.30436698       0.01080701      -0.01100098       0.00420105      -4.34395110
Al       1.36649059       4.25458475       4.19992413      -0.00040802      -0.00194655       0.00054224      -4.34491095
Al       1.51236656       4.21093467       6.97639926       0.00818213      -0.00208482      -0.00221992      -4.34487642
Al       1.36688915       4.18501929       9.69120848       0.00224931       0.00129057      -0.00207682      -4.37743560
Al       1.36325905       4.16326287      12.54649885       0.00329859      -0.00719086      -0.00301628      -4.37607366
Ni       0.03088744       5.62446895      -0.03748833      -0.00581720       0.01026606       0.00002077      -5.89672911
Al       1.49536606       6.99193649       1.43175057      -0.00352660       0.00196412       0.00095100      -4.32265571
Al       1.37200104       7.11969603       4.15780578      -0.00170022       0.00378823      -0.00831503      -4.22773288
Ni       0.01655239       5.65233519       5.66989905      -0.00071860       0.00211266      -0.00385045      -6.15249005
Al       1.43297073       7.14963314       7.02679570      -0.00642052      -0.00537020       0.00129850      -4.39224685
Ni       0.02915583       5.63605110       8.29321622       0.00163152       0.00555335      -0.00002636      -5.91198225
Al       1.40259560       6.98925307       9.77113877      -0.00464863       0.00440157      -0.00281417      -3.97071138
Al       1.48246574       6.95359642      12.52783785      -0.01149222       0.00561063       0.00298982      -4.33952184
Ni       0.07853573       8.32860918      -0.03264877      -0.00382069      -0.00851986      -0.00290686      -6.23856302
Al       1.39785856       9.76521515       1.51092888      -0.00070509       0.00021137       0.00776456      -4.44140383
Al       1.31356037       9.86507070       4.20650495       0.00217738       0.00301271      -0.00171625      -4.02563128
Al       1.20156168       9.90551083       7.00382573      -0.01127591      -0.00060618      -0.00754349      -3.61154819
Al       1.39858942       9.70958519       9.70898717      -0.00004383      -0.00284358      -0.00173780      -3.66662476
Al       1.51471948       9.74152811      12.47671558       0.00102933      -0.00220901       0.00190538      -4.45140769
Ni       0.16923428      11.21454032      -0.07959685      -0.00585291      -0.00004033      -0.00325414      -6.16486999
Al       1.47779174      12.71068891       1.35512079      -0.00212118      -0.00236008       0.00438635      -4.54953149
Ni      -0.03921991      11.32056935       2.76689633       0.00286929       0.00324554      -0.00084255      -6.07641119
Al       1.41010743      12.61063703       4.29324223       0.00370399      -0.00316200      -0.00212393      -4.12401608
Al       1.68517311      12.60743500       6.95816062      -0.00325653       0.00447082      -0.00297385      -3.74964262
Al       1.57956473      12.53686133       9.71864123       0.00594303       0.00614421      -0.00256521      -4.00849647
Ni       0.11672354      11.20878935      11.18562963       0.00279897       0.00033679      -0.00351479      -5.98836769
Al       1.71177339      12.59208290      12.48461531       0.00399611      -0.00406831      -0.00288505      -4.15297266
Al       4.16696737       1.19958647       1.33784491      -0.00048324       0.01212391      -0.01227902      -4.56857711
Ni       2.80689870       0.14664711       3.01017420      -0.00406892      -0.00992235      -0.00372938      -6.12561618
Al       4.24840710       1.61170704       4.29761303      -0.00447550       0.00601500       0.00383217      -4.09210819
Al       4.20271389       1.19839777       6.97919329       0.00305579       0.00444298       0.00102940      -3.76361737
Al       4.18816721       1.17269550       9.74634604       0.00526254       0.00241003       0.00412982      -3.99043286
Al       4.20567356       1.24112152      12.44069213      -0.00112643      -0.00408998       0.00269679      -4.18163642
Ni       2.89437527       2.70772827      -0.08944766       0.00450490      -0.00082731       0.00777926      -6.13504686
Al       4.26487644       4.18794645       1.37833335      -0.00363807      -0.00533762       0.00195685      -4.33358950
Ni       2.78016755       2.85578648       2.78476238      -0.00650559       0.00363917      -0.00086474      -6.15325965
Al       4.27041234       4.25450140       4.21467856      -0.00619530       0.00562889      -0.00331758      -4.31785069
Al       4.16758009       4.20835295       6.99700265       0.00168935      -0.00501950       0.00091577      -4.34281960
Ni       2.87009185       2.69951163       8.41960513       0.00316572       0.00442592       0.00016663      -5.90639903
Al       4.29979420       4.20358039       9.70377686      -0.00103507      -0.00022296       0.00582121      -4.36101690
Ni       2.79814312       2.77778659      11.08913005       0.00517323       0.01017647       0.00256561      -6.16164781
Al       4.27117742       4.21756810      12.52161158      -0.00631833       0.00594706       0.00520263      -4.39989454
Al       4.23748223       6.91888114       1.35875780      -0.00031157       0.00029945      -0.00596714      -4.20999393
Ni       2.85142673       5.58238384       2.83804404      -0.00249788      -0.00486076       0.00440704      -6.02443986
Al       4.23752003       7.24369850       4.12801185      -0.00081913      -0.00553077       0.00371896      -4.27162789
Ni       2.86617334       5.79934224       5.52653229      -0.00183184      -0.00009378      -0.00405667      -6.20190936
Al       4.27088092       7.27434262       6.99969873      -0.00406452       0.00068680       0.00167217      -4.43334095
Al       4.19011979       7.06166191       9.74784638       0.00258445      -0.00513680      -0.00230407      -4.14887274
Ni       2.82252060       5.52911619      11.12396373      -0.00622620      -0.00298145      -0.00342006      -5.90676866
Al       4.13651929       7.03207898      12.46541860      -0.00209440      -0.00132568       0.00506553      -4.35673601
Ni       2.89783335       8.50641382       0.01201611       0.00173092       0.00087756       0.00578220      -6.14025144
Al       4.30461888       9.68715980       1.56311381      -0.00187812      -0.01167474       0.00046364      -4.10703053
Al       4.20330162      10.10296543       4.26565994       0.00303834      -0.00213250      -0.00115775      -3.75558791
Ni       2.78184456       8.59722120       5.61760626       0.00233543       0.00276738      -0.00448605      -5.90419121
Al       3.96885350      10.17838670       7.04546749      -0.00155339       0.00114071       0.00168137      -3.73729811
Al       4.09939685       9.99328898       9.80350934       0.00592057      -0.00023213       0.00413164      -3.76001782
Al       4.30391138      10.07021847      12.56123254      -0.00016937      -0.00527742       0.00195429      -4.44788701
Ni       2.87003686      11.14521337       0.17269087       0.00327414       0.00516673      -0.00053338      -5.98792097
Al       3.98888960      12.19875608       2.22677287       0.00283123       0.00665386       0.00681480      -4.30151703
Al       4.05647158      12.95206610       5.04532300      -0.00065902       0.01171312       0.00241579      -4.03128210
Al       4.18856074      12.66170966       8.12662716       0.00025445      -0.00213325       0.00438184      -3.67012333
Al       4.24149783      12.62597551      10.82949090      -0.00337803       0.00417322       0.00310760      -3.62518946
Al       4.47385607      12.77249304      13.51226164      -0.00649144      -0.00778036       0.00143462      -3.82907481
Al       6.91767683       1.29457327       1.48469363      -0.00170523      -0.00059837       0.00235744      -3.86909556
Ni       5.43674347      -0.03328039       2.97326380       0.00782607      -0.01546312       0.00497336      -5.89083513
Al       6.98975644       1.24590788       4.28131361       0.00188040      -0.00208534      -0.00145553      -4.04002260
Al       6.90445405       1.32389771       7.03591076       0.00071886       0.00830472      -0.00213816      -3.87934334
Al       6.82663363       1.40358068       9.74778735       0.00125622      -0.00478417      -0.00799910      -4.07265784
Al       6.97644344       1.28945195      12.67143810       0.00359263      -0.00157678      -0.00475663      -4.29336987
Ni       5.52905321       2.67666342      -0.02091347       0.00009945       0.00101248       0.00555756      -5.90747548
Al       6.99883692       4.01949260       1.37702177       0.00094202       0.00467073      -0.00423379      -4.24768266
Al       6.93274531       4.08206342       4.13179668      -0.00082636       0.00226585       0.00000924      -4.23217106
Al       6.99231186       4.20456958       7.00630108       0.00100792      -0.00102626      -0.00341336      -4.51954665
Al       7.04027779       4.36183829       9.76607828      -0.00621122      -0.00711625      -0.00123060      -4.27257355
Al       6.99015412       4.07077067      12.55905466       0.00160039       0.00475785      -0.00011999      -4.14773691
Al       6.95085425       7.02151847       1.31704297       0.00161280       0.00258863       0.00885463      -4.20419721
Al       6.92035647       6.93952303       4.04790800      -0.00456933       0.01053671      -0.00472185      -4.07997641
Ni       5.59209206       5.67993638       5.66395697      -0.00254295      -0.00103719      -0.00281470      -6.15486018
Al       7.11502446       7.09737018       6.94163431      -0.00083470       0.00024018       0.00349966      -4.08651050
Ni       5.62309755       5.71392942       8.29882944      -0.00499877      -0.00083900       0.00292376      -5.91049409
Al       6.98047685       7.15095020       9.73037716       0.00053429      -0.01314916       0.00508104      -3.91998939
Al       6.93967469       6.87930433      12.49282602       0.00168967      -0.00534977       0.00056043      -4.26385391
Ni       5.56517529       8.41373572      -0.12337158      -0.00033837       0.00162384      -0.00149589      -6.02119400
Al       7.00633392       9.80473039       1.26598713       0.00740075       0.00556906       0.00035714      -4.01912660
Al       6.89133348       9.58986048       4.05803536       0.00010684      -0.00232300      -0.00446311      -3.88476958
Al       6.66727606       9.72599183       6.86721746      -0.00859868       0.00315276      -0.00518553      -3.89520379
Al       6.87142497       9.92621867       9.74679128      -0.00476241      -0.01170333      -0.00277427      -4.07983380
Ni       5.58161720       8.53261113      11.18386698      -0.00023315      -0.00371643      -0.00367972      -5.90344051
Al       7.13851167       9.76237895      12.52510745      -0.00047183      -0.00004803       0.00167304      -3.88253673
Al       6.78359220      12.59830213       1.35768131      -0.00113307       0.00461719       0.00443730      -3.92889959
Al       6.67394000      12.37288987       4.11836471      -0.01183020       0.00607907      -0.00603025      -4.27778515
Al       6.64691537      12.62510365       6.82976340       0.00636995       0.00171823       0.00141967      -3.94136146
Al       6.80997894      12.70569741       9.59899896      -0.00057026      -0.00996310       0.01188940      -4.01007686
Al       6.85904217      12.44418115      12.40705935       0.00621077       0.01043750       0.01167837      -3.79693098
Al       9.66618787       1.37372968       1.38250668      -0.00215528      -0.00101408       0.00399891      -3.89774764
Al       9.72427015       1.32158962       4.10199476       0.00721877      -0.00631565       0.00470399      -4.04145532
Al       9.71968588       1.28048535       6.97738882      -0.00275587       0.00101038      -0.00550337      -4.56104261
Al       9.79003482       1.26710325       9.71089510      -0.00686179      -0.00793677       0.00873158      -4.63085686
Ni       8.27350092      -0.01721611      11.15965294       0.00487358       0.00459589      -0.00034816      -5.97607242
Al       9.77963613       1.41931175      12.47612290      -0.00735868      -0.00399031      -0.01474392      -4.55896026
Al       9.88780193       4.13262710       1.30982712      -0.00648569       0.01120572       0.01065511      -4.39493850
Al       9.77474796       4.07362118       4.09272190      -0.00187508       0.00177632      -0.00906538      -4.61633611
Ni       8.34081992       2.74601955       5.62120694       0.00306244       0.00159427       0.00040264      -6.05045590
Al       9.80007319       4.19988887       6.98129342      -0.00097794      -0.00162794      -0.00544800      -4.60785506
Ni       8.37009272       2.77739172       8.39113465      -0.00387907      -0.00105107      -0.00243646      -6.13753951
Al       9.86494427       4.12331901       9.78456429       0.00515295      -0.00111640       0.00876576      -4.38515937
Ni       8.30817932       2.69468403      11.04973254       0.00226441      -0.00638029       0.00147683      -6.01125657
Al       9.76903436       4.12772488      12.53757617      -0.00013677      -0.00272871      -0.01018188      -4.27702208
Ni       8.33711449       5.54045951       0.01323891       0.00174041       0.00336729       0.01548611      -5.90598374
Al       9.80223430       6.96713158       1.28433484      -0.01134136      -0.00803083       0.00181098      -4.50794727
Ni       8.37708063       5.52590967       2.66125174       0.00063690      -0.00443810      -0.00552095      -6.13937245
Al       9.73276281       7.05073830       4.11728201       0.00289019      -0.00376135      -0.00358741      -4.44264460
Ni       8.35666198       5.55949778       5.44866635       0.00021911       0.00107737       0.00687966      -6.19402985
Al       9.81326808       6.96780686       6.92488990      -0.00203981       0.00344462       0.00225456      -4.17497354
Al       9.66138794       6.91258922       9.69309637       0.00054047      -0.00583367      -0.00689927      -4.10850074
Al       9.72049440       6.92096713      12.55606903       0.00067360       0.00005715      -0.00158811      -4.37302816
Al       9.72475732       9.79212571       1.27593077       0.00309257       0.00641255       0.00453879      -4.29641412
Al       9.70834585       9.71223502       4.16649479       0.00287147       0.00037954       0.00810200      -4.42211738
Al       9.62362574       9.70686087       6.91098139       0.00552212      -0.00154039       0.00697567      -4.43157389
Al       9.59430627       9.77039907       9.73308792       0.00807198      -0.00557281      -0.00113180      -4.44012237
Al       9.78382244       9.80629114      12.52747787      -0.00258409       0.00282701      -0.00023501      -4.04916756
Al       9.72868951      12.63312137       1.33854447       0.00310482      -0.00071962       0.00416940      -4.20981834
Ni       8.30582333      11.17656906       2.75090438      -0.00074744       0.00307197      -0.00758396      -5.99728300
Al       9.61826523      12.64020651       4.16211484       0.00490875       0.00121793      -0.00001441      -4.42566662
Ni       8.16748697      11.14032918       5.53233862       0.00089728      -0.00267656       0.00194339      -6.11940563
Al       9.63574562      12.60723060       6.94220761      -0.00293834      -0.00625865       0.00674326      -4.57274302
Ni       8.11922964      11.18203613       8.18274823      -0.00389832      -0.00602050      -0.00365370      -5.96200076
Al       9.62377420      12.52747349       9.69914371       0.00098810      -0.00107993      -0.00356896      -4.57555979
Al       9.67680983      12.52996779      12.56600977       0.00422315       0.00012388      -0.00185977      -4.23590148
Ni      11.17129087       0.04501448      -0.09027404       0.00496373       0.00593867       0.00389357      -6.02732891
Al      12.68263568       1.31570402       1.36140364      -0.00170234       0.00104832       0.00123514      -4.22481597
Al      12.60167436       1.36068158       4.10132595       0.00134321       0.00401148       0.00393664      -4.16682084
Ni      11.18084547      -0.03561055       5.57021917       0.00352256      -0.01029774      -0.00260503      -6.13775363
Al      12.73263965       1.32777370       6.92054256      -0.00003063       0.00794752      -0.00255242      -4.45348045
Ni      11.30006767      -0.10348480       8.33972980       0.00084586      -0.00475081      -0.00021922      -6.27171660
Al      12.65894006       1.33722750       9.76636908      -0.00461381      -0.00272460       0.00289348      -4.24966363
Ni      11.16658590      -0.16398683      11.16074208       0.00334293       0.00672934      -0.01487619      -6.18878439
Al      12.65747995       1.38622039      12.44967282       0.00982928       0.00235983       0.00277263      -4.10145854
Ni      11.23374174       2.64523476      -0.00297627       0.00449045       0.00344667      -0.00290939      -5.92977892
Al      12.62848581       4.15875198       1.37105332      -0.00573912      -0.00224405       0.00427776      -4.13309124
Al      12.66777077       4.11741929       4.13527949      -0.00424557      -0.00404630       0.00269918      -4.23493132
Ni      11.18125570       2.67280836       5.55733254       0.00286666       0.00315579      -0.00111855      -6.16765040
Al      12.61271194       4.12860259       6.96732447      -0.01008898      -0.00853680      -0.01092481      -4.53892593
Ni      11.20752024       2.67979660       8.30641469       0.00655410       0.00487849      -0.00465761      -6.05120668
Al      12.61908435       4.15813554       9.72749290       0.00306229      -0.00210557       0.00043823      -4.15228672
Al      12.54524981       4.16703494      12.55845390      -0.00033882      -0.00081901      -0.00377034      -4.19404128
Al      12.63813584       6.92848370       1.37211510       0.01031027      -0.00534345      -0.01055566      -4.51129060
Ni      11.19324820       5.61282381       2.81649377      -0.01248203       0.00191994       0.00674515      -6.07611931
Al      12.65730005       7.05501510       4.17221314       0.00343208       0.00368083       0.00432345      -4.33897054
Ni      11.20691015       5.53045929       5.46592841       0.00553583      -0.00291018      -0.00123995      -6.18928688
Al      12.52805185       7.01022838       6.97483406       0.00055700       0.00442873      -0.00643368      -4.30452850
Al      12.61695961       6.95641445       9.68319652       0.00075570       0.00739595      -0.00318975      -4.34947115
Ni      11.17044142       5.61148149      11.11166243      -0.00215549      -0.00071743       0.00045488      -5.90467830
Al      12.63410786       6.93656988      12.47492726      -0.00226415       0.00385413       0.00647723      -4.52624066
Ni      11.22984256       8.39723605      -0.07394094       0.00146280       0.00298789       0.00016303      -6.12691290
Al      12.63511908       9.82808882       1.30705360      -0.00489754      -0.00313794       0.00152276      -4.61345599
Ni      11.18099053       8.38581432       2.66904823       0.00159861       0.00806884      -0.00146461      -6.15419520
Al      12.58341173       9.78108575       4.15982262       0.00377710       0.00447321       0.00826731      -4.20553025
Al      12.53133016       9.71347737       6.86479418       0.00386349      -0.00075153      -0.00530137      -4.07328117
Ni      11.11739726       8.42938159       8.38875615      -0.01104169       0.00550698       0.00102928      -6.02975826
Al      12.67486976       9.75325733       9.69840656       0.00175561      -0.00167093       0.00929967      -4.44413156
Ni      11.13065315       8.33142851      11.09682780       0.00123852       0.00248328      -0.00632659      -6.26453212
Al      12.67550858       9.73390159      12.47618495      -0.00166410       0.00478702      -0.00376943      -4.59100779
Al      12.54785388      12.60733720       1.28592014       0.00566130       0.00059015      -0.00983167      -4.38643197
Ni      11.10198551      11.13013804       2.77972328      -0.00596763      -0.00552196       0.00083359      -6.17957262
Al      12.51576572      12.64210888       4.11572876      -0.00152298       0.00330338       0.00331511      -4.50363009
Ni      11.10831922      11.24091619       5.54335917       0.00440271       0.00053042       0.00152094      -6.17827013
Al      12.72333671      12.48571705       6.90092484      -0.00113227       0.00027565      -0.00334807      -4.47683329
Ni      11.11634847      11.11801037       8.29763945      -0.00284249       0.00877884       0.00188934      -6.25539980
Al      12.70662022      12.52319232       9.72505103       0.00238381      -0.00644505       0.00773767      -4.56423339
Ni      11.20059757      11.15321812      11.05726545      -0.00192339      -0.00544737      -0.00320091      -6.16873818
Al      12.63876124      12.57085347      12.57936195       0.01343021      -0.00542628      -0.00052128      -4.51335244
