94
Lattice="10.329505275173382 0.05187753621081451 0.5243237185491058 0.04547575179412263 10.234126246006529 -0.2999773930265446 0.5574040814761467 -0.31792701929450295 10.64385680673019" Properties=species:S:1:pos:R:3:forces:R:3:energies:R:1 energy=-516.4713648738036 stress="-0.0016257940427961146 0.00013793747792197186 0.00016776216666673498 0.00013793747792197186 0.0026334700037292844 2.0034742308997766e-05 0.00016776216666673498 2.0034742308997766e-05 -0.000788128547380307" free_energy=-516.4713648738036 pbc="T T T"
Ni      -0.39035393       0.43177087       0.25723003       0.02192012       0.01343616      -0.00483245      -5.90137133
Al       1.30838301       1.75356820       1.42453384      -0.00118595      -0.00180673       0.00123712      -4.94559600
Ni       0.44545015      -0.04162356       3.02013034      -0.01432476      -0.00269570       0.01809725      -5.80736915
Ni       0.66390743      -0.12486813       6.53388156      -0.00565407       0.00991438       0.00770124      -5.82549933
Ni       0.74828104       1.64562469       9.13914315      -0.00971317       0.00685466      -0.01194091      -5.79327627
Al       2.69763355       3.14152389       8.45274938      -0.01679687      -0.00205554      -0.01478701      -5.09899091
Ni      -0.77850889       2.85687425       0.69326399      -0.00615799      -0.00579282       0.00262921      -5.75357352
Al       2.26527612       4.73385532       0.55932249      -0.01501174       0.01479232       0.01777699      -4.81617527
Ni      -0.15501037       2.89890990       3.14202190       0.00170429       0.00958010      -0.01711657      -5.81157792
Al       1.56939234       1.72153452       4.38632053      -0.00035494      -0.01132103       0.00030918      -5.05530199
Ni      -0.96530226       0.85345687       4.76478965      -0.00239047       0.00301762      -0.00612645      -5.75936028
Ni       0.99950981       2.32796372       6.77379326       0.00685840       0.00830462      -0.00475482      -5.77903828
Ni       0.42420888       4.49474846      -0.83663317       0.00858984       0.02180085       0.02871370      -5.66948606
Ni       0.16587006       5.06741121       1.67253293      -0.00795932      -0.00499965       0.00052989      -5.76014186
Al       1.75731911       5.80352265       3.42644570      -0.00597291       0.00684866      -0.00372370      -4.86863160
Ni       1.45890622       4.07060795       5.06009454       0.00026709       0.00441667      -0.00676753      -5.63331652
Ni       1.05402949       4.81947402       7.31528292       0.01609826       0.00237646       0.00657054      -5.80687322
Ni       0.57300474       6.82153197      -0.11172977       0.00272628      -0.00751598      -0.00756768      -5.67363434
Al       1.16552739       9.01345854       0.62710389       0.00369203       0.00155667       0.00645135      -4.72140190
Ni       0.48474009       7.55994837       2.40471438      -0.00787785       0.00342696       0.00062327      -5.81969251
Al       1.38550385       8.42430713       4.52869424       0.00833229      -0.00023676      -0.01196425      -4.89434773
Ni       0.39705794       6.36615894       5.46625054       0.00089483       0.01528101      -0.00282924      -5.72839820
Ni      -0.56338139       6.03939300       8.80075011       0.00979800      -0.00655651       0.02198755      -5.86537281
Al       1.18395289       9.42404187       8.56075276       0.00208765      -0.02775702       0.00129080      -4.86502660
Ni       2.12681617       0.61748909      -0.38980330       0.01226475      -0.02094698       0.01193424      -5.65462733
Ni       3.49419407       1.24029426       2.73647900       0.00665015      -0.00588949       0.00708519      -5.78981122
Al       5.11567842       1.59169879       4.75097211       0.00482650      -0.01376234       0.00382240      -4.92627399
Ni       2.95429580      -0.05924964       5.11690253       0.00978988       0.00026383      -0.02828633      -5.78293192
Ni       2.72976649       0.72818930       7.84818082       0.00814164       0.01321624      -0.01848095      -5.75775707
Ni       3.36868592       2.68787928      -0.22093566      -0.01298378      -0.00959247       0.00620066      -5.58167689
Ni       2.16892534       3.55389343       2.57871542      -0.00601464       0.02563794       0.01552646      -5.75003624
Al       4.17131809       5.43201818       2.51310195       0.00621107      -0.02260487      -0.00901245      -4.91995986
Ni       3.32259487       2.24503611       6.13662827      -0.02602890      -0.01368902       0.02207457      -5.66912429
Ni       4.92204480       2.03159228       8.06615627      -0.00575974      -0.01174520      -0.01322697      -5.62277423
Ni       2.43825809       5.87042319      -1.51497963      -0.00949400       0.01196252       0.01415459      -5.75560961
Ni       2.79565295       7.10356261       1.04989917      -0.00561212       0.01661641       0.00324573      -5.96777757
Ni       3.76647386       3.63098607       4.26251769       0.00460496       0.00843707      -0.00974767      -5.86195013
Ni       3.41868171       4.58879625       6.66491661       0.00804910       0.01049130      -0.01135341      -5.62352089
Al       5.20171050       6.85186592       9.71327380       0.00667781       0.01008097       0.00152901      -5.02409313
Ni       2.57602057       8.39833931      -1.26359214      -0.00942718      -0.01404566       0.01860686      -5.85831653
Al       3.86194253       9.57972435       0.58871744      -0.01178455      -0.01642389       0.00000482      -4.92085680
Ni       2.59290713       9.17112741       2.49968731       0.02680540      -0.00748846       0.01258166      -5.71273690
Al       4.81258424       9.45747090       3.35119160      -0.00154217      -0.03473889      -0.00024365      -4.84601494
Ni       2.71143285       6.61138975       5.64441775      -0.01586569       0.00662202      -0.00289210      -5.71832364
Al       3.16935851       8.75613110       6.83301123      -0.00918033      -0.01383487       0.00420928      -5.05383813
Ni       1.56117801       7.09524370       7.81071652       0.00871947       0.00746784      -0.01554785      -5.72426868
Ni       5.23030651       1.18635819       0.44595414       0.00122611      -0.02599726      -0.01482695      -5.65284545
Ni       6.14989107       1.10775210       2.72451922      -0.00147907       0.00888178      -0.00843857      -5.86906543
Ni       4.86372284       0.13860627       6.60577019       0.00733935       0.00703273      -0.00439080      -5.70528281
Ni       4.70108526      -0.29616275       9.10964578       0.00334106      -0.00842149       0.00063553      -5.86926190
Ni       5.75749714       3.17339997      -0.79326905      -0.00568896       0.01651125      -0.00384861      -5.57657751
Al       7.01191006       3.00840577       1.30140557      -0.00735740      -0.00424385      -0.00973388      -5.06715341
Ni       4.63125106       3.18670405       1.82257831       0.01590036       0.01167238      -0.00276623      -5.78912605
Al       6.04077390       3.93646228       3.65724206      -0.00861021      -0.00649151      -0.01743471      -4.90212461
Ni       5.55720511       3.51709868       6.09175342      -0.01093130      -0.00451265      -0.00249821      -5.84732565
Ni       6.90989524       0.67520999       8.74874790       0.00892801       0.00353668       0.01501687      -5.74727324
Ni       4.57900885       5.10701405       0.19477430      -0.01314822       0.00551081      -0.00889365      -5.70463708
Ni       6.45631034       5.42873616       1.73409601      -0.02020304       0.00026789       0.01289026      -5.84900793
Al       6.58752770       6.88584316       3.73112790       0.00513135      -0.00195297       0.01181809      -5.04224860
Ni       4.89840335       5.67871879       4.97382740       0.00669185      -0.00688017       0.01665378      -5.82482288
Al       6.28120961       5.83249910       6.96247768      -0.01340936       0.00866315      -0.00210156      -4.85652262
Ni       5.09413922       4.44973758       8.45375732       0.00995255      -0.00203518       0.01780967      -5.82315341
Al       7.33644526       4.98762669       9.57194198      -0.00130556      -0.01866253       0.01196608      -4.99366442
Ni       5.11385769       7.62275525       1.62353537       0.00020420       0.00795138       0.01017741      -5.88599590
Al       7.12865832       9.01400706       2.05757548       0.00771425       0.00040365       0.00085423      -4.72414952
Ni       3.60579475       7.38979136       3.60711812      -0.00886155       0.03631325      -0.02322833      -5.72380470
Ni       5.14165186       8.03146675       5.38341112       0.01976477       0.00913945      -0.01139790      -5.73266372
Al       6.24540069       8.72772464       7.29304426       0.01606082       0.00823640      -0.02084728      -4.88247274
Ni       4.27383720       6.80132245       7.47985112      -0.00159493       0.00293110       0.01553052      -5.68532323
Al       6.83485424       9.04095886       9.93702496      -0.00045179      -0.01392940      -0.01096213      -4.80688940
Ni       7.59839779       0.50756493       0.84150398      -0.00469201       0.00887455       0.02530289      -5.72655547
Al       8.72940900       1.14726744       2.87114092      -0.00019802       0.00453154      -0.00668146      -4.93144975
Ni       6.86290466      -0.38460251       4.80504227       0.01272507      -0.01397907       0.00559257      -5.95374749
Ni       8.30969781      -0.60541629       6.86833087      -0.00207214      -0.00282447       0.01668071      -5.55702843
Ni       9.09944900      -0.38267299       9.25805854       0.01562192      -0.01127439      -0.01809701      -5.84858723
Ni       8.03625516       2.27239318      -0.66778530      -0.00792970       0.01543595      -0.01363113      -5.56933751
Ni       7.59270729       2.42122324       4.48448713      -0.00630011      -0.01915304       0.01249055      -5.69528182
Ni       6.93213447       1.42569945       6.50342027      -0.00714769      -0.00844755      -0.02748412      -5.57321155
Al       9.43382273       3.24006264       5.95829782       0.00842131      -0.00967231       0.00914776      -4.97954114
Ni       9.08773984       1.52673467       7.67438276      -0.00140736       0.00729401       0.00883188      -5.67920267
Al       9.68108729       3.57853292       8.84536845      -0.01261669      -0.00751130      -0.00800083      -4.91077382
Ni       8.53815736       5.00583553       0.54030588      -0.02073675       0.02548126      -0.01354787      -5.76363890
Ni       8.29246027       4.30489966       2.90600479       0.00732614      -0.01495699       0.01231277      -5.75055076
Al       9.34396899       5.96185441       4.20100617      -0.00728078      -0.01530639       0.00374105      -4.78259495
Ni       7.58331730       4.78653544       5.30005718      -0.00404024       0.01228072      -0.00808129      -5.85806105
Al       8.91006351       5.53557303       7.19500061      -0.02045824      -0.02349528      -0.02066911      -4.81961470
Ni       7.45227788       3.52230605       7.64279244       0.01494243       0.00208533       0.02107839      -6.08082685
Ni       7.01303505       7.24556401       0.21866144       0.01395612       0.00776311       0.01665062      -5.74629112
Ni       8.54569668       6.95827728       2.13211888       0.00847539      -0.00603196      -0.00235476      -5.80681944
Al       9.07448041       8.76151334       4.22441779      -0.00273807       0.01230925      -0.00687244      -4.80464507
Ni       7.87407568       7.32813848       5.83748923       0.01797167      -0.00419885      -0.00071850      -6.05085489
Al       9.85414062       8.06974355       7.44020635       0.01357077       0.02798504       0.00524881      -4.84664608
Ni       7.77261200       7.35118805       8.46363707      -0.00446575      -0.00361883      -0.00943247      -6.05235498
Al       9.57867452       8.13195713      10.66967245       0.00124277       0.00560135      -0.00718221      -4.94662341
