91
Lattice="9.984255120859892 -0.467951881439339 -0.6471452777843316 -0.44456991502775245 10.589275596035204 0.2932693808341421 -0.6120876192328669 0.3199599230079648 10.169071706244312" Properties=species:S:1:pos:R:3:forces:R:3:energies:R:1 energy=-504.320358597892 stress="0.001557267886699604 0.00035971110481441705 -0.00023152906103065637 0.00035971110481441705 -0.0016672255770146232 0.0017809561049812802 -0.00023152906103065637 0.0017809561049812802 0.000586015197145628" free_energy=-504.320358597892 pbc="T T T"
Ni       1.47767123      -1.69000992       1.46812426       0.01605490      -0.01780685      -0.05325679      -5.74702970
Ni       0.90783348      -0.73662774       3.46142674      -0.00366778       0.00594947      -0.01015753      -5.65859412
Ni       0.24007107       0.51905860       5.82041921       0.00740766      -0.00274850      -0.02086246      -5.84823842
Al       2.71125976       1.23899139       6.11403188      -0.00052897       0.00614775      -0.00991054      -4.91773040
Ni      -0.99054131       0.37751904       8.03733777      -0.03136323      -0.00947290       0.00670775      -5.70176114
Ni       0.22122549       4.39678961       0.23370822       0.01758599       0.01120004      -0.00692271      -5.77574655
Ni       0.76226161       2.97909393       2.36929633      -0.01596870      -0.00132228       0.00435749      -5.78287814
Al       0.82733776       5.13904577       4.21129584      -0.00107027      -0.01803572      -0.00108780      -4.99499571
Ni       0.88482658       3.03970236       5.77923442      -0.00095797       0.00075027       0.00184644      -5.85589849
Ni      -1.32554377       2.48782837       9.33127437       0.00024238      -0.02254348       0.00898649      -5.88114614
Al       0.86217228       4.12371236       8.26335526       0.01497657      -0.00436049       0.00656758      -5.06393485
Ni      -1.68204473       6.56584993      -0.67660050      -0.02711236       0.00546194      -0.01257085      -5.76997113
Al       0.41471211       6.68119971       1.04204617      -0.00772836       0.01472837      -0.00441411      -4.91613006
Ni      -0.75344661       4.95515914       2.43543235      -0.00115386       0.00965796      -0.00681979      -5.85690365
Al       1.98264326       7.79658141       4.04704056       0.00494988       0.00380827       0.01066911      -5.03523314
Ni      -2.84559038       3.97224015       5.32013865       0.00567391       0.00247623       0.00123698      -5.87520012
Ni      -0.68600469       4.90261442       6.37678753      -0.00400596       0.01635840       0.01399702      -6.01341063
Ni      -0.69444003       8.62427579       0.00494812       0.00404302      -0.00434175      -0.01284502      -5.70583826
Ni      -0.25136425       7.36867163       3.32984029      -0.01137142      -0.00877588      -0.00557840      -5.86504183
Ni      -1.07480492       8.83076478       5.17969775       0.00101134       0.00652211      -0.00469871      -5.76176042
Al       2.04365326       7.81041708       7.64521484       0.01026931       0.00328000       0.00938686      -4.92416188
Ni      -0.13051180       9.06988972       7.67150906      -0.00061735       0.00207486      -0.02299799      -5.75414823
Ni       1.35768374      -0.13616548      -0.46675189       0.00960408      -0.01690696       0.03080548      -5.71449125
Ni       2.29915143       0.69127507       1.72266524       0.00051202       0.01782007      -0.04308884      -5.75235651
Al       1.47635719       1.42000610       3.88387301      -0.01250429       0.00210232       0.00046175      -4.85130692
Ni       2.07057149      -1.13098292       5.56924610      -0.01580589      -0.00669483       0.01049013      -5.78681349
Ni       2.67814626      -0.40004566       8.03125127      -0.01787106       0.00018311      -0.00274412      -5.82922806
Al       2.91798528       1.61615880       9.51996646      -0.00844370       0.01906681       0.00564844      -5.10992296
Ni       1.52112819       2.36174170       0.11101004      -0.00814577       0.00541008       0.00099612      -5.63069810
Ni       3.27050562       2.80116720       1.89959404       0.01969021      -0.00178978       0.01539498      -5.78777751
Al       4.93738304       3.64731920       3.55574588       0.01947315       0.01363728       0.00146099      -4.99670878
Ni       2.69196137       3.46088754       4.28332553      -0.01059173       0.00272226       0.01201512      -5.77383703
Ni       1.02231782       1.71084575       7.88795581       0.02370554       0.00460578       0.01566727      -5.78663326
Ni       1.87018419       5.00393101       2.05145334       0.02156840       0.02859993      -0.01865365      -5.72276922
Ni       3.01179202       7.32201231       1.78942970      -0.00831395      -0.00061580      -0.01887957      -5.87965615
Ni       3.30199995       5.76737032       3.88612245       0.00040224      -0.02124421      -0.02437047      -5.70832852
Ni       1.91457959       5.29810109       6.26110547      -0.01792845       0.00477524      -0.01426278      -5.66314942
Al       1.95232077       6.11519926      10.05069186      -0.01228468      -0.00167676      -0.00033752      -4.92845622
Ni       1.66429014       8.05806287      -0.45472948       0.00282932       0.00549352       0.02236498      -5.72124153
Ni       3.08698374       9.66128639       3.13698804       0.01615535       0.00454590       0.02715887      -5.74694372
Ni       0.39956915       7.11449018       5.85541936      -0.01307709      -0.00919423      -0.00376132      -5.82621956
Al       4.02313118       9.64169911       5.45383513      -0.00550723       0.00695188      -0.00504376      -4.97456594
Ni       0.05677347       6.45205891       8.40294166      -0.01574228       0.01387681       0.01347595      -6.03407056
Ni       3.49194649      -0.96834477       0.36042729      -0.04042421      -0.00459090       0.00464670      -5.72274847
Al       5.55457350      -0.61211136      -0.77192145      -0.00518384       0.00460999       0.01252063      -5.04042369
Ni       5.53381076      -1.62274953       1.36038335      -0.00499559      -0.04212241       0.00178168      -5.78729422
Al       7.20056753       0.09861001       1.28281377       0.01053619       0.00924381       0.00880118      -4.92048062
Ni       6.02480916      -0.39602598       3.43390371       0.01712581      -0.01883519       0.00999074      -5.85472075
Al       6.20495904       1.32166489       4.99572730       0.02941892      -0.00261911      -0.00516448      -4.71236869
Ni       4.53919694       1.33180571       7.63095539      -0.01674831       0.00077125       0.00179782      -5.79770633
Ni       3.62046066       3.69581828      -0.39413134      -0.00746843      -0.00654351      -0.01372909      -5.89048366
Al       5.57816307       2.94613743       0.82162781      -0.00285467      -0.02083898       0.01570374      -4.92220813
Ni       4.82719852       0.75353261       1.44676400      -0.01246747       0.00627943       0.01743127      -5.87091960
Ni       4.01638431       1.25532985       3.81826307       0.01840032      -0.01000155      -0.00144740      -5.94076963
Ni       2.92309746       3.33750118       7.37474981       0.00227927       0.00319258       0.01508302      -5.75720415
Al       5.14579085       4.00581780       8.10805318       0.02162885      -0.00288882       0.00459292      -5.12238139
Ni       4.22252927       4.99019867       1.68566113      -0.01113082      -0.00431157       0.00029001      -5.78103894
Ni       5.81298287       5.85110299       4.10155444       0.01335123       0.01171454       0.00689483      -5.71033841
Ni       4.35554249       5.10526734       5.98127306      -0.00842316       0.00247375       0.00237929      -5.61506176
Ni       3.32388567       5.80115199       8.11926020      -0.00127416      -0.01421900       0.01058484      -5.84599044
Al       4.99952652       5.91173961       9.96046115       0.00054800       0.00775125      -0.01473554      -5.01045502
Ni       4.18026440       7.63308391      -0.41591952      -0.01826482      -0.01521710      -0.00875057      -5.85839420
Ni       4.48274767       7.85257617       3.74704065       0.03019495       0.00548338      -0.01596287      -5.78930158
Al       6.85319114       8.16609855       3.36938579      -0.00726761      -0.00072437       0.01151599      -4.99673629
Ni       3.50566575       7.29882858       5.94831027       0.00581541       0.00981367      -0.01844135      -5.76335772
Ni       4.51483244       8.92078339       7.66037101      -0.00376970      -0.01217938      -0.00517309      -5.72930181
Al       6.18777341      10.86515395       7.74733940       0.01450301       0.00783933      -0.01532498      -4.78088940
Ni       8.29774250      -0.51927502      -0.70217675      -0.01176829       0.01154870      -0.00031528      -5.70760200
Al       9.98576263       0.29016715       0.80687015      -0.00308375      -0.01490131       0.00205901      -5.12198308
Ni       8.88676028      -1.82895216       1.36087255       0.01541949      -0.00589551      -0.01073625      -5.80470259
Al       8.95451322       2.54118586       3.41812774       0.01072751      -0.00245983      -0.00290983      -4.96298416
Ni       8.69402339       0.04336900       3.14047459       0.01661935      -0.00500959       0.00087981      -5.90652334
Al       8.83261939       1.96505880       6.14984784       0.01892726       0.00001915       0.00419939      -5.02889200
Ni       6.72051063       2.62368930       6.99514785       0.00589276       0.02202864       0.01957464      -5.79967413
Ni       6.82773345       1.59556858      -0.78307950       0.00112556      -0.00025494      -0.00879827      -5.92010397
Ni       8.44202771       2.19572217       1.01681810       0.00962854       0.00316294       0.00220627      -5.76654563
Ni       6.64796854       1.94409077       2.75310960      -0.00823142       0.00077777      -0.01001429      -5.78504932
Ni       4.63737770       2.82141226       5.74033005      -0.00298971      -0.01160663      -0.01196611      -5.63184119
Al       8.17950844       4.28297637       7.88419844      -0.00859507      -0.01011015       0.00531987      -4.72413709
Ni       7.54577898       4.03245159      -0.21571485      -0.00543614      -0.00738144       0.02859236      -5.79999291
Al       7.89645419       6.40007242       1.10273379       0.01683712      -0.00262004       0.00460953      -4.91145964
Ni       6.81086820       4.46251777       2.21803178       0.00465363       0.00232282       0.00840934      -5.95271011
Al       8.18688915       5.64304905       3.97183976       0.02021360      -0.01206335       0.00427826      -5.02329587
Ni       6.72983022       5.17313308       6.28837333       0.01476381      -0.01656722       0.01736335      -5.70699570
Al       8.20126028       6.96318850       6.45724336       0.00187173       0.00101397      -0.00906869      -4.95524035
Ni       5.50717640       6.66322584       7.75669442      -0.00989797       0.00855952      -0.00303082      -5.68773111
Ni       6.62872660       7.94332961      -0.23273923      -0.00774218      -0.02466209       0.00066623      -5.80672349
Ni       5.68174741       6.75749929       1.83869458      -0.00850251       0.02307857       0.01417924      -5.70126015
Ni       5.95146825       7.82251093       5.67588859      -0.03668354       0.00792129      -0.01754354      -5.87978124
Al       7.44346019       9.75437266       5.62256391       0.00254300       0.01038675       0.02660818      -4.84720950
Ni       7.02962665       8.61889018       7.76102714      -0.00421485       0.03795467      -0.00627872      -5.73641742
