160
Lattice="13.542670508703432 0.24726659318243804 0.37369312497360485 0.24907038398813702 13.609362563061358 -0.33175785432152566 0.3699018507367078 -0.3272014994109809 13.753494903430662" Properties=species:S:1:pos:R:3:forces:R:3:energies:R:1 rep=5 n_sites=250 energy=-716.0509848189575 stress="-0.0002375019356790656 1.925224770683907e-05 4.4242379983513554e-05 1.925224770683907e-05 0.00013820825207795577 0.00011508404000305741 4.4242379983513554e-05 0.00011508404000305741 1.469478615485332e-05" free_energy=-716.0509848189575 pbc="T T T"
Ni      -0.06072271       0.15101285       0.21234296      -0.00230779       0.00303020       0.00001253      -6.00052426
Al       1.79774400       1.28716957       1.28474072       0.00234748       0.00255545      -0.00037442      -4.05810452
Al       1.44653521       1.54475750       4.00944369      -0.00595142       0.00273104       0.00056110      -4.10563409
Ni       0.20990763       0.02849401       5.60400259      -0.00597687       0.00330662       0.00223656      -6.06398073
Al       1.48720977       1.87459063       6.75159046       0.00193599      -0.00135572      -0.00542798      -4.31878576
Al       1.86831111       1.31404869       9.45889291       0.00528464      -0.00015467       0.00767354      -4.28504906
Al       1.26600217       1.25311743      12.28640591      -0.00781884       0.00331853      -0.00478509      -4.39012707
Al       1.63829141       3.95294859       2.08227897       0.00026333       0.00156587      -0.00095644      -3.87426845
Al       1.95951693       4.10958406       4.86708172      -0.00243101      -0.00035055       0.00182434      -4.12404944
Al       1.13228800       4.54133937       7.45286110       0.00238030       0.00188768       0.00238584      -4.04579943
Ni       0.05874254       2.72515725       8.52984971       0.00223628      -0.00043759       0.00639438      -5.78654128
Al       1.18170000       3.89819181      10.36322087      -0.00670423       0.00035886      -0.00176209      -4.14428157
Al       1.80861125       3.91165559      13.13463759       0.00175142      -0.00100792      -0.00507620      -3.86135853
Al       1.90268011       6.74679081       0.90199572      -0.00214004       0.00185628      -0.00782991      -4.25635158
Al       1.09454601       6.47416375       3.74655915       0.00158008      -0.01142826       0.00013804      -4.49372850
Ni      -0.07904297       5.33535069       5.49907284       0.00089859      -0.00787948       0.00035579      -5.76684755
Al       1.25500864       7.21392007       6.51863639       0.00391399       0.00192491       0.00174226      -3.91521860
Al       1.60258695       6.41097909       9.26160413       0.00176902      -0.00317848       0.00183215      -3.58066801
Al       1.65878735       6.39579561      11.91907959       0.00116875       0.00362847       0.00366405      -3.72537119
Al       1.25922290       9.53287961       0.90911076      -0.00008572       0.00426761       0.00100576      -4.21708158
Ni      -0.00321827       7.97658377       2.33155976      -0.00291818       0.00974840      -0.00812042      -5.84740469
Al       1.15286480       9.49619405       3.82190044       0.00457821      -0.00458274       0.00062700      -4.20158730
Al       1.44961865      10.00091451       6.49701846       0.00514732      -0.00340588       0.00037328      -3.88167219
Al       2.05823480       9.03318609       9.04927781      -0.00222320       0.00383204      -0.00231548      -3.88654105
Al       1.63150646       9.73217467      11.69772229      -0.00175383       0.00563930      -0.00001350      -3.77799309
Al       1.21727481      12.33179004       1.54810416       0.00089879      -0.00125122       0.00526513      -4.30920632
Al       1.91661053      12.00128828       4.27330120      -0.00224424      -0.00504791      -0.00170130      -4.40496670
Al       1.87073225      12.72028626       7.08996008      -0.00117557      -0.00291106       0.00169176      -4.35075518
Al       2.08400306      11.91070147       9.83062531      -0.00156134       0.00699075      -0.00539869      -4.09361463
Al       2.47409375      12.28567756      12.54187739       0.00191110       0.00181735      -0.00154921      -4.05612565
Al       4.60729647       1.16225648       1.81483286      -0.00321866      -0.00481601       0.00286943      -4.07976822
Ni       2.89296188      -0.07610305       2.97656797       0.00220985      -0.00366316       0.00042788      -5.95641906
Al       4.39864724       1.70547534       4.39508547       0.00245629       0.00398186      -0.00058130      -3.92382223
Ni       2.83718571       0.20590654       5.53947697       0.00519795      -0.00113019       0.00573443      -5.96762493
Al       4.20064722       1.46706478       7.12572887      -0.00405516      -0.00068561      -0.00308316      -3.95613108
Al       4.77367571       1.46937380       9.85956408      -0.00165708       0.00447154       0.00395431      -4.17509082
Ni       3.18606731       0.10871088      11.13508844      -0.00452954      -0.00138811      -0.00589431      -5.89887629
Al       4.11888367       1.32050330      13.01518330      -0.00003662      -0.00111711       0.00489345      -4.28123683
Al       4.51468402       3.95901736       1.96255926       0.00224063       0.00304533      -0.00108823      -4.23451007
Al       4.70605854       4.52547881       4.68414272       0.00587989      -0.00087887      -0.00036687      -3.82581920
Al       3.79016483       4.13214282       7.23399293       0.00145590       0.00033928      -0.00326843      -3.72816505
Al       3.86774384       4.41809655      10.04892773       0.00189793      -0.00370320      -0.00324604      -4.29072170
Ni       2.98192301       2.61378587      11.32241674       0.00120366       0.00031252      -0.00151090      -5.88928609
Al       4.53534357       3.92251002      12.75787574      -0.00158894       0.00577558       0.00429426      -4.23708965
Al       4.87961050       6.81895281       2.27499390       0.00254221      -0.00576719       0.00060087      -4.29473061
Ni       3.13938554       5.48862642       3.16916589       0.00652598      -0.00140826      -0.00270020      -5.80296525
Al       3.59162321       7.12153857       4.93338396       0.00019613       0.00023504       0.00416102      -4.09223536
Al       3.74753494       6.93933603       7.71401389       0.00403861      -0.00041109      -0.00321757      -3.90553122
Al       4.02607370       7.23244710      10.58281951      -0.00380335      -0.00200698      -0.00355489      -4.10235138
Al       4.81242839       6.69192915      13.15808054       0.01128380      -0.01087613      -0.00047972      -4.26459498
Ni       2.63101978       8.45936450      -0.90340159      -0.01107840      -0.00280756      -0.00677054      -5.70682975
Al       3.97788166       9.19078938       0.97283625       0.00208397      -0.00176044       0.00417480      -4.38659264
Ni       2.68697324       8.00462994       2.75936596       0.00516905       0.00468177       0.00729871      -6.07326337
Al       4.19187157       9.55000664       3.89132057      -0.00565609       0.00596329      -0.00375758      -4.11521860
Al       4.26127371       9.27420397       6.47904526       0.00188253       0.00541204       0.00364455      -3.79031745
Al       4.87952019       9.44554902       9.09309717       0.00432749       0.00345080       0.00039717      -4.11999579
Al       4.50923936       9.76011367      11.95283169       0.00332931       0.00572111      -0.00319697      -4.12006796
Al       4.06987928      12.16470164       0.81513935      -0.00568054       0.00202235       0.00051931      -4.17484338
Ni       2.86116461      10.81195191       2.40191466      -0.00097077      -0.00170695      -0.00219692      -6.04572852
Al       4.84145336      12.35237595       3.76948595      -0.00060051      -0.00057224      -0.00429202      -4.32655974
Al       4.52637740      12.19551134       6.44818995       0.00034886       0.00031612       0.00376566      -4.17924007
Ni       3.18542146      10.84138415       7.94844199      -0.00261110      -0.00211766      -0.00775963      -5.79248195
Al       4.72759669      12.32884804       9.19833676      -0.00285553       0.00529928       0.00663189      -4.26218551
Al       5.20071136      12.44359343      11.96139567       0.00162796       0.00337156      -0.00002665      -4.09453443
Al       7.09966176       0.85155231       0.99044331      -0.00294510      -0.00416464       0.00155297      -3.96609267
Al       7.10751303       0.68152411       3.79274283      -0.00402666       0.00018053      -0.00381822      -3.61147735
Al       7.05686872       1.61243595       6.41666507      -0.01033278      -0.00241536       0.00398711      -3.85493153
Ni       5.87825440       0.05589999       7.98309429       0.00336818       0.00680470       0.00187083      -5.74757448
Al       7.60884347       1.14346050       9.09031955      -0.00123796       0.00256066      -0.01284291      -4.16271255
Al       6.81595299       1.14535907      12.07468322       0.00293863       0.00056398       0.00415898      -4.12077626
Ni       5.66637004       2.74069381       0.29056479       0.00079305      -0.00339564      -0.00629600      -5.98824339
Al       7.37415291       3.85092432       1.70727963      -0.00007686      -0.00023118       0.00454468      -4.30396034
Al       7.13564620       3.36230931       4.32246787       0.00149311       0.00454995      -0.00610427      -3.70569830
Al       6.43785715       4.25272254       6.79634614       0.00238673       0.00111179      -0.00564546      -3.99541646
Al       6.77680656       3.82116922       9.69676392       0.00031657       0.00104450      -0.00088602      -4.47197118
Al       7.24041168       3.86388103      12.40683899      -0.00067923       0.00173571      -0.00454216      -4.61943429
Ni       5.88862448       5.40121005       0.48978668      -0.00018645       0.00073323       0.00154673      -6.03651490
Al       7.55626731       6.68819119       1.79384626      -0.00476349      -0.00202261      -0.00002539      -4.09102157
Al       6.97883486       6.17393885       4.48763945      -0.00137452      -0.00403166       0.00341718      -3.85575410
Al       6.52539906       7.21938442       7.18180842      -0.00155085       0.00236861       0.00288860      -4.30998685
Ni       5.44530043       5.48349941       8.58968318      -0.00312664       0.00098207      -0.00018797      -5.88519725
Al       6.97026502       6.86639188       9.87075063       0.00078245      -0.00429163      -0.00212201      -4.40561843
Ni       5.68413152       5.47194244      11.25913559       0.00096875       0.00035988       0.00818089      -6.03607191
Al       7.48048040       6.62182544      12.68425114       0.00167906      -0.00932060      -0.00354043      -4.50109096
Al       6.83230325       9.12508962       0.81604379       0.00393048      -0.00353990       0.00554881      -3.80063282
Al       6.79363838       8.87173884       3.47628913      -0.00613495       0.00181362       0.00033524      -4.17716736
Al       6.87941705       9.93635451       6.72121946      -0.00249562       0.00264933       0.00108721      -3.86868910
Al       7.75129514       9.33548697       9.34698127       0.00096580       0.00055408       0.00276722      -4.03813275
Al       7.38026563       9.51646008      12.07232968       0.00124308       0.00685625      -0.00454754      -3.97092558
Al       6.72612180      11.83920071       0.31740399       0.00199173      -0.00281916      -0.00188210      -3.81462210
Ni       5.49246791      10.64492392       2.15510031      -0.00501280       0.00181107       0.00251354      -5.91476085
Al       7.47859101      11.60859800       2.98378561      -0.00237957      -0.00097350      -0.00057599      -3.91060566
Al       7.16225779      12.49935990       5.70803948      -0.00088401       0.00793204       0.00045646      -3.89251533
Al       7.47123005      11.93509593       8.64396587      -0.00270410       0.00469740       0.00070467      -4.13457979
Ni       6.19984309      10.83323656      10.48791061       0.00468908      -0.00310218       0.00816184      -5.76842302
Al       7.94574103      12.15204506      11.44482995      -0.00310761      -0.00430027       0.00151513      -3.88641815
Al       9.57432245       1.43769926       1.60474715      -0.00616200       0.00272804       0.00381853      -4.17043192
Al       9.55242157       1.80060393       4.51941955       0.00060447      -0.00039094      -0.00326443      -4.01906085
Al       9.85102711       1.78622959       7.19852455      -0.00039193      -0.00360686       0.00202687      -3.84581589
Al      10.21365253       1.08274690       9.81037132       0.00954570      -0.00355169      -0.00036339      -3.98508683
Al       9.45548864       0.48527778      12.50719148      -0.00826328       0.00018269       0.00128180      -4.43997008
Ni       8.31916583       2.68261444      -0.12006499      -0.00421920      -0.00524720       0.00147608      -6.03540689
Al      10.36011117       3.94631855       0.94342797       0.00581780      -0.01063096       0.01530631      -4.28060455
Al       9.52751043       4.59421190       3.62779384       0.00642089      -0.00004537       0.00112231      -3.77836369
Al       9.10976716       4.18919443       6.30681041       0.00451419       0.00238900       0.00058829      -3.85378988
Al       9.58607790       3.75888561       9.09744550       0.00291408      -0.00093033       0.00339257      -4.23916197
Ni       8.45753674       2.43652338      10.85785010       0.00104519       0.00493646       0.00366236      -5.94691063
Al      10.16997239       3.53013374      12.00115827       0.00079904      -0.00421650      -0.00830596      -4.33241630
Ni       8.57456417       5.29060914       0.07998943      -0.00484426       0.00385058      -0.00788126      -6.03642520
Al      10.18631777       6.81253816       1.13236428       0.00252092      -0.00183476       0.00491583      -3.85931454
Al       9.46779066       7.33766900       3.82806845      -0.00058724       0.00121042       0.00140798      -4.09167077
Al       9.45795828       6.98394213       6.85078719       0.00258399      -0.00723527       0.00547312      -4.27118721
Ni       8.06454895       5.43522642       8.15721565       0.00245056       0.00321963       0.00074611      -5.99275213
Al       9.91241625       6.59813137       9.38258681       0.00183864      -0.00295063      -0.00150016      -4.40369844
Ni       8.54707394       5.19444581      10.82505074       0.00088235      -0.00603665       0.00734571      -6.22068267
Al      10.26785646       6.22715844      12.13872684      -0.00575776      -0.00464159      -0.00751662      -4.19537492
Al       9.35891054       9.46198963       1.95117388       0.00613804      -0.00059357      -0.00251873      -3.61112936
Al       8.92699781      10.23336769       4.73689693      -0.00364158      -0.00270000      -0.00079364      -4.34510371
Ni       7.93522835       8.18418302       5.46352874      -0.00052108      -0.00086567       0.00442379      -5.68063748
Al       9.72715361      10.03696581       7.46517631       0.00142506      -0.00728346      -0.00614220      -4.25062792
Al      10.43828367       9.36112347      10.32849124       0.00205316      -0.00477709       0.00059865      -4.11408990
Ni       8.78601112       7.85046565      11.12253300       0.00431858       0.00173996       0.00069894      -5.88364985
Al       9.93572519       8.80883708      13.07831212      -0.00260251      -0.00643185      -0.00155481      -3.95596225
Al       9.39964472      12.25733057       1.18751170      -0.00549630      -0.00043008      -0.00233910      -3.87095552
Al       9.76250007      12.71574948       4.03341162       0.00577529      -0.00172182       0.00059515      -4.05790691
Al       9.73919131      12.68971495       7.05232654      -0.00036082       0.00636374      -0.00353231      -4.03199096
Al      10.19014327      11.97790598       9.64077398       0.00390791      -0.00247496       0.00175091      -3.80910631
Al      10.56358148      11.36785888      12.26676763      -0.00026544       0.00328993      -0.00191817      -4.06945900
Ni      10.92179435      -0.30257362       0.29523134       0.00363850      -0.00022919       0.00207867      -5.93604204
Al      11.94232411       0.59617383       2.39896671       0.00036567      -0.00372993       0.00116842      -4.19250747
Al      12.29310149       1.88332556       4.90111534       0.00121980       0.00460312       0.00118457      -4.22431866
Ni      11.10868672       0.11601514       5.95597250      -0.00489855      -0.00458033       0.00665860      -6.00274177
Al      12.46158179       1.14012641       7.84940302      -0.00102979      -0.00146631       0.00129575      -4.31712860
Al      12.66143282       1.81048393      10.70009907      -0.00181998      -0.00105945      -0.00246461      -4.11818974
Ni      11.39307884      -0.23592949      11.45770522       0.01199978      -0.00092349      -0.00368523      -5.87011484
Al      12.10405841       1.39525259      13.19369275       0.00014535       0.00412477       0.00090885      -4.20604308
Al      13.03501913       3.01916370       1.42970694      -0.00619277       0.00725151       0.00026055      -4.03151278
Ni      11.09995976       2.82345222       2.97421717      -0.00602675       0.00320821      -0.00452639      -5.77559777
Al      12.62548427       4.39687701       3.95325952       0.00061844       0.00473770       0.00434364      -4.14032756
Al      12.06500102       3.84418468       7.09718451       0.00202683       0.00429969      -0.00770295      -3.92317348
Al      12.10141963       4.63028174       9.98045094       0.00277837       0.00263040       0.00127426      -3.91705112
Al      12.74235365       4.06535893      12.77934948       0.00111267      -0.00772291      -0.00150413      -3.71406828
Al      12.85018431       6.06763989       1.61791145      -0.00134597       0.00236007       0.00032484      -3.87711385
Al      12.08104159       7.10979952       4.54878304      -0.00543754      -0.00051970       0.00067066      -4.15916222
Al      12.26497314       6.47542750       7.63570587      -0.00746223      -0.00021655      -0.00075214      -4.19472936
Al      12.62299410       7.43644261      10.22452317       0.00298061       0.00666906      -0.00241700      -3.83345956
Al      12.65546802       6.80827938      12.87117437       0.01087145       0.00532274       0.00690176      -3.47241522
Al      11.94620004       8.92219827       1.06443947      -0.00061238      -0.01035454       0.00142598      -3.78620457
Al      11.78105291       9.72545066       3.69426772       0.00120467       0.00165506      -0.00394180      -4.31622055
Ni      10.51591499       8.66391717       5.56951997       0.00537763       0.00417271       0.00038791      -5.84516788
Al      12.52467760       9.40484081       6.50233123      -0.00449395      -0.00572490       0.00073702      -4.15480342
Ni      11.19445672       8.37130697       8.28674170      -0.00165141       0.00459710       0.00142760      -5.85617696
Al      12.94297427       9.96402930       9.12335903      -0.00205523      -0.00074365      -0.00239497      -3.79167534
Al      12.55956446       9.44365441      12.20811157       0.00631227      -0.00468203      -0.00621302      -3.62235861
Al      12.31138525      11.57553576       1.15848803      -0.00656720      -0.00010320      -0.00011140      -3.92186251
Al      12.68326216      12.38336914       4.05956796      -0.00625007      -0.00234859      -0.00071998      -4.16518991
Ni      11.00143111      11.18530520       5.49875196      -0.00249568       0.00734726      -0.00015904      -6.05836086
Al      12.78251238      12.08522863       6.85717217       0.00214672       0.00189497      -0.00136466      -4.16342698
Al      13.10260788      12.64075491       9.43689540      -0.00029152      -0.00229449       0.00738669      -3.81218720
Al      13.37428726      12.13382673      12.24891349      -0.00146644       0.00276001      -0.00454923      -4.20742366
