128
Lattice="12.409703656213063 -0.25228267649344743 -0.07937143287812698 -0.2598951518865597 12.476400278081284 -0.1273974809706923 -0.07343211354789957 -0.13167771496442554 11.89605613893808" Properties=species:S:1:pos:R:3:forces:R:3:energies:R:1 energy=-612.0590331410073 stress="-0.00010232527954114472 2.8774546015524712e-06 -0.00038723043853444776 2.8774546015524712e-06 -0.0010277761858672946 -9.547487610766729e-05 -0.00038723043853444776 -9.547487610766729e-05 0.0003121647418235399" free_energy=-612.0590331410073 pbc="T T T"
Ni      -0.64438077       0.65698035       0.13012354      -0.00289736       0.00176175      -0.01003092      -6.06395592
Al       0.71552726       2.23801366       1.51404747       0.00535953      -0.00020786      -0.00233489      -4.42254782
Ni      -0.81845029       0.82555856       2.63781722       0.00227158      -0.00315607       0.00116927      -5.88319414
Al       1.17863645       0.92831507       3.87545168       0.00303129       0.00262460       0.00956293      -4.16886489
Ni       0.59438384      -0.03153679       6.10764453       0.00095461      -0.00170354       0.01757241      -6.04360076
Al       1.98064911       0.01922647       8.09652083       0.00249631       0.00149975       0.00059972      -4.26996054
Ni      -0.14599781      -1.33397024       8.53545769       0.00063478       0.00180387       0.00453673      -6.06606949
Al       1.88157818       0.91003318      11.36344811       0.00018702      -0.00364051       0.00127102      -4.30216670
Al      -1.16910326       2.85934187      -0.61998163       0.00324763       0.00181768       0.00922077      -4.04976211
Al       1.85232682       4.66662088       2.35759332       0.00114671       0.00107980       0.00582361      -4.41860428
Al      -1.21344441       3.34381637       3.02256858       0.00562043       0.00537828      -0.00203963      -4.02702006
Al       1.85410400       3.64509959       5.14442345       0.00365434      -0.00733618       0.00295599      -4.24782593
Al       0.22872389       2.17134207       7.01388852       0.00095713       0.00355108       0.00459116      -4.26238664
Al       1.49659800       4.49566205       7.95246512      -0.00252495      -0.00364334      -0.00096848      -4.47442820
Ni      -0.33487337       3.16867640       9.11867274       0.00906654      -0.00794209      -0.00701410      -5.90144736
Al       1.34484754       4.02493802      10.62558034       0.00029819       0.00625585       0.00382525      -4.37655926
Al      -0.60864411       5.11734631       0.78466938      -0.00349466       0.00570224      -0.00365600      -4.02843803
Al       0.95504342       7.27101106       1.68092760       0.00252275      -0.00335223      -0.00346980      -4.30404978
Ni      -0.21005876       5.53557963       3.18623685      -0.00800270      -0.00135239       0.00415620      -5.94128006
Al       1.72015678       6.60262292       4.35522313       0.00352327       0.00511291       0.00008220      -4.49950525
Ni       0.44586909       5.43300813       5.96683146      -0.00257940      -0.00112937      -0.00266170      -5.82738250
Al       1.71074630       7.25001819       7.05153078      -0.00549768       0.00107565      -0.00098247      -4.45699460
Ni      -0.14998815       6.50123092       8.49368456      -0.00142480       0.00360405       0.00498701      -6.07119102
Al       0.58420128       6.81620197      10.86974525      -0.00174946      -0.00206252       0.00038950      -4.18529233
Ni      -0.02893127       9.00105893      -0.03133728      -0.00017632       0.00168623      -0.00816851      -5.85501126
Al       0.49452791      11.66473108       1.26430676      -0.00384464      -0.00292051      -0.00213620      -4.40667397
Ni       0.47305548       9.56129336       2.52967880      -0.00488310       0.00289437      -0.00049104      -6.00722660
Al       1.57640562      10.87462037       4.62961702      -0.01152725      -0.00316592       0.00338115      -4.24133541
Ni       0.68576682       8.75533349       5.17855900       0.00969035       0.00569129       0.00918235      -5.94431229
Al       1.39083239       9.91156633       7.28524471      -0.00700379      -0.00131801      -0.00468139      -4.19568214
Al      -0.37354921       8.82124682       9.19095434       0.00108693       0.00406345       0.00033461      -4.20571274
Al       1.62145878      10.82300515      10.09485896       0.00086565       0.00244829       0.00010670      -4.17836662
Ni       3.48215517      -0.78177272       0.21871443       0.00218682       0.00222600       0.00058401      -6.07552031
Al       3.97861776       1.38742306       1.31288907      -0.00200386       0.01292042      -0.00101741      -4.34545941
Al       3.24291796      -0.91834016       2.67142072       0.00738382       0.00456424      -0.01308783      -4.07409185
Al       4.86563246       1.52047056       3.76884161       0.00348656       0.00226269       0.00323469      -4.29160505
Al       2.94651268       1.14439300       5.76198488       0.00135554      -0.00308832      -0.00847848      -4.12306816
Al       4.31141598       1.90346811       8.15008889       0.00478649      -0.00462831       0.00927280      -4.38309202
Ni       3.79394206       0.04169863       9.76912474       0.00208268       0.00709455      -0.00005766      -6.03766409
Al       4.01644833       2.44240923      10.72133559      -0.00125783       0.00137346      -0.00406916      -4.21850017
Ni       2.61062759       3.24604048       0.58712789      -0.00086173      -0.00703191      -0.00054880      -5.81965394
Al       4.62260535       4.11805568       1.49883463       0.00700196       0.00069947       0.00707541      -4.59028526
Ni       2.78789523       2.59374846       3.09544089      -0.00083359      -0.00215122       0.00476791      -5.94591906
Al       4.22601363       4.42952814       4.09887011      -0.00431903      -0.00627595      -0.00414873      -4.62723133
Ni       4.17526390       3.26710796       6.25487276      -0.00133539       0.00939880      -0.00587979      -5.91152653
Al       4.11575624       4.68550719       8.39035108      -0.00173280      -0.00467083      -0.00178779      -4.44831138
Ni       1.99658956       2.15059896       9.18154221      -0.00937360       0.00557461       0.00942026      -5.92341846
Al       5.82726378       4.34579734      10.44345884      -0.00397928      -0.00146218      -0.00510391      -4.26064194
Al       3.00064499       5.82685111       0.05297820      -0.00054185       0.00656022      -0.00340173      -4.13035984
Al       5.35880071       7.22825301       1.05922410       0.00047228      -0.00477886      -0.00066503      -4.34523606
Ni       3.34592178       6.61151310       2.40221138       0.00268947       0.00511488       0.00550405      -5.99528409
Al       4.36621759       7.19612352       4.63930069      -0.00388996      -0.00627887      -0.00361174      -4.43783588
Ni       3.15506955       5.53880837       6.18560792       0.00025555      -0.00532356      -0.00296734      -6.17866889
Al       4.35510775       7.41700685       7.39998290      -0.00522940      -0.00416455       0.00231662      -4.44452288
Ni       2.46084135       6.10705627       9.57289196       0.00120607       0.00526427       0.00054501      -5.83084518
Al       4.75475729       7.15724784      10.22703440      -0.00237279       0.00265554      -0.00304824      -4.43249424
Al       2.14439364       9.56785957       0.58043869       0.00249669       0.00248451       0.00850466      -4.16580640
Al       4.71140478       9.87371990       1.03709505      -0.00149276       0.00488997       0.00115974      -3.98672130
Al       2.73092418       8.84397578       3.23768798       0.00527547       0.00237852      -0.00083513      -4.29258054
Al       4.30935379      11.27493855       5.33978796      -0.00056445       0.00502478       0.00011204      -4.17100454
Ni       3.08739805       9.11854899       5.71636734      -0.01252329      -0.00110218      -0.01038006      -6.04822500
Al       4.01130338      10.12192187       7.73665800       0.00493945       0.00567922       0.00726864      -4.10152407
Al       2.47219853       8.43165010       9.44442877      -0.00125073       0.00212812       0.00119797      -3.80014866
Al       4.42492799      10.18072505      10.32165792      -0.00185323       0.00354310      -0.00839877      -4.30501532
Al       5.72628691       0.27489316      -0.36611494      -0.00038652       0.00253780      -0.00224532      -4.24624653
Al       7.18503749       1.33543361       1.94957483       0.00763841      -0.00163512      -0.00019416      -4.34331653
Ni       5.53512528      -0.42028818       2.16713824       0.00041437      -0.00731131       0.00067115      -6.07402487
Al       8.70471949       2.30681002       4.14739575      -0.00408667       0.00137707      -0.00338112      -4.34138857
Ni       5.39189862       0.95820572       6.10444610      -0.00059944      -0.00113340      -0.00406769      -5.85466221
Al       7.79959400       1.40975095       6.90960665      -0.00076481       0.00162940       0.00294939      -4.31095417
Al       5.84855464      -0.21558861       8.30676003       0.00437844      -0.00313376       0.00106132      -3.96928437
Al       7.04217241       1.84284867       9.71511162       0.00363257      -0.00087194       0.00388135      -4.06005534
Ni       6.19739574       2.66356987       0.12975170      -0.00248300       0.00072987       0.00324216      -6.03687417
Al       7.13880143       4.99833925       1.14098935      -0.00260743       0.00523172      -0.00110543      -4.58342151
Ni       6.47092307       3.42495208       2.99933053      -0.00425080       0.00292366      -0.00657522      -5.96538621
Al       7.87803711       5.12862054       3.94173045       0.00557123       0.00058775      -0.00172238      -4.51911568
Al       6.40804506       3.00991049       5.40470437      -0.00207751      -0.00509312      -0.00362692      -4.20172429
Al       8.41951934       4.38283602       6.77993578      -0.00570338      -0.00024182       0.00590708      -4.24187983
Ni       6.41205561       3.62245804       8.00585378      -0.00749985      -0.00816445      -0.00293686      -6.07187336
Al       8.22961303       4.99663600       9.50269674       0.00483019       0.00127268      -0.00488348      -4.25458095
Ni       6.93513069       6.48090414      -0.70643265      -0.00419512       0.00711007       0.00786051      -5.85029376
Al       8.20775293       7.81812006       0.87523307      -0.00219856       0.00536996      -0.00469464      -4.43720473
Ni       5.72568782       5.89294921       3.00611836       0.00382143      -0.00580389       0.00035763      -5.70598813
Al       6.96414038       7.63197911       4.27725588      -0.00072773      -0.00082289      -0.00238141      -4.23300185
Al       5.69099754       5.34347237       6.34811380      -0.00471831      -0.00464909       0.00253547      -4.27623947
Al       7.23771789       7.56342913       7.01261865       0.00600306      -0.00402675      -0.00308622      -4.33396204
Ni       6.22151322       6.12741239       8.66937516      -0.00359228       0.00253333      -0.00480614      -6.10273988
Al       7.86923816       7.94957221       9.71410157       0.00387237      -0.00023417       0.00338157      -4.39775090
Ni       6.36959610       8.98677061      -0.50313054       0.00050524      -0.00195689       0.00077104      -6.06459576
Al       7.20113595      10.98546599       0.82159480       0.00174155      -0.00464204       0.00230547      -4.09214803
Al       5.60091672       9.89704122       3.52495734       0.00350586       0.00146467       0.00395814      -3.96631954
Al       6.64873795      12.34898491       4.19144443      -0.00281782       0.00151519       0.00217544      -4.08899042
Ni       5.56581130       9.05527386       5.90566136       0.00116543      -0.00372651       0.00079928      -5.90535474
Al       7.27116578      10.32234678       7.15124087      -0.00025712      -0.00091929      -0.00134603      -4.13588993
Ni       5.86192527       8.84001070       8.70701622       0.00112753      -0.00604341      -0.00158915      -6.16063754
Al       7.16331601      10.64794782       9.94528444       0.00045219       0.00095578      -0.00080587      -4.32657500
Al       9.51246110       0.20860222      -1.16038742      -0.00270255      -0.00248385      -0.00444781      -4.11121871
Al       9.78742749       1.51305957       1.33852438      -0.00925561      -0.00427665      -0.00195243      -4.32424417
Ni       9.17907991      -0.02118057       3.27181142       0.00190049      -0.00746876       0.00830049      -6.07518274
Al      11.04716100       0.87109306       4.87487667      -0.00160980       0.00573717       0.00263602      -4.38457115
Al       9.19344838      -1.03596753       5.48986679      -0.00139200      -0.00049524      -0.00096837      -3.68613197
Al      10.57415511       0.02568582       7.46687680       0.00591818       0.00492942       0.00194753      -4.13035260
Ni       8.34005061      -0.13984364       8.61579179       0.00746953      -0.00635459       0.00310929      -6.00490232
Al      12.23988547       0.56512172       9.58605791       0.00146423      -0.00312446       0.00055512      -4.26787896
Al       8.60211935       3.17979209      -0.34393445      -0.00479488      -0.00157551      -0.00530561      -4.06876030
Al       9.92674597       5.81181355       2.24431205      -0.00282020       0.00141033      -0.00064958      -4.32379992
Ni       8.85783153       3.62266838       2.09101312       0.00258025       0.00059565       0.00403944      -5.97185710
Al      10.56756611       4.72292401       4.90938319      -0.00352834       0.00090261      -0.00343015      -4.22474093
Ni       9.98013483       2.51703874       6.30558167       0.00634605       0.00040333      -0.00802118      -5.91608351
Al      11.12816246       4.34404571       7.40766399       0.00862791      -0.00231110      -0.00908625      -4.29018576
Al       9.67889451       2.28386821       8.78588198      -0.00226183      -0.00088745      -0.00128644      -4.17369905
Al      10.90490819       4.88486888      10.01640383      -0.00544966       0.00184913       0.00125257      -4.23787453
Ni       9.33557348       5.48961857      -0.08615325      -0.00192632       0.00043120      -0.00718645      -5.95583924
Al      10.59200050       8.91886243       1.52026819       0.00580199       0.00331376      -0.00028792      -4.28013280
Ni       9.10634622       7.78861915       3.23098110       0.00206260       0.00069584       0.00258887      -5.77565046
Al      11.47872642       7.59653767       3.62622716      -0.00230056       0.00309332      -0.00430942      -4.29939658
Ni       8.99877331       6.53239615       5.63349655       0.00426315      -0.00712934       0.00129085      -5.98296165
Al      11.45129303       7.16524174       6.26650462      -0.00280341      -0.00870965      -0.00356679      -4.27526852
Al       9.75806790       6.81407517       8.13220722       0.00273804      -0.00473624       0.00895781      -3.91950514
Al      10.26714183       7.48332720      11.00783020       0.00049120       0.00264615      -0.00364816      -4.17774683
Ni       9.02210061       9.78881198      -0.56233489      -0.00327908      -0.00134206       0.00173200      -6.15294046
Al       9.85942460      11.43337265       1.12656704      -0.00206588       0.00185046       0.00176505      -4.26394605
Al       8.36813154      10.02887270       3.10390898       0.00507433      -0.00475495      -0.00238621      -3.98033326
Al      11.29241387      10.88471753       3.54614253      -0.00399735      -0.00615113       0.00454263      -4.23976680
Al       9.23311343       8.84283221       5.48495541       0.00020880       0.00028533       0.00041134      -3.95986037
Al      11.40693906      10.10105638       6.14430075      -0.00693976      -0.00238689       0.00269598      -4.09783276
Al       9.61685730      10.17203755       8.69225120       0.00906190       0.00140120       0.00310761      -4.01902183
Al      11.27063922      10.57127022      10.76913990       0.00221285       0.00381261      -0.00339844      -4.26575580
