116
Lattice="11.319214076478339 -0.012118793896706004 -0.011361655718931747 -0.01211374247691272 11.341411660071241 0.01536830836902312 -0.011353653453922053 0.015354122459631038 11.32863547982104" Properties=species:S:1:pos:R:3:forces:R:3:energies:R:1 energy=-626.6112350335509 stress="-0.000215991436204218 0.0004936150525742079 -0.00048333827163405226 0.0004936150525742079 -0.0003524429291977909 0.0004404540113008323 -0.00048333827163405226 0.0004404540113008323 0.0006525923687357165" free_energy=-626.6112350335509 pbc="T T T"
Ni       0.03741776      -0.00686697       0.00250961      -0.00224562       0.00377278      -0.00763830      -6.12418391
Al       1.41605665       1.40528553       1.40521528       0.00432114       0.00702656      -0.00024107      -4.67282334
Ni       0.00668305       0.03883105       2.88610092      -0.00099221       0.00270250       0.00359186      -5.83944391
Ni       0.32695180       0.35324678       5.67363709       0.00644992      -0.00736772      -0.00075915      -5.77597618
Ni       0.02580246       0.03351187       8.48092109       0.00152255      -0.00399953       0.00154816      -5.82762227
Al       1.35849932       1.46390674       9.85358721      -0.00026938      -0.00265282      -0.00288352      -4.62126447
Ni       0.00821105       2.82360886      -0.00613057      -0.00204604      -0.00550226      -0.00400721      -6.10437260
Al       1.43054198       4.26973443       1.45066992      -0.00616535      -0.00458571      -0.00075072      -4.69661935
Ni       0.10902699       2.75193240       2.94437165       0.00832931      -0.00070114       0.00035264      -6.20074390
Al       1.42620783       4.32539560       4.28930976       0.00071186       0.00732343       0.00588169      -4.72330714
Ni      -0.09010945       2.94588899       5.71640650      -0.00151611       0.00114279      -0.00578980      -5.74278718
Al       1.68283208       4.09605933       6.92998571      -0.00061648       0.00176290       0.00327951      -4.68268757
Ni       0.03615531       2.91715872       8.41321018      -0.00620963       0.00032935       0.00401276      -5.54059216
Al       1.42227254       4.30104754       9.87377685      -0.00424487       0.00263142      -0.00340198      -4.75130755
Ni       0.04305931       5.68563637       0.03635279       0.00961617       0.01357993       0.00198861      -6.10260960
Ni       0.04588100       5.72357058       2.79762177      -0.00015800      -0.00272348       0.00065158      -6.11694315
Al       1.43933210       7.04917033       4.29014434       0.00449063      -0.00050263       0.00133838      -4.65531670
Ni      -0.04416129       5.61602384       5.75097345      -0.00197965      -0.00491581      -0.00123334      -6.15597739
Al       1.44569863       7.05659627       7.06450387       0.00136739       0.00361973       0.00300237      -4.67701145
Ni      -0.02027026       5.60952787       8.40714804      -0.00148655      -0.00724939       0.00244469      -6.11137519
Al       1.42051645       7.06616628       9.87336290       0.00749341      -0.00727260       0.00662103      -4.69701111
Ni       0.06821053       8.48980286       0.04921111       0.00158867      -0.00158956       0.00525141      -6.09320976
Al       1.57036708       9.98777321       1.55383277       0.00130180       0.00548946      -0.00280575      -4.69827219
Ni       0.06107412       8.46236861       2.82581064      -0.00132941       0.00817486      -0.00405988      -6.04172421
Al       1.33708860       9.90626854       4.30641714      -0.00689176       0.00316367      -0.00640824      -4.69378322
Ni      -0.01772731       8.44827341       5.68330768       0.00118231      -0.00528277       0.00109747      -6.07456542
Al       1.42369593       9.95246663       7.06798097      -0.00509956       0.00291732       0.00870610      -4.72237276
Ni      -0.01282436       8.52247980       8.46144707      -0.00009284       0.00560691       0.00001403      -6.31645862
Al       1.42826122       9.91485592       9.88794819      -0.00201196       0.00778481       0.00011140      -4.72439642
Ni       2.82238283       0.00579882      -0.07296268       0.00637460       0.00109224      -0.00301560      -6.06287930
Al       4.17826796       1.31102186       1.51853337       0.00210019      -0.00285600       0.00184939      -4.64055551
Ni       2.60256602       0.35932177       3.22331396       0.00410702       0.00103839      -0.01174460      -5.75940937
Ni       2.84312810      -0.06226856       5.68031872      -0.00390927       0.01772677       0.00903385      -5.66567992
Al       4.01391574       1.63118581       6.87074740      -0.00280573       0.00038835      -0.00930419      -4.63676829
Ni       2.84013605       0.07079590       8.45988574      -0.00509827      -0.00215695      -0.00202335      -6.14881189
Al       4.27145396       1.44688207       9.94661622       0.00676483      -0.00052027      -0.00416119      -4.71693570
Ni       2.83867583       2.84159994       0.01155532      -0.00614550       0.00041021       0.00294597      -6.36659405
Al       4.28018133       4.24411054       1.48360734      -0.00625193      -0.01116747       0.00600279      -4.67254478
Ni       2.80296750       2.85362572       2.80712371      -0.00192487      -0.00129249      -0.00780688      -5.91394549
Al       4.10111774       4.03925979       4.46766434       0.00545903      -0.00659723       0.00293989      -4.65970210
Ni       2.26199758       2.26638644       5.17028152       0.00311228      -0.01755171       0.00441781      -5.50000403
Ni       2.86525723       2.85709907       8.60133090       0.00126714      -0.00353384       0.00295797      -5.74246013
Al       4.25191853       4.29222022       9.92624790       0.00279935      -0.00033078      -0.00485685      -4.68592170
Ni       2.80499471       5.67491206       0.04937626      -0.00551021      -0.00021572       0.00380197      -6.12612393
Al       4.20403440       7.10965291       1.43552097      -0.00270821       0.00631956       0.00465842      -4.51021829
Ni       2.88321401       5.67338218       2.90471028      -0.00073547       0.00232977       0.00176913      -5.91404005
Ni       3.01094976       5.84242948       5.69631047      -0.00536694       0.00725044      -0.00402691      -5.57007472
Ni       2.92254446       5.66630905       8.39455892      -0.00306134      -0.00432912       0.00331061      -5.87251513
Al       4.22900949       7.07636236       9.95144508       0.00987637      -0.01191014      -0.00528649      -4.66912751
Ni       2.79695393       8.49738921       0.04825130       0.00375534       0.00114139       0.00055563      -5.83153235
Ni       2.80657660       8.39403205       2.88105219       0.00187874       0.00373437      -0.00669132      -5.51307671
Al       4.13164810       9.97636247       4.13835262       0.01125046      -0.00364866       0.00144197      -4.63041751
Ni       2.86432320       8.47409168       5.66177583      -0.00888507      -0.00449657       0.00224568      -5.96844260
Al       4.22763973       9.93683556       7.05345007      -0.00168724       0.00080236       0.01164726      -4.63947561
Ni       2.86368264       8.46255455       8.44797758      -0.00242321       0.00073532      -0.00130818      -6.14056218
Al       4.20903807       9.91842858       9.92951990       0.00665130      -0.00153531       0.00002316      -4.66875536
Ni       5.64043448      -0.01791452       0.02934427      -0.00026129      -0.00780800      -0.00431974      -6.10182719
Al       7.08783278       1.40774487       1.44272412       0.00374386       0.00022721       0.00044176      -4.63546794
Ni       5.66866451       0.02251260       2.86993945      -0.00391953      -0.00699261       0.00628370      -5.80087639
Al       7.10198474       1.43076462       4.24338383      -0.00011251      -0.00066975       0.00300722      -4.68863643
Ni       5.58146119       0.08991309       5.62428317       0.00361791       0.00185209      -0.00417418      -6.15446868
Al       7.09672359       1.41554627       7.07107437       0.00637443      -0.00341584      -0.00419505      -4.73829828
Ni       5.60468902       0.06881317       8.43687995      -0.00125206      -0.00004600      -0.00360872      -6.29126145
Al       7.10191007       1.45384285       9.89185525       0.00406671      -0.00155968       0.00119790      -4.68396161
Ni       5.68370320       2.84860370       0.06622441      -0.00064945      -0.00045332      -0.00036846      -6.08962000
Ni       5.60314540       2.78097480       2.89875702       0.00290708       0.00599125       0.00066912      -6.02610084
Al       7.00431871       4.28404511       4.22586752      -0.00235873      -0.00159201       0.00754844      -4.67971543
Ni       5.74370096       2.79040439       5.65671828       0.00351291       0.00805701      -0.00519037      -5.73407827
Al       6.98774318       4.27706577       7.05475688      -0.00127530       0.00146959       0.00498956      -4.55782940
Ni       5.57431965       2.82803413       8.41754841      -0.00008451       0.00322818      -0.00839413      -6.13511900
Al       7.02623903       4.25716920       9.87224639       0.00280187       0.00144058       0.00346374      -4.66465705
Ni       5.69586844       5.64021546       0.06015729      -0.00271653      -0.00779575      -0.00104252      -6.10237522
Al       7.04293742       7.06792757       1.48813920      -0.00079046       0.00169133       0.00153812      -4.65468767
Ni       5.52587771       5.71795854       2.95803182      -0.00560587       0.00033906       0.00758272      -6.00797742
Al       7.04358102       7.06855749       4.28935478      -0.00591596      -0.00213840       0.00790817      -4.70192771
Ni       5.52460612       5.69534299       5.68252160       0.00535404      -0.00264550      -0.00413221      -5.60438644
Al       7.04365980       7.09664906       7.02789478      -0.00621415       0.00374539      -0.00812821      -4.67954129
Ni       5.55376951       5.70458268       8.40625276      -0.00091113       0.00172554      -0.00662061      -5.88983438
Al       7.04946525       7.06317773       9.87539913      -0.00838521      -0.00186352       0.00342207      -4.73998509
Ni       5.66371189       8.50845358       0.02244411       0.00461985      -0.00501029       0.00086005      -6.11058206
Al       7.02013871       9.91793965       1.47496756      -0.00629186       0.00210541      -0.00622576      -4.67932884
Ni       5.56909442       8.47968048       2.87366860      -0.00177623       0.00745189       0.00112027      -5.86632422
Al       6.97561574       9.88218242       4.29607335      -0.00874181       0.00208609      -0.00215338      -4.67324695
Ni       5.47080944       8.38830898       5.63532900       0.00425732      -0.00243091      -0.00068259      -5.88962492
Al       6.99643400       9.90882733       7.03540904       0.00174063       0.00104335      -0.00328581      -4.74952080
Ni       5.59416600       8.46817241       8.45849880      -0.00648900       0.00160996      -0.00216041      -6.10700192
Al       7.00848425       9.94528217       9.87513043       0.00079086      -0.00278849       0.00810002      -4.69532843
Ni       8.50158096      -0.03587928      -0.01827626       0.00375407       0.00497410       0.00368394      -6.08233886
Al       9.90085230       1.40751961       1.40650184       0.00086986       0.00054779       0.00867796      -4.65324040
Ni       8.52463231      -0.06183506       2.89120737       0.00138086       0.00123075       0.00180302      -6.13575903
Al       9.91302740       1.39820842       4.29286348       0.00050322       0.00126506       0.00138443      -4.66243423
Ni       8.44413182      -0.03504897       5.63352274      -0.00042944       0.00141529      -0.00077575      -6.05706235
Al       9.93867572       1.45458744       7.09389685       0.00126267       0.00420166      -0.00181583      -4.55523786
Ni       8.50684589      -0.01351006       8.46728662      -0.00356060      -0.00142338       0.00052569      -6.08447145
Ni       8.46638114       2.85889795       0.02771052       0.00189011      -0.00862779       0.00753432      -6.00564682
Al       9.94369109       4.21996231       1.43271911      -0.00331556      -0.00359934      -0.00150333      -4.65118419
Ni       8.46727496       2.87234586       2.81562728      -0.00064180       0.00904404      -0.00198854      -6.10232054
Al       9.92722799       4.25699899       4.21689203       0.01205715      -0.00064702      -0.00764974      -4.68541333
Ni       8.50059614       2.89872922       5.68445697      -0.00034700       0.00076218      -0.00247233      -6.17735667
Ni       8.50144651       2.88472928       8.44735301       0.00151159      -0.00324517       0.00281558      -5.84015963
Al       9.91603951       4.21758513       9.89716272       0.00418820       0.00308913       0.00151366      -4.60132141
Ni       8.44288043       5.63447498       0.02822835      -0.00445010      -0.00276630       0.00014338      -6.09668658
Al       9.89351016       7.09290507       1.41117829      -0.00605380      -0.00517875       0.00389681      -4.61404694
Ni       8.46333005       5.63044025       2.81550368       0.00058844       0.00377991      -0.00146474      -6.09052715
Al       9.90716350       7.06640636       4.23115681      -0.00316563      -0.00100995      -0.00914955      -4.66917321
Ni       8.52171258       5.61333181       5.68579334       0.00070588       0.01014973      -0.00239466      -6.15276407
Al       9.87136202       7.08045775       7.07464136      -0.00308310      -0.00373642       0.00433665      -4.57962606
Ni       8.50257164       5.63524836       8.45072281       0.00118379       0.00519455       0.00397893      -6.11735630
Al       9.90557072       7.05910286       9.91511524      -0.00008433      -0.00024071      -0.00099954      -4.72968706
Ni       8.45576850       8.51314082      -0.00722814      -0.00509984       0.00509654      -0.00768238      -6.29260408
Al       9.95520526       9.91390946       1.47240654      -0.00271395      -0.00526498       0.00040734      -4.64881602
Ni       8.49298966       8.53113951       2.88430408      -0.00132127      -0.00096410      -0.00832371      -6.11715197
Ni       8.54165226       8.56593381       5.62711246      -0.00582881      -0.00508713      -0.00174037      -6.10348689
Al       9.99587318      10.03443485       6.94091038       0.01071586      -0.00363484       0.00276102      -4.64212977
Ni       8.49250953       8.54309688       8.48256416       0.00075952       0.00020816       0.00082736      -6.28618583
Al       9.93642043       9.94626923       9.91602022       0.00478499       0.00410323       0.00092902      -4.63212207
