128
Lattice="11.678352105098824 0.0008961644278837273 -0.002225136099107949 0.000895854092431808 11.668763294303812 -0.0005238693923645706 -0.002225020403263145 -0.0005240193554091193 11.67247335912303" Properties=species:S:1:pos:R:3:forces:R:3:energies:R:1 energy=-664.624303862628 stress="-0.0009544677373076933 3.917378368640285e-06 0.00020503114252858997 3.917378368640285e-06 0.0010140126023089513 -4.195913657489064e-05 0.00020503114252858997 -4.195913657489064e-05 0.000207683272247852" free_energy=-664.624303862628 pbc="T T T"
Ni      -0.00097160       0.00825552      -0.00100166      -0.00216743      -0.00908551      -0.00031572      -6.17957243
Al       1.42202922       1.45733687       1.46253948       0.00871062      -0.00207989       0.00133920      -4.51427984
Ni      -0.02173580      -0.11008645       2.88254073      -0.00172159       0.00241657       0.00124563      -6.27271820
Al       1.36558675       1.37400383       4.28612326       0.00475706      -0.00565273      -0.00614959      -4.48794664
Ni      -0.01141508       0.00897777       5.82707580       0.00041661       0.00376951       0.00096615      -6.18601843
Al       1.32612689       1.37167466       7.40896110       0.00344608       0.00116364      -0.00337875      -4.47652194
Ni      -0.02542698      -0.12353102       8.80127809       0.00016401      -0.00102099       0.00068241      -6.29677613
Al       1.44276317       1.45904725      10.20368735       0.00327776      -0.00094056       0.00226770      -4.52978748
Ni       0.01186743       2.95508813      -0.00226418      -0.00205213      -0.00145198      -0.00648830      -6.26155647
Al       1.51726894       4.29305963       1.52839397       0.00857953       0.00055130       0.00177554      -4.44284182
Ni      -0.01153974       2.92256655       2.92696509       0.00184795       0.00383312       0.00085725      -6.17530100
Al       1.38822236       4.45586970       4.30454417       0.00109809       0.00357938      -0.00588973      -4.48110324
Ni       0.07550182       2.90298002       5.81415381      -0.00207056       0.00167423       0.00187674      -6.28810325
Al       1.35446585       4.47660237       7.37961543       0.00377361       0.00235990      -0.00105589      -4.47278435
Ni      -0.00720355       2.93645007       8.77811228       0.00028752       0.00693495       0.00157881      -6.16232335
Al       1.54358699       4.30196009      10.14162170       0.00852829       0.00470739       0.00257647      -4.45769911
Al       0.02150022       5.80137408       0.01421344      -0.00109380       0.00950308      -0.00412453      -3.65037627
Al       1.60419851       7.30568040       1.45833292       0.00765713       0.00208375      -0.00233786      -4.38611009
Ni      -0.01898314       5.90654391       2.84834769       0.00391784      -0.00024884       0.00352227      -6.31928776
Al       1.53089291       7.23608103       4.42574491       0.00358562      -0.00132012       0.00513790      -4.46200117
Ni       0.00789051       5.83082280       5.78875924      -0.00008536       0.00367863       0.00249473      -6.15332880
Al       1.49850558       7.23861220       7.24536964      -0.00307273      -0.00069011      -0.00485796      -4.45545918
Ni      -0.05381935       5.88328892       8.85146214       0.00302990       0.00089488      -0.00345910      -6.39281336
Al       1.60809664       7.26747213      10.20695083       0.01040176       0.00105679      -0.00109498      -4.38088592
Ni       0.02991163       8.73651061      -0.00476655      -0.00046280      -0.00433772      -0.00581899      -6.37602796
Al       1.52856740      10.26845402       1.38235562       0.00450583      -0.00094325      -0.00559060      -4.46796202
Al      -0.00737937       8.77694752       2.93061249       0.00130228      -0.00314357      -0.00218436      -3.69183255
Al       1.52699471      10.27386687       4.45584320       0.00350363       0.00320538       0.00580331      -4.48046149
Ni       0.02672366       8.75719142       5.77326303      -0.00255848      -0.00763847       0.00290800      -6.33166897
Al       1.51559888      10.27054893       7.21104792      -0.00275820      -0.00383870      -0.00220239      -4.47910640
Al       0.03860137       8.80610509       8.79543987      -0.00159810      -0.00687010       0.00454906      -3.64437435
Al       1.55824268      10.30052472      10.28823553       0.00640691       0.00195354       0.00070134      -4.46846363
Ni       2.94648955       0.07879885       0.00540544       0.00189506      -0.00070137       0.00127832      -6.18545694
Al       4.22583677       1.45578524       1.54148806      -0.00477256       0.00228090       0.00270739      -4.39096203
Ni       2.90810380      -0.03920990       2.93592279       0.00243641       0.00462257      -0.00583558      -6.24828247
Al       4.37530967       1.45122011       4.36209777       0.00355344      -0.00762790      -0.00429452      -4.31728004
Ni       2.92150729       0.11599960       5.86351144      -0.00348850       0.00640301       0.00602023      -6.28494891
Al       4.48421292       1.39075850       7.34385476       0.00441165      -0.00149856       0.00148914      -4.48857732
Ni       2.90566167      -0.01778265       8.70308756       0.00118869       0.00482376      -0.00284984      -6.18912976
Al       4.29571561       1.38372767      10.09882247      -0.00337448      -0.00367623      -0.00190141      -4.46462653
Ni       2.94772487       2.89668842      -0.03209347       0.00099522       0.00157276       0.00466071      -6.25642427
Al       4.26720201       4.35337432       1.49001494      -0.00920010      -0.00400165       0.00582095      -4.39101922
Ni       2.86840390       2.90605093       3.00670084      -0.00142957      -0.00143196      -0.00423596      -6.24688119
Al       4.36600497       4.35861850       4.38451996      -0.00159363      -0.00104826      -0.00615725      -4.30661654
Al       2.81897301       2.88670455       5.91711560      -0.00903536      -0.00146566       0.00873489      -3.76415188
Al       4.46931004       4.43564562       7.33932252      -0.00027572      -0.00122306       0.00195874      -4.48200619
Ni       2.92696661       2.90998250       8.64419904      -0.00854816       0.00123176       0.00124060      -6.27940112
Al       4.33827007       4.43751846      10.13805483      -0.00652297       0.00395174      -0.00498571      -4.46030107
Ni       2.93208003       5.78251849       0.00373637       0.00310249      -0.00225988       0.00424217      -6.24834138
Al       4.35251062       7.35871208       1.39871413      -0.00558281       0.00108628       0.00095481      -4.44502609
Ni       2.95942671       5.85194716       2.93042445      -0.00103727      -0.00248062      -0.00774334      -6.24092859
Al       4.32473997       7.34750111       4.43185137      -0.00546205       0.00296222       0.00320805      -4.46971113
Ni       2.93734506       5.77645381       5.86340419      -0.00466417      -0.00022428       0.00175046      -6.26302861
Al       4.39511785       7.29774791       7.30321593       0.00022132       0.00078273      -0.00205963      -4.53426160
Ni       2.93867888       5.83908526       8.70642858       0.00302973       0.00005146      -0.00079672      -6.16290656
Al       4.40161930       7.28336239      10.19496449      -0.00324343      -0.00142020       0.00172099      -4.51748147
Ni       2.93838051       8.75163285      -0.05277252      -0.00439228       0.00088904       0.00066105      -6.17784042
Al       4.31451140      10.17074070       1.38857634      -0.00811895       0.00647132       0.00151134      -4.46475042
Ni       2.90389955       8.78247791       2.93867792       0.00248701      -0.00029603      -0.00067776      -6.25394602
Al       4.29541852      10.18390810       4.45373473      -0.00726642       0.00343041       0.00532737      -4.47849845
Ni       2.90698545       8.73050730       5.88001755      -0.00242984      -0.00083621      -0.00076163      -6.17742499
Al       4.38778239      10.22084066       7.29278470      -0.00098571       0.00184331      -0.00379865      -4.54948191
Ni       2.88652420       8.77170080       8.72600159      -0.00206939      -0.00571128       0.00327840      -6.27964954
Al       4.38125426      10.23423617      10.20255434      -0.00625049       0.00237813       0.00223820      -4.54602194
Ni       5.82793926       0.09117124       0.05299979       0.00308057      -0.00359073      -0.00424863      -6.34892454
Al       7.45325414       1.47974403       1.48664814      -0.00111129       0.00705409       0.00326357      -4.39758077
Al       5.89891728      -0.06748593       2.90981756      -0.00280267      -0.00183926       0.00342302      -3.64021356
Al       7.36020033       1.51456215       4.43648722       0.00023357       0.00740591       0.00722669      -4.47887461
Ni       5.85105439      -0.00217647       5.78028338      -0.00282951       0.01171960      -0.00674416      -6.28176299
Al       7.27877998       1.45654081       7.29620283       0.00102466       0.00335957      -0.00280978      -4.54267201
Ni       5.87171796      -0.04090297       8.76413796      -0.00130277       0.00712859       0.00139784      -6.18511338
Al       7.36470504       1.40581928      10.12351878       0.00672746       0.00106733      -0.00211353      -4.48093895
Al       5.77272394       2.82807176       0.00108147       0.00310888      -0.00302825       0.00002444      -3.65660145
Al       7.41529895       4.31616785       1.44312654       0.00860911      -0.00494264       0.00229061      -4.39739709
Ni       5.85213325       2.92220260       2.90429132      -0.00185720       0.00056829       0.00783869      -6.38223037
Al       7.37380883       4.30768919       4.44801227       0.00308772      -0.01050180       0.00364069      -4.46244941
Ni       5.79338512       2.88977278       5.79526008      -0.00193124      -0.00428043      -0.00822468      -6.22996446
Al       7.20901835       4.27265590       7.22433165      -0.00233293      -0.00444562      -0.00533735      -4.47693629
Ni       5.83084890       2.91105599       8.80613105       0.00003775       0.00294238       0.00208592      -6.26807552
Al       7.29582484       4.35290612      10.21772229       0.00073257       0.00024249       0.00283897      -4.29869193
Ni       5.84257201       5.79393034       0.05340640       0.00150877      -0.00182499      -0.00004284      -6.29815765
Al       7.32946386       7.38441132       1.38531199       0.00631612       0.00568994      -0.00514554      -4.42801535
Al       5.89600056       5.85687841       2.91056614      -0.00501792      -0.00416275       0.00065434      -3.63726246
Al       7.36079245       7.37695386       4.44736922       0.00451111      -0.00128178       0.00632171      -4.45972297
Ni       5.84716409       5.83014434       5.77091889       0.00325080      -0.00258170      -0.00018185      -6.26103754
Al       7.18353283       7.39589707       7.21854749      -0.00013424       0.00027890      -0.00509962      -4.46719007
Ni       5.91572946       5.85539848       8.76619038      -0.00178274      -0.00289164      -0.00499440      -6.26115305
Al       7.22315554       7.35645537      10.26922419       0.00040048       0.00524256       0.00878986      -4.45683941
Ni       5.80336634       8.78480968      -0.01973302       0.00260949      -0.00393892       0.00840594      -6.17701799
Al       7.36048340      10.16016071       1.35807218       0.00965343      -0.00640776      -0.00659424      -4.44453810
Ni       5.83770843       8.79903487       2.92560750       0.00512132       0.00517570       0.00033370      -6.32156448
Al       7.37985649      10.14092473       4.48562386       0.00653556       0.00274556       0.00568469      -4.47965534
Ni       5.77682551       8.78999228       5.81086611       0.00154270      -0.00346368      -0.00818751      -6.18459587
Al       7.28740906      10.21018958       7.28982082      -0.00084760      -0.00184924      -0.00605939      -4.55080865
Ni       5.82523022       8.77977009       8.77253054       0.00341167      -0.00451319      -0.00210129      -6.18829289
Al       7.29253519      10.22214994      10.20753684       0.00338987      -0.00326558       0.00475349      -4.53948325
Ni       8.74166833       0.06065148      -0.01981722      -0.00454805       0.00511041       0.00672541      -6.18984273
Al      10.25014749       1.45265831       1.46982982      -0.00600546       0.00141224      -0.00064949      -4.52784275
Ni       8.72211267      -0.03319473       2.94186954       0.00159570      -0.00210942      -0.00714192      -6.27539441
Al      10.23203689       1.44631707       4.37296392      -0.00120411       0.00183184       0.00138211      -4.54328965
Ni       8.74023281       0.05492032       5.86819903       0.00460530       0.00250518      -0.00533033      -6.20308637
Al      10.23928990       1.45112948       7.31423019      -0.00007464       0.00106741       0.00183266      -4.54356865
Ni       8.75599802      -0.01346430       8.71654565       0.00268842      -0.00378151       0.00290249      -6.19293454
Al      10.23971888       1.44161451      10.18561176      -0.00534670       0.00024108       0.00205911      -4.53726958
Ni       8.79011421       2.88254370      -0.04328097      -0.00441557       0.00176775       0.00666404      -6.24220956
Al      10.16683185       4.30845339       1.52796853      -0.00595131      -0.00057156      -0.00198790      -4.44008580
Ni       8.79953456       2.90955364       2.98110426      -0.00175200      -0.00033693      -0.00514337      -6.18019825
Al      10.21830505       4.38901735       4.38147243       0.00079753      -0.00161077      -0.00035715      -4.51452544
Ni       8.80316748       2.89685258       5.87182422      -0.00503061       0.00330975      -0.00449355      -6.18679151
Al      10.30208640       4.31419056       7.22387532       0.00052097       0.00358350       0.00076410      -4.46378255
Ni       8.75876255       2.92970870       8.70377017       0.00931129       0.00883744       0.00154804      -6.26189686
Al      10.18851827       4.27108352      10.19112683      -0.00010367       0.00007236       0.00737941      -4.39705487
Ni       8.73734571       5.80109929      -0.00757256      -0.00750595      -0.00076402       0.00907619      -6.28975102
Al      10.07721879       7.29698279       1.45548210      -0.00843019       0.00454702      -0.00356375      -4.37768406
Ni       8.68028559       5.83924095       2.91498712       0.00285307       0.00246279      -0.00692064      -6.25156595
Al      10.14285806       7.21191880       4.40984850      -0.00458344       0.00068251       0.00362984      -4.45515964
Ni       8.72915370       5.82221650       5.92610355       0.00184957      -0.00300639      -0.00312199      -6.28258317
Al      10.29718041       7.30393894       7.18357630       0.00049436      -0.00087176      -0.00194416      -4.38138731
Al       8.72432450       5.86674495       8.65726692       0.00410181      -0.00653174      -0.00677425      -3.67683318
Al      10.13729263       7.35136393      10.28156614      -0.00830063       0.00028249      -0.00212728      -4.33708204
Ni       8.75134661       8.77276281      -0.04203875       0.00008052      -0.01144654       0.00017370      -6.16413648
Al      10.14888182      10.27126651       1.37727911      -0.00490977      -0.00513113      -0.00676887      -4.46558430
Ni       8.78042851       8.78502615       2.92771275      -0.00226028      -0.00131643       0.00072324      -6.25318530
Al      10.15141153      10.27902494       4.45406272      -0.00078081      -0.00059665       0.00479301      -4.47583704
Ni       8.81466200       8.72736426       5.89204619      -0.00294078      -0.00421525       0.00493343      -6.17444727
Al      10.17329540      10.26901495       7.23482211       0.00474587      -0.00427479      -0.00007651      -4.47638180
Ni       8.77222749       8.72057516       8.71979520      -0.00089066      -0.00033712      -0.00157047      -6.32902499
Al      10.12877349      10.27857969      10.27252401      -0.00468725       0.00439550       0.00425592      -4.45926619
