250
Lattice="15.395196944269388 -0.11392615457593393 0.007995078221045756 -0.11811246376405288 16.36448552842996 -0.21891908619859438 0.012678366132717675 -0.21611784823985544 16.59819236510682" Properties=species:S:1:pos:R:3:forces:R:3:energies:R:1 rep=5 n_sites=250 energy=-948.0772705078125 stress="-0.00012791037443093956 -6.484208279289305e-05 0.0001817167503759265 -6.484208279289305e-05 0.00023650757793802768 -2.0172928998363204e-05 0.0001817167503759265 -2.0172928998363204e-05 -0.0003440267755649984" free_energy=-948.0772705078125 pbc="T T T"
Al       0.10564542       0.52258462      -0.19355955       0.00278424      -0.00117680      -0.00107383      -3.73557901
Al       1.80951873       1.87475290       1.84156998      -0.00670292      -0.00296473      -0.00025379      -3.73708177
Al      -0.38773983       0.44878017       2.63249790       0.00591324       0.00427481      -0.00353553      -3.65550494
Al       1.07533795       1.62113044       4.63769133       0.00240147      -0.00251496       0.00127701      -3.73236680
Al      -0.20950594      -0.08077739       6.55279874      -0.00024267      -0.00032007      -0.00353121      -3.69754851
Al       1.56788223       1.29428136       8.76001395       0.00037948       0.00772855       0.00290927      -3.84379244
Al       0.06006388      -0.65917039      10.51441167       0.00060094      -0.00376303       0.00508562      -3.71918893
Al       1.40197839       1.50311039      11.61122038      -0.00052500      -0.00368315      -0.00184672      -3.89280415
Al       0.04949716      -0.19863166      13.45874677      -0.00240585       0.00162585       0.00059628      -3.71131468
Al       1.36894588       2.02639293      14.48710967      -0.00324203      -0.00102420      -0.00042071      -3.73460019
Al       0.25701220       3.50248259       0.13331286       0.00541786       0.00229531      -0.00389277      -3.71899509
Al       1.86916670       4.71613139       2.15743807       0.00312698      -0.00048273      -0.00357818      -3.73989391
Al      -0.39054501       3.37203175       3.01156724       0.00032452       0.00017912       0.00131812      -3.87779218
Al       1.21286409       4.48004100       5.11286256       0.00070124       0.00492354       0.00294656      -3.70068276
Al      -0.20630826       2.67569085       6.92483997       0.00356650       0.00471062      -0.00052337      -3.70073342
Al       1.46356310       4.60272253       8.17906194      -0.00400389      -0.00050934       0.00299078      -3.85052097
Al      -0.14514921       3.17356408       9.96594430       0.00292307      -0.00041432      -0.00168959      -3.88738281
Al       1.26164400       5.43670751      10.91251950       0.00515382      -0.00078061      -0.00161315      -3.95739061
Al      -0.20153867       3.71351884      12.89576596      -0.00181961       0.00328789       0.00517851      -3.70739722
Al       1.54501621       4.94354955      14.84021364       0.00311042      -0.00078371       0.00041350      -3.74326646
Al       0.29897314       6.37585258       0.47778993       0.00080082       0.00376965       0.00080792      -3.73932910
Al       1.94845878       7.57329853       2.30056121      -0.00509805      -0.00711051       0.01536810      -3.64435709
Al      -0.21962588       6.25289611       3.42856064       0.00251541      -0.00374946      -0.00226733      -3.69395888
Al       1.28044084       8.25940952       4.81946088       0.00124486      -0.00492381      -0.01367250      -3.67793941
Al      -0.23953190       6.45745749       6.39781597      -0.00340084      -0.00583015      -0.00140935      -3.72020447
Al       1.09092747       8.69199292       7.47962651      -0.00603139       0.00905584       0.00892212      -3.67006373
Al      -0.21142980       6.99433991       9.18600964       0.00197846       0.00123113       0.00273845      -3.74509215
Al       1.39387968       8.27831295      11.20080621       0.00045437      -0.00069827      -0.00499330      -3.72422385
Al       0.05198444       6.56997939      13.11948393       0.00178267       0.00117203       0.00247180      -3.75886369
Al       1.68343133       7.74459734      15.10331960       0.00148038      -0.00077135       0.00281432      -3.74141467
Al       0.33821201       9.23364651       0.61541417       0.00181403       0.00307717       0.00710506      -3.66042173
Al       1.96889022      11.16001363       1.78308343       0.00448908      -0.00018888      -0.00061522      -3.68628871
Al      -0.24164476       9.88108926       3.15242396       0.00404932      -0.00231534      -0.00952641      -3.64261627
Al       1.82884549      11.25629080       4.60538320       0.00230047       0.00342096       0.00185099      -3.69747353
Al      -0.45429768      10.37828569       5.80272037       0.00141759      -0.00124647       0.00502010      -3.68423712
Al       1.34241054      11.60818340       7.57944411      -0.00005104       0.00628732      -0.00031448      -3.74430215
Al      -0.16150974       9.95430640       9.51337252       0.00293275      -0.00280472      -0.00121517      -3.70727921
Al       1.51367085      11.10014208      11.48072051      -0.00261147       0.00262197       0.00223528      -3.73230898
Al       0.12509711       9.38823598      13.38351919       0.00058863       0.00078839       0.00320840      -3.72823679
Al       1.79327474      10.54185803      15.40832598       0.00229024      -0.00202635       0.00446459      -3.74240577
Al       0.39958662      12.81371769       0.02980793       0.00365610      -0.00354310       0.00126878      -3.69943011
Al       1.56230259      15.19080959       1.24912889      -0.00022075      -0.00095062      -0.00093868      -3.73576653
Al       0.27511960      12.95629542       2.89989504      -0.00075374      -0.00712831       0.00051994      -3.68995953
Al       1.03549335      15.19974226       4.13696452      -0.00128127       0.00748211       0.00697987      -3.65513825
Al      -0.22082543      13.27581649       5.90415113      -0.00194206       0.00474825       0.00020695      -3.73398590
Al       1.25567915      14.62761047       8.05071858       0.00131568       0.00427935      -0.00156745      -3.69831336
Al      -0.05145001      12.80734806       9.81936708      -0.00011446       0.00021854       0.00227270      -3.72654963
Al       1.47334108      13.98276396      11.96621712       0.00107388      -0.00397638      -0.00134857      -3.74056578
Al       0.20591978      12.20960210      13.72029897      -0.00222848      -0.00393153       0.00090652      -3.74994683
Al       1.55225782      14.47774240      14.86919547      -0.00093419      -0.00211541      -0.00100540      -3.71177185
Al       2.91140171       0.58575450      -0.46606308      -0.00039440       0.00195296      -0.00170504      -3.73010540
Al       4.56280691       1.82260133       1.59124029       0.00471244       0.00394309      -0.00014288      -3.73284614
Al       3.37458007       0.19321268       3.51841470      -0.00333739      -0.00089487       0.00025612      -3.72564244
Al       4.99979047       1.37126745       5.56991383      -0.00041476       0.00026451      -0.00339038      -3.74252570
Al       2.67946590      -0.05898105       6.38676428      -0.00021939      -0.00185775      -0.00672881      -3.73715484
Al       4.36392539       0.92879524       8.35505699       0.00043079       0.00612344       0.00067658      -3.63936031
Al       2.96873208      -0.64788876      10.36424433       0.00093219      -0.00227441      -0.00215700      -3.69605219
Al       4.26768659       1.87936103      11.14001988       0.00053808       0.00110005      -0.00274941      -3.82552934
Al       2.93532444      -0.16964314      13.20490075       0.00566849      -0.00102800       0.00306710      -3.70183253
Al       4.18099183       2.06936653      14.19713927       0.00222906      -0.00341807       0.00030322      -3.65526283
Al       3.11062347       3.48524448      -0.13238800       0.00230416       0.00210381      -0.00071762      -3.74028456
Al       4.77420911       4.62308386       1.87532887       0.00056649      -0.00734553      -0.00279480      -3.75584340
Al       3.43843137       3.10684979       3.91442704       0.00157117       0.00214620       0.00182572      -3.73490131
Al       5.01834212       4.58851950       6.15584903      -0.00253417       0.00158316      -0.00215592      -3.85684627
Al       2.75556793       2.70359733       6.53933355       0.00049760       0.00062909      -0.00022126      -3.62521601
Al       4.18232176       3.62394362       8.63169982       0.00009257       0.00096773      -0.00797091      -3.71865773
Ni       2.35676584       3.35540900      10.27188359      -0.00015202       0.00202495      -0.00198965      -6.02829885
Al       4.09494947       5.12998270      10.85287057      -0.00124942       0.00480829       0.00310078      -4.06955403
Al       2.65825744       3.73590791      12.68077924       0.00120148       0.00746860       0.00524965      -3.86773503
Al       4.55616440       4.89392141      14.43009299      -0.00030326      -0.00497822      -0.00103161      -3.70287871
Al       3.26684999       6.27800354       0.14807998       0.00240834       0.00119443       0.00218212      -3.75034595
Al       4.87555272       7.42752272       2.28232887       0.00270692       0.00122623      -0.00041475      -3.72488070
Al       3.43453361       5.93019303       4.05383410       0.00007072       0.00038281       0.00379827      -3.64747894
Al       5.10286372       7.70669729       5.52756222       0.00316876       0.00230725       0.00157739      -3.82927704
Al       2.69895267       6.53326633       6.55509806       0.00117223      -0.00339356      -0.01343480      -3.58159161
Al       5.28835969       6.62201024       8.26919521      -0.00254157       0.00337982      -0.00034878      -4.00382555
Al       2.65437804       7.09630133       9.12512372       0.00106643       0.00364753       0.01214802      -3.60103965
Al       4.61540488       8.00197104      10.80462448      -0.00107218       0.00131060      -0.00013436      -3.79097450
Al       2.95226914       6.62548120      12.90235932      -0.00068558      -0.00321355       0.00129925      -3.69994283
Al       4.57253446       7.77433486      14.88789137       0.00166205      -0.00134867       0.00270991      -3.74241185
Al       3.33096795       9.11745716       0.54156968       0.00870862       0.00545741      -0.00810573      -3.73533559
Al       4.72028527      11.39936611       1.69135077      -0.00045316       0.00018184       0.00150105      -3.70589054
Al       3.55128336       9.47092014       3.52183364       0.00397057      -0.00251789       0.00484128      -3.67613208
Al       4.70001203      11.92335461       4.58347376      -0.00064369       0.00112153       0.00020648      -3.72568107
Al       3.37615488       9.56249796       6.31655650       0.00331674       0.00401276       0.00347709      -3.62661445
Al       4.18646421      11.80169297       7.51221530      -0.00520450      -0.00639121      -0.00051940      -3.64917088
Al       2.88375435       9.89596837       9.27680018      -0.00601013      -0.00104612      -0.00322192      -3.70442712
Al       4.38918379      11.12594117      11.30984957      -0.00386956      -0.00144956       0.00174013      -3.70054889
Al       3.07320879       9.40967078      13.13272866      -0.00098773      -0.00261272       0.00112237      -3.72740781
Al       4.61950473      10.63864913      15.32418652      -0.00386408      -0.00264723       0.00431839      -3.75008786
Al       3.15341057      13.02894219      -0.03371844      -0.00111308      -0.00485914       0.00695751      -3.70363438
Al       4.45958057      15.29770265       0.98179239       0.00242621      -0.00331082       0.00469214      -3.72809505
Al       3.14116422      13.56896576       2.93444582       0.00348200      -0.00386367      -0.00136050      -3.72108078
Al       4.83452673      14.87929456       4.95055567      -0.00035541       0.00195631      -0.00194719      -3.73049200
Al       2.60690487      13.51945916       5.82778211      -0.00425479      -0.00265214      -0.00198323      -3.66777229
Al       4.17128724      14.57371919       7.85131558      -0.00151763       0.00161036       0.00229440      -3.74455369
Al       2.81459771      12.87279100       9.70931310      -0.00126369       0.00391125       0.00081504      -3.72584391
Al       4.38030790      14.03614378      11.79769578      -0.00138416      -0.00097542      -0.00255217      -3.73621976
Al       3.05320504      12.27507281      13.60995956      -0.00167897      -0.00026049      -0.00083434      -3.74252057
Al       4.36480397      14.50035271      14.64316315      -0.00119318       0.00086220      -0.00137335      -3.72081757
Al       5.60472378       0.64034797      -0.70974507       0.00116654      -0.00381566      -0.00226707      -3.63451540
Al       7.26489141       2.00132623       1.41787603      -0.00260493       0.00107898       0.00057140      -3.93787825
Al       6.18115594       0.15610435       3.25878633       0.00124774       0.00011151      -0.00486900      -3.71637225
Al       7.81786248       1.32348276       5.29521655      -0.00139153      -0.00264931       0.00284931      -3.75339067
Al       6.55287535      -0.33744051       7.20961833       0.00211967      -0.00026493      -0.00298888      -3.74470878
Al       8.12379737       0.85867768       9.13040568      -0.00065455      -0.00539746       0.00203003      -3.65343177
Al       5.86668699      -0.49514170      10.21175868       0.00361068      -0.00176556       0.00143743      -3.67401946
Al       8.00246294       1.04253154      11.79285059       0.00133548       0.00037684      -0.00884750      -3.65906727
Al       5.75276494       0.04360954      13.03472451      -0.00112302      -0.00378389       0.00039503      -3.70687413
Al       7.98454959       0.99072656      14.81305626       0.00276458      -0.00521875       0.00045148      -3.85388583
Al       6.00285139       3.48498321      -0.51310549       0.00169725      -0.00175451      -0.00264822      -3.70657313
Al       7.61509673       4.73681300       1.72401087       0.00006245      -0.00230895       0.00638883      -3.71949863
Al       6.20364426       3.03592794       3.72102158       0.00267396       0.00334098      -0.00224668      -3.73528051
Al       7.84640080       4.15365930       5.79323553      -0.00408684       0.00351101      -0.00267996      -3.93106276
Al       6.56747772       2.50839978       7.64214339      -0.00105763       0.00296624      -0.00341042      -3.64933527
Al       7.66191957       5.14184850       8.50538647      -0.00089434      -0.00146109       0.00130802      -4.05354577
Al       6.55723101       3.38667870      10.38620760       0.00423425      -0.00056869      -0.00212456      -3.73358035
Al       8.32077793       5.21879788      11.52383309       0.00366524      -0.00336796       0.00294818      -4.08833462
Al       6.52586391       2.88219844      13.14072708      -0.00360649      -0.00081117      -0.00136497      -3.57590485
Al       7.62153939       5.02870850      14.44879512       0.00548467       0.00108583      -0.00194374      -3.81565106
Al       6.09365738       6.31622191       0.00831435       0.00012988       0.00122934      -0.00271532      -3.72427142
Al       7.68697577       7.53034979       2.14045808       0.00647513      -0.00037884      -0.00260451      -3.76291561
Al       6.39745246       5.80227147       3.99108296       0.00047493      -0.00371990      -0.00063160      -3.91662723
Al       7.85008347       8.05584504       4.98195335       0.00212051      -0.00258122       0.00137025      -3.92339677
Ni       6.89653519       6.31785140       6.42561938       0.00175788       0.00245433       0.00256079      -6.02012682
Al       7.68465036       8.34653133       7.78249041       0.00090020       0.00158301      -0.00135164      -3.82090521
Ni       6.25906454       5.90190057      10.39376761      -0.00831512      -0.00005399      -0.00298728      -5.76141703
Al       7.49093582       7.98365944      10.84205463       0.00156530       0.00910339       0.00079571      -4.01182562
Al       6.03706895       6.51059989      12.74442576       0.00203976       0.00491504      -0.00411618      -4.00152349
Al       7.37048123       7.90920199      14.90630612       0.00287898      -0.00203808      -0.00280142      -3.94733858
Al       6.12431356       9.21602034       0.49615234       0.00012306      -0.00286392       0.00185350      -3.76881456
Al       7.53241415      11.44085304       1.47639594       0.00164814      -0.00339471      -0.00261003      -3.72834587
Al       6.26812795       9.69849146       3.39124912       0.00208506       0.00133645      -0.00054424      -3.70405817
Al       7.61071390      11.98969128       4.30847691       0.00170400       0.00109520       0.00268015      -3.74102998
Al       6.24843248      10.30166389       6.23725882      -0.00029022      -0.00061462      -0.00018500      -3.65474796
Al       7.88561700      11.44262870       8.25919244      -0.00514013      -0.00003158       0.00093309      -3.71513057
Al       5.70237287       9.89423890       9.05640790      -0.01040388      -0.00094541      -0.00533699      -3.59007776
Al       7.21712947      11.13347722      11.11686685      -0.00557946      -0.00363560      -0.00099534      -3.69173801
Al       5.84929982       9.48167175      13.00975167      -0.00352499      -0.00029959       0.00096879      -3.66925526
Al       7.44165139      10.72393513      15.18259450       0.00270225      -0.00030045      -0.00186945      -3.73487341
Al       5.98376655      13.11863749      -0.24403802       0.00138093      -0.00223103       0.00192679      -3.72112751
Al       7.39301604      15.47811216       0.55826418      -0.00086579       0.00237992      -0.00199056      -3.92814285
Al       6.08424075      13.69520841       2.60923197      -0.00434431       0.00161926      -0.00344883      -3.72022104
Al       7.69459245      14.86558698       4.65775324       0.00053340       0.00072860       0.00081141      -3.73111832
Al       6.39238204      13.19219337       6.59309555       0.00533723      -0.00584402       0.00161639      -3.73652339
Al       7.93716984      14.33946907       8.62845634       0.00000287       0.00108570       0.00129627      -3.72546184
Al       5.71981835      12.90545524       9.53025195      -0.00024294       0.00059962       0.00174033      -3.72626972
Al       7.27861249      14.14356557      11.58191928       0.00033027      -0.00156312       0.00122528      -3.71371579
Al       5.91143167      12.31610337      13.42574876      -0.00083245      -0.00200701      -0.00553307      -3.73097456
Al       7.15685897      14.58423512      14.40922322      -0.00392241      -0.00172475      -0.00017761      -3.65052497
Ni       9.10921173       0.98097748       0.41803393      -0.00172346       0.00242434      -0.00398587      -5.79380715
Al      10.80580156       2.03612358       1.73441088       0.00340427      -0.00108011      -0.00147074      -4.01933676
Al       9.03353802       0.24760752       2.91805444       0.00275662       0.00192155      -0.00030795      -3.89270520
Al      10.71237630       1.34010934       4.86012838       0.00422495      -0.00178274       0.00141391      -3.69166362
Al       9.45547747      -0.31794075       6.90427563       0.00001141       0.00290832      -0.00186406      -3.74163842
Al      11.02016448       0.82663234       8.97984471      -0.00509208      -0.00446025      -0.00186298      -3.75243950
Al       9.71022732      -0.90639526      10.68881335      -0.00346855       0.00033791      -0.00324110      -3.70458543
Al      11.03490372       1.25734234      11.89937439      -0.00283543       0.00635061       0.00143208      -3.69858968
Al       9.49308172      -0.75403739      13.32714989      -0.00169182      -0.00000677       0.00006222      -3.65032303
Al      10.76596785       1.00484801      15.18910471      -0.00269525      -0.00199340      -0.00241992      -3.83300853
Al       9.04438405       3.40327386      -0.33422755       0.00142901      -0.00460500       0.00080806      -3.86278600
Al      10.64206755       4.74337054       1.67471124       0.00282413      -0.00414100      -0.00381503      -3.82539177
Al       8.96721402       3.12719886       3.52101867      -0.00066991       0.00220243      -0.00191378      -3.64948106
Al      10.84403134       4.10548021       5.31885723       0.00092832       0.00240745      -0.00031097      -3.80490220
Al       9.44592392       2.50459033       7.32171453       0.00566947       0.00123590      -0.00274345      -3.69706929
Al      10.87810272       4.64327980       8.29849793      -0.00130465      -0.00281366      -0.00254375      -3.70987678
Al       9.48747683       3.02085366      10.24110555      -0.00327415      -0.00069446      -0.00153454      -3.68182755
Al      11.06264405       5.16233675      11.11607412      -0.00237812       0.00552124      -0.00069542      -3.68252850
Al       9.40571505       2.92637906      13.31781312      -0.00299157      -0.00234023       0.00362623      -3.63856900
Al      10.26557943       5.39512592      13.89279619      -0.00400412       0.00286600       0.00088048      -3.82631445
Al       9.05434854       6.34047461      -0.01192366       0.00151705      -0.00202061      -0.00842120      -3.69636977
Al      10.60776699       7.58647011       1.96079315      -0.00049038       0.00330905      -0.00379691      -3.73819888
Al       9.27097097       5.89594974       3.76179370       0.00045410      -0.00041186       0.00314042      -3.70670474
Al      10.70545235       8.06400878       4.81670538       0.00114935       0.00071704      -0.00043627      -3.73992991
Al       9.39815037       6.32271531       6.61916793       0.00077176       0.00527200      -0.00082824      -3.91332847
Al      10.74788695       8.61224904       7.61455298      -0.00102436      -0.00656615      -0.00148499      -3.73106372
Al       9.63951926       6.89566920       9.38825913       0.00232700       0.00267417      -0.00413254      -3.62084866
Al      10.68733922       7.90837833      11.77866726       0.00148715       0.00118596      -0.00019337      -3.86096549
Ni       8.61155424       7.08070971      13.07680008       0.00357221      -0.00527626       0.00024885      -6.03319836
Al      10.27908321       8.02104959      14.65325088      -0.00392035       0.00086953      -0.00350963      -3.87398678
Al       8.98980463       9.24641078       0.32690059       0.00008120      -0.00106263      -0.00079078      -3.73593044
Al      10.35305900      11.43037728       1.30672289       0.00206248      -0.00102744      -0.00120187      -3.68602741
Al       9.12122284       9.74493695       3.15515538      -0.00287825       0.00108190      -0.00096544      -3.74254000
Al      10.48123601      11.96575488       4.16354919      -0.00036171      -0.00182663       0.00182774      -3.75366759
Al       9.14454559      10.28198587       6.01743168       0.00223745      -0.00055278       0.00053526      -3.73623145
Al      10.76478540      11.46250657       8.03596075      -0.00377416      -0.00129273      -0.00410173      -3.72983825
Al       9.40396992       9.71086260       9.85656584      -0.00087176      -0.00258739       0.00163413      -3.69762313
Al      10.93894355      10.88349609      11.94851682       0.00454858       0.00314772      -0.00073617      -3.70675004
Al       8.65742413       9.56660202      12.87676087      -0.00113783      -0.00380337      -0.00480508      -3.87590206
Al      10.35321639      10.84141675      14.94802386      -0.00050729       0.00310110       0.00204405      -3.72956896
Al       8.81836981      13.14358050      -0.42877368      -0.00252705       0.00088235       0.00014138      -3.67198777
Al      10.27324186      15.32560946       0.54302562      -0.00094050      -0.00291136       0.00534230      -3.83092964
Al       8.94176051      13.68440885       2.40606580      -0.00156361       0.00474875      -0.00126073      -3.73837054
Al      10.55565384      14.88440194       4.43772186       0.00098742      -0.00024892       0.00208607      -3.71188390
Al       9.23140225      13.17494305       6.36367574      -0.00006944      -0.00296314       0.00213737      -3.73152983
Al      10.88666423      14.32718977       8.34603179      -0.00062277      -0.00377536      -0.00177212      -3.73061013
Al       9.44457478      12.61232566      10.28023979      -0.00065435      -0.00056972       0.00214784      -3.72097600
Al      11.14931234      13.73809311      12.09018707      -0.00689791      -0.00084399       0.00285364      -3.69930863
Al       8.82016587      12.50062646      13.24941401      -0.00328871      -0.00117861      -0.00117366      -3.73439467
Al      10.91528212      14.06956824      14.71948663      -0.00076763      -0.00135213      -0.00624150      -3.59680521
Al      12.78670796      -0.18076172      -0.19925385       0.00562099      -0.00087071       0.00110711      -3.61808586
Al      13.40979623       2.12016704       1.10726280      -0.00206203      -0.00054432       0.00390245      -3.79569399
Al      12.25335896      -0.12171233       2.67784962      -0.00601719       0.00476728      -0.00301050      -3.63813126
Al      13.47853951       1.51886828       4.66950823       0.00169308       0.00188810       0.00139317      -3.79706585
Al      12.33706929      -0.28818858       6.64661475      -0.00366012      -0.00385523       0.00194419      -3.70936656
Al      13.91697719       0.87335202       8.83931942       0.00042263      -0.00192836       0.00313765      -3.71929598
Al      12.58890871      -0.84910243      10.63548094      -0.00271990      -0.00164354      -0.00018188      -3.75625610
Al      13.89387091       1.37273686      11.82692204       0.00004634      -0.00471491      -0.00402147      -3.69462442
Al      12.58934100      -0.41337099      13.54862141       0.00549008      -0.00781920      -0.00299336      -3.71130061
Al      13.79499077       1.86558986      14.81066416       0.00244806       0.00067552      -0.00211254      -3.72522020
Al      11.71257503       3.80508386      -0.88831372       0.00219734      -0.00014820       0.00068042      -3.59198713
Al      13.42560775       4.91576125       1.28742870      -0.00017086      -0.00079297       0.00357097      -3.88639992
Ni      12.50392018       3.52736491       3.10228639       0.00720507      -0.00030759      -0.00249931      -6.01589656
Al      13.67777557       4.23781719       5.27628502       0.00286090      -0.00097714      -0.00354014      -3.85525441
Al      12.31650564       2.48764589       7.14273884       0.00016748       0.00238781       0.00516803      -3.69875371
Al      13.76677933       4.65857430       8.19619085       0.00188776       0.00669409      -0.00005554      -3.73073924
Al      12.39342697       2.98462274      10.06007930      -0.00369099       0.00232521      -0.00071929      -3.73426318
Al      13.83259844       5.23386013      11.07286194      -0.00066189       0.00648494       0.00061420      -3.74621809
Al      12.33355087       3.55068412      12.99447751       0.00216360      -0.00404119      -0.00379404      -3.70551348
Al      14.08360706       4.84446996      15.09721367       0.00222951      -0.00257894       0.00268828      -3.73448920
Al      11.83745312       6.53010301      -0.39111332      -0.00367713      -0.00288157       0.00106347      -3.71555209
Al      13.51347441       7.72798506       1.73492326      -0.00283182       0.00260530      -0.00001888      -3.71047676
Al      12.19810098       5.94377424       3.62269495       0.00371101       0.00194684       0.00161589      -3.88543117
Al      13.59897674       8.06647968       4.70887764      -0.00421352      -0.00121287       0.00240836      -3.71780467
Al      12.24258147       6.35677942       6.51282423       0.00148635       0.00053469       0.00080355      -3.73548758
Al      13.61511129       8.58750060       7.52823584       0.00051907       0.00384497       0.00120376      -3.75796390
Al      12.34439276       6.90733347       9.35778066      -0.00235450      -0.00076228       0.00133155      -3.73682094
Al      13.86081377       8.10947002      11.39430996      -0.00052977      -0.00057979       0.00426440      -3.72191823
Al      12.66632000       6.47333597      13.31602209       0.00139380       0.00262240      -0.00216100      -3.69197059
Al      14.13180159       7.68865331      15.37161108       0.00220067       0.00251664       0.00254680      -3.72684801
Al      11.94343035       9.41903948       0.06566706      -0.00372601       0.00049809      -0.00036158      -3.73405302
Al      13.73944215      11.34738039       1.48185832      -0.00720377      -0.00089913      -0.00645932      -3.61863732
Al      12.01107683       9.77290352       2.99815592      -0.00100488       0.00069757       0.00344469      -3.70538020
Al      13.38900626      11.94271297       4.10592236       0.00283799       0.00273492      -0.00183917      -3.68038797
Al      12.06769718      10.28910624       5.83430276      -0.00012347       0.00051107      -0.00084450      -3.75173533
Al      13.67838005      11.51984332       7.85249154       0.00122187      -0.00436824       0.00295324      -3.70043647
Al      12.25691135       9.72948549       9.75422562       0.00385563       0.00491263       0.00359689      -3.71228051
Al      13.96465431      10.93167920      11.68228454      -0.00424218      -0.00156626       0.00227251      -3.71019542
Al      12.54486447       9.27894422      13.62053829       0.00204186       0.00256634       0.00054475      -3.70528209
Al      14.18561113      10.50620837      15.49250526      -0.00189726      -0.00035192       0.00039513      -3.68899381
Al      12.23645661      12.73576018      -0.21170005       0.00093695       0.00743676       0.00865872      -3.60751140
Al      14.09041862      14.43306832       1.19728331      -0.00350607      -0.00378685       0.00097216      -3.69345224
Al      11.79829000      13.53360102       2.36182058      -0.00209046       0.00443629      -0.00203018      -3.68996310
Al      13.62622958      14.80969452       4.22382542      -0.00261439      -0.00046294       0.00544394      -3.74277794
Al      12.13331004      13.22446054       6.15601128      -0.00100480      -0.00099859       0.00242284      -3.70729363
Al      13.78829236      14.38622316       8.15328982       0.00025895       0.00181127       0.00359332      -3.71705735
Al      12.42303215      12.60350184      10.00741726      -0.00347617       0.00217406       0.00364548      -3.71083307
Al      14.01802747      13.82333423      12.07210438      -0.00234456       0.00030716      -0.00222572      -3.76137066
Al      12.64936779      12.08605728      13.76554944      -0.00462819       0.00160026       0.00389605      -3.69911432
Al      14.15698666      14.13436748      14.93783845      -0.00501852       0.00414113       0.00569670      -3.72081399
