116
Lattice="11.441571873038217 0.0008575128888005162 -0.0019192418418203141 0.0008574906586456449 11.443788325872642 -0.0006888875035759561 -0.0019192070803781477 -0.0006888718764342075 11.442737640969552" Properties=species:S:1:pos:R:3:forces:R:3:energies:R:1 energy=-611.4144712727746 stress="0.00042497619902206676 -0.0001449807214091513 0.0002777215435539206 -0.0001449807214091513 0.0001418173248138094 5.203933749402102e-05 0.0002777215435539206 5.203933749402102e-05 0.000306924666194052" free_energy=-611.4144712727746 pbc="T T T"
Ni      -0.00987343      -0.02242242      -0.04964214       0.00897187      -0.00414652      -0.01103746      -6.13887970
Al       1.35884948       1.43104830       1.41687507       0.01283558       0.00501830      -0.00191563      -4.43987897
Al       1.40385995       1.41140893       4.28644900       0.00299548       0.00195452       0.00060335      -4.57954265
Ni       0.03124233      -0.01659854       5.77435233      -0.00089251       0.00135886      -0.00143675      -6.20605375
Al       1.46252685       1.39738098       7.16895816       0.00466825       0.01046983      -0.00082883      -4.59239577
Ni      -0.03290055       0.01440557       8.59269304       0.00397086      -0.00028839       0.01540021      -6.22465303
Al       1.41954962       1.42666985      10.02564091      -0.00361270      -0.00571581       0.00388806      -4.50369050
Al       1.36310538       4.27761554       1.41029209       0.01307160      -0.00427822       0.00231187      -4.43949195
Ni      -0.01337196       2.86564121       2.88936285       0.00062319       0.00178246      -0.00711276      -6.11793646
Al       1.42509833       4.31688399       4.27805301       0.00154875      -0.00442107       0.00621984      -4.57637730
Ni       0.02135103       2.87639401       5.70514869      -0.00475880      -0.00722279      -0.00291945      -6.26603782
Al       1.46817897       4.31916126       7.18110116       0.00325234      -0.01122592      -0.00157229      -4.57725202
Ni       0.01385157       2.84999745       8.55434595       0.00263765       0.00910445      -0.00495001      -6.22155433
Al       1.42458032       4.28394882      10.01253547       0.00053635       0.00351762       0.00125331      -4.49755405
Ni      -0.01136635       5.74656649      -0.06250573       0.00432562       0.00156673       0.00118391      -6.14010815
Al       1.42498613       7.12329931       1.44022279       0.00621028       0.00452112       0.00102891      -4.56387719
Al       1.44589190       7.12641602       4.27347474      -0.00126311       0.00390606       0.00871073      -4.55606045
Ni       0.02042859       5.73443850       5.78143948      -0.00503203      -0.00437991      -0.01469997      -6.20102647
Al       1.47857417       7.12556279       7.18452235       0.00430358       0.00559412      -0.00321895      -4.56479171
Ni      -0.04296911       5.71698702       8.60343891       0.00493597      -0.00925855       0.01080303      -6.21676866
Al       1.47651920       7.13000875       9.99433147       0.00128312      -0.00679096       0.00354710      -4.57027002
Ni       0.01387565       8.58702780       0.03046258      -0.00058290       0.00422640      -0.01009521      -6.25834597
Al       1.41866060      10.05289672       1.45122686      -0.00089876      -0.00754528      -0.00064872      -4.56635337
Ni       0.01295315       8.57627618       2.86610174      -0.00369626      -0.00111381      -0.00089019      -6.19622750
Al       1.42678321      10.02713353       4.27506114      -0.00502917       0.00361398       0.00444383      -4.55843569
Ni       0.01730002       8.56716831       5.69083915      -0.00307546       0.01004726       0.01494857      -6.25610467
Al       1.46689114      10.03948672       7.17846193      -0.00194591       0.00031767       0.00106690      -4.57999533
Ni       0.03696904       8.58195852       8.58310902       0.00721511      -0.00205044      -0.00324203      -6.25544844
Al       1.46425468      10.04965228       9.99403626       0.00309807       0.00132211       0.00671319      -4.57574525
Ni       2.86784949       0.03647259       0.05502774       0.00425833      -0.00207457      -0.00092005      -6.23527192
Al       4.32721449       1.44258442       1.48877833       0.00712356       0.00307906      -0.00544291      -4.47800303
Ni       2.88952827       0.04020604       2.88078927      -0.00916858      -0.00177294      -0.00797585      -6.22126196
Al       4.33460706       1.44418066       4.27509026      -0.00178034      -0.00386736       0.00480717      -4.32842748
Ni       2.86347143       0.00298935       5.67232208       0.00660667       0.00700252      -0.00848108      -6.15662009
Al       4.31399719       1.38508480       7.19060173       0.00615242       0.00838697      -0.00424464      -4.11341788
Al       4.27824897       1.39881164       9.92379479       0.00743577       0.00150666      -0.00374712      -4.32243596
Ni       2.90804648       2.84920745      -0.04117277       0.01111918      -0.00802221       0.00837464      -6.24005113
Al       4.32990610       4.22896610       1.45051384      -0.00331344      -0.00050352      -0.00575557      -4.59177199
Ni       2.77262128       2.83792928       2.83159645       0.00360689      -0.00403239      -0.00322935      -6.23100905
Al       4.31384442       4.24248267       4.25368755      -0.00278160       0.00296970       0.00203258      -4.58756862
Ni       2.91995683       2.84381047       5.77455144       0.01034382      -0.01283049      -0.00658035      -6.28744774
Al       4.28577227       4.28432374       7.23882160      -0.00514258      -0.00283552      -0.00868095      -4.46297844
Ni       2.82147948       2.83172296       8.59775152      -0.00479845      -0.00103212      -0.00469516      -6.12437451
Al       4.28168146       4.27729795       9.94205875       0.00254615      -0.00044221       0.00739817      -4.46617439
Ni       2.84705492       5.67261911       0.04494608       0.00137756       0.00315895      -0.00297788      -6.21443645
Al       4.30435787       7.15059819       1.39343957      -0.00731632       0.00024286       0.00882852      -4.67488533
Ni       2.91664475       5.68334581       2.83612314      -0.00020482       0.00392330       0.00181507      -6.20861144
Al       4.29103402       7.14325685       4.28969907      -0.00230486       0.00012970      -0.01585169      -4.66505496
Ni       2.88456172       5.70685922       5.69064755      -0.00156520      -0.00239571      -0.00012154      -6.21379616
Al       4.30456271       7.14190233       7.22806038      -0.00197166       0.00553662      -0.00937749      -4.45657979
Al       4.30118097       7.14297944       9.97899746      -0.00346046      -0.00128606       0.00518763      -4.45673548
Ni       2.90059487       8.60925628      -0.05013911       0.00642307       0.00333760       0.01131590      -6.26430770
Al       4.31963069      10.06969458       1.46463207      -0.00096372      -0.00886490       0.00166490      -4.55854349
Ni       2.85445800       8.60073629       2.84324800       0.00558855       0.00364611      -0.00212235      -6.26412220
Al       4.31517922      10.04081934       4.28167637       0.00637444       0.00480213      -0.00041978      -4.47142939
Ni       2.92452479       8.60247483       5.78769933      -0.00515551       0.00921498      -0.00286258      -6.27728434
Al       4.32885576      10.06745506       7.18243630       0.00177375      -0.00845693      -0.00186848      -4.09258598
Ni       2.86957422       8.61044406       8.58857351      -0.01543387      -0.00367331      -0.00728256      -6.10999021
Al       4.29835825      10.06442620       9.95729222       0.00686136      -0.00309241       0.00716239      -4.30693458
Ni       5.71748637       0.07755336      -0.03936503       0.00241133      -0.00498212      -0.00200938      -6.23010584
Al       7.17025505       1.49368020       1.42286815      -0.00645385      -0.00137414      -0.00664432      -4.35403218
Al       7.07505016       1.43804117       4.26329720       0.00777786      -0.00170922       0.01054146      -4.31123508
Al       7.07730318       1.40863969       7.14458009       0.00305810      -0.00016508       0.00523744      -4.32415560
Al       7.16334277       1.46254912       9.99420502      -0.00054151      -0.00286451      -0.00474641      -4.36234547
Ni       5.68355649       2.78853065      -0.02481508       0.00275023       0.00590865       0.00757549      -6.13112813
Al       7.15462505       4.19760791       1.40989056      -0.00670160       0.00645127      -0.00894957      -4.44652828
Al       7.10907811       4.24967752       4.25976802      -0.00534791       0.01090919       0.00174430      -4.58533736
Ni       5.69745592       2.85482879       5.73590083      -0.00552841      -0.00362651      -0.01118354      -6.12333062
Al       7.12625539       4.24559919       7.18056981       0.00387230      -0.00060396       0.00070141      -4.58766618
Al       7.17363247       4.18628420      10.02389220      -0.00750383       0.01082609      -0.00297144      -4.44573063
Ni       5.73032482       5.63614471      -0.05860879      -0.00657545       0.00287814       0.00232226      -6.26813738
Al       7.13646480       7.15452770       1.40183060       0.00065436       0.00590528       0.00006536      -4.66605105
Ni       5.72806823       5.72879069       2.83032193       0.00865897       0.00386823       0.00887797      -6.20101469
Al       7.13863132       7.13750558       4.29321341      -0.00014829      -0.00552303      -0.00583663      -4.65941891
Ni       5.68943478       5.68755566       5.77426777       0.00055250       0.00087814       0.00288355      -6.26822892
Al       7.11915598       7.17731428       7.17074048       0.01141414       0.00460973       0.00285673      -4.57331359
Ni       5.77120158       5.70750293       8.61224740      -0.00027909       0.00487753       0.00178631      -6.11901998
Al       7.12263523       7.19692917      10.01480948       0.00364064       0.00589258      -0.00004683      -4.57469249
Ni       5.71154170       8.67235386       0.02372647      -0.00604691      -0.00466047      -0.00273849      -6.20192876
Al       7.11011715      10.08128974       1.46951720      -0.00685367      -0.01461251      -0.00503183      -4.55594031
Ni       5.71690400       8.57379027       2.86437871      -0.00972916      -0.00340752       0.00865891      -6.20487016
Al       7.10329857      10.06080500       4.27441775       0.00098791      -0.00869804       0.00953215      -4.45294573
Ni       5.70380707       8.59142325       5.69620464      -0.00168823       0.00589018      -0.00701192      -6.14326622
Al       7.07762333      10.04448815       7.14518491       0.00848391       0.00007482       0.00606833      -4.29764724
Al       7.11304221      10.05014152       9.98187965      -0.00793605      -0.00752198      -0.00272322      -4.46075068
Ni       8.58859334      -0.00867663       0.03090300      -0.00841184       0.00383937       0.00100888      -6.22425191
Al      10.07501570       1.41831776       1.42856170      -0.01141649       0.00292990      -0.00482218      -4.35814529
Ni       8.54591400       0.06229016       2.86684665      -0.00153758       0.00197106      -0.00956165      -6.21813767
Al      10.05426557       1.39542564       4.29609185      -0.00141138       0.00227910       0.00752321      -4.56876463
Ni       8.57057631       0.00280275       5.68945940      -0.00792533       0.00445415       0.00227834      -6.22159624
Al      10.01597409       1.42790020       7.11793075      -0.00360389       0.00444477       0.00121789      -4.66573623
Ni       8.55038166       0.02149552       8.55419243      -0.01261561       0.00595254       0.00915657      -6.21143645
Al      10.00178314       1.46067795      10.04352452      -0.00550365       0.00714547       0.00709486      -4.47483290
Al      10.06324677       4.30331437       1.42920603      -0.01113968      -0.00679788       0.00089606      -4.35660383
Ni       8.66959025       2.83668555       2.87722241      -0.00905201      -0.00408257      -0.00753996      -6.16301368
Al      10.02595742       4.32746911       4.29274415       0.00599002      -0.00282825       0.00088561      -4.56510999
Ni       8.51677544       2.83675543       5.70821307      -0.00634101      -0.00854015       0.01177980      -6.27653895
Al       9.99214217       4.28728712       7.14199946       0.00074705      -0.00513315      -0.00520251      -4.66704559
Ni       8.60630661       2.80966761       8.54635240       0.00302519      -0.00087620       0.00507343      -6.14052245
Al       9.99672562       4.23927204      10.03217630       0.00003856      -0.00311996       0.00518468      -4.47103688
Ni       8.60369795       5.71961191       0.01154304       0.00204571      -0.00754872       0.00406807      -6.20922486
Al      10.01719586       7.14060644       1.45306027       0.00258347      -0.00419194      -0.00052861      -4.55372126
Ni       8.51426746       5.66775285       2.82758408      -0.00301145      -0.00065213       0.00321563      -6.20965164
Al      10.00794702       7.12165153       4.26696167       0.00851379       0.00324568       0.00398506      -4.54957628
Ni       8.56026412       5.71200120       5.71046383       0.00161393      -0.00632379      -0.00242981      -6.25414793
Al       9.98420049       7.16484295       7.15666193      -0.00376020      -0.00123197      -0.01063722      -4.65703149
Ni       8.53053079       5.70092251       8.61017752       0.00477722      -0.00459626      -0.00265778      -6.26623603
Al       9.98318859       7.18631791      10.00593796      -0.00444068      -0.00408623       0.00348192      -4.65584191
Ni       8.54734797       8.62193860       0.00793825      -0.00764267       0.00067987      -0.00473098      -6.25572823
Al      10.03564623      10.04534637       1.46943084       0.00455926      -0.00184531      -0.01059087      -4.55372813
Ni       8.57914437       8.61132526       2.86148008      -0.00358533       0.00496917      -0.00568484      -6.26337837
Al      10.03537979      10.04552706       4.26766783       0.00264679      -0.00026971       0.00878883      -4.55115131
Ni       8.52428479       8.61246020       5.72005384       0.00479643       0.00781394       0.00540361      -6.26427747
Al      10.01425573      10.00678915       7.13959972      -0.00553055       0.00481513      -0.00394271      -4.65917502
Ni       8.56303459       8.63383312       8.56856978       0.01001529       0.00041774       0.00465331      -6.19690760
Al      10.00108259      10.00662687      10.00352036      -0.00527785       0.00630727       0.00017111      -4.66013071
