110
Lattice="11.217889265850557 0.05647488902601376 0.002593858495263216 0.056840573749092044 11.223601043392666 -0.05510708305507749 0.002905644308244825 -0.054273333705315785 11.098143870737216" Properties=species:S:1:pos:R:3:forces:R:3:energies:R:1 energy=-592.5398937918591 stress="-0.00036440245624723037 -6.692371332622949e-05 -0.000540145694378644 -6.692371332622949e-05 -0.0003363080784474503 0.0004390663766204086 -0.000540145694378644 0.0004390663766204086 0.0006623814766687576" free_energy=-592.5398937918591 pbc="T T T"
Ni       0.18436056      -0.14379762      -0.18943274       0.00332455       0.00001179       0.00139599      -6.11640298
Al       1.36204148       1.46777428       1.31097516       0.00205870      -0.00552495       0.00233739      -4.80201992
Ni      -0.20104014       0.28877182       3.06391221      -0.00193050      -0.00585540       0.00580828      -5.99698071
Al       1.81601262       1.09856364       4.08124434      -0.00930138      -0.00422584       0.00208643      -4.73868369
Ni       0.18900758      -0.13088483       5.58539712       0.00209199      -0.00002646      -0.00159630      -5.95071165
Al       1.36693053       1.50393769       6.92330145       0.01307028      -0.00337648      -0.00246475      -4.84012459
Ni       0.05747097       0.07890308       8.35729981       0.00544690      -0.00401705      -0.00474755      -6.03111759
Al       1.64878687       1.75005366       9.77480962       0.00039009       0.00074781      -0.00024323      -4.80290744
Ni      -0.11644501       3.11950107       0.00342439      -0.00984206      -0.00577625       0.00602862      -5.76657513
Al       1.69392033       4.14157152       1.14587795       0.00669965       0.00056887       0.00722998      -4.67363979
Ni       0.17099793       2.82118987       2.72080979       0.00563656      -0.00555195      -0.00822040      -5.67006268
Ni      -0.18135982       2.28650025       5.07621902       0.00119895      -0.00226612       0.00252246      -5.73089193
Al       1.13998182       4.21101748       6.16431487       0.00550216      -0.00248641      -0.00479077      -4.77330432
Ni      -0.02038898       2.99815660       8.44033899       0.00738904       0.00513259       0.00187818      -5.89203821
Ni       0.20380285       5.55478850      -0.36315782       0.00729453       0.00715515       0.00104304      -5.58801813
Al       1.12522580       6.72502833       1.55370411       0.00149768      -0.00105867      -0.00823162      -4.78412241
Ni      -0.74757543       4.87041511       1.81907064      -0.00250131       0.01024644       0.00717962      -5.55489881
Al       1.48997979       6.75068546       4.33471646      -0.00425309      -0.00053482       0.00589450      -4.68244284
Ni      -0.40416693       6.11179123       5.79335197      -0.00362284       0.00038727       0.00070903      -5.78130124
Ni       0.35531352       5.43654527       8.18293718       0.01064630       0.00509965       0.00384416      -5.61848604
Al       1.26613444       7.34917550       9.32570444       0.00189973      -0.00537306      -0.00082752      -4.70303832
Ni      -0.00994912       8.26520699       0.11945067      -0.00607060       0.00240059       0.00266300      -5.82434373
Al       1.56444873      10.13895930       1.69566942      -0.00669498       0.00600656       0.00156276      -4.71141545
Ni       0.23454882       8.54592480       2.79169284       0.00450864      -0.00724250       0.00251413      -5.87020603
Ni       0.19749557       8.46021352       5.30717801      -0.00104000      -0.00159013      -0.00697946      -5.71778379
Al       1.26666744       9.54442800       7.10582962      -0.00326541       0.00441453       0.00197650      -4.67381298
Ni      -0.51582777       7.82119206       7.58864284      -0.00617207      -0.00039894       0.00854205      -5.81570370
Ni       2.70881888      -0.02374329      -0.09757124       0.00013853       0.01248685       0.01094284      -5.71271740
Ni       3.41478676       0.59708249       2.24968129      -0.00256343       0.00570547      -0.00105054      -5.82828857
Ni       2.84588501      -0.09384706       5.94964810      -0.00056635      -0.00245045      -0.00482436      -5.79709816
Al       4.06943477       1.50565390       7.44739737      -0.00345944      -0.00409435      -0.00440117      -4.72826220
Ni       2.59503063      -0.16633939       8.51118872      -0.00173943      -0.00376622      -0.00251440      -5.75190300
Ni       3.37949065       2.38553877       0.42888860      -0.00248252      -0.00658556       0.00573634      -5.61511370
Ni       2.75990636       2.95168041       2.89421145       0.00364454       0.00266951       0.00112107      -5.57559603
Al       4.66312262       3.89208660       3.93598215       0.00188144      -0.00129510       0.00148527      -4.60232407
Ni       3.02203030       2.68065711       5.51070443      -0.00651002       0.00436674      -0.00135097      -5.95228878
Al       4.24240925       4.24615008       6.96571941       0.00155038       0.00085124      -0.00984246      -4.69617299
Ni       2.38576866       3.33624065       8.07501542      -0.00154134      -0.00657333       0.00327144      -5.76817975
Al       3.97327579       4.08091966       9.81824597      -0.00167054      -0.00695815       0.00906340      -4.82719756
Ni       2.69338428       5.90681551      -0.14460522      -0.00234719      -0.00054913       0.00888100      -5.78214688
Al       4.19750763       7.08515721       1.35357240      -0.00508016      -0.00442834      -0.00301489      -4.76213983
Ni       3.00342867       5.53289619       2.70704680      -0.00212235      -0.00143561      -0.00227720      -5.86150987
Al       4.29016020       7.11164825       4.13085489      -0.00088204       0.00794564       0.00231169      -4.72875744
Ni       3.12403327       5.26262762       5.21169699      -0.00038202       0.00001300       0.00692912      -5.68869836
Al       4.18619937       6.99252723       6.76093655       0.00116749       0.01012536      -0.00974916      -4.83955174
Ni       2.83286458       5.74944668       8.31476053      -0.00922703      -0.00601999      -0.00212633      -5.82660702
Al       4.20408592       7.20301823       9.74916636       0.00398139       0.00193283      -0.00555294      -4.78557276
Ni       2.52991259       8.53159721       0.01950581       0.00975578      -0.00113449       0.00090756      -5.96561570
Al       4.26990968       9.77621643       1.18312367      -0.00005161      -0.00856814       0.00224054      -4.84783651
Ni       2.71626922       8.30033842       2.76794326       0.00452344       0.00633901      -0.00279346      -6.02408940
Al       3.99101594      10.07184922       3.95150986      -0.00076378      -0.00542897      -0.00089245      -4.78237801
Ni       2.83979210       8.58614488       5.48144044      -0.00019910      -0.00444731      -0.00614426      -5.80250005
Al       4.61151838      10.06649871       7.25503978       0.00274300      -0.00204609       0.00390211      -4.70466442
Ni       3.04282018       8.50258114       8.19289928       0.00107731      -0.00724797      -0.00105369      -5.68476227
Ni       5.26923875       0.47581515       0.23367487       0.00791078       0.00526279       0.00620156      -5.83981295
Al       7.19225532       1.49515024       1.32285636      -0.00089282      -0.00490698       0.00006748      -4.79714921
Ni       5.72979444      -0.00916752       2.82666657       0.00311328      -0.00140929      -0.00041530      -5.88650202
Al       6.85889297       1.76752804       4.02473733      -0.00399191      -0.00410934      -0.00310575      -4.77304480
Ni       5.32530804       0.26494472       5.45828194      -0.00333585       0.00453967      -0.00144563      -5.91403315
Al       7.16497580       1.17686437       6.82818546       0.00704866      -0.00881165      -0.00690896      -4.73868575
Ni       4.34564701      -1.41032713       9.81148689      -0.00425337      -0.00704303      -0.00305324      -5.65658315
Al       6.99416946       1.42888702       9.74769134      -0.01163462      -0.00569681      -0.01193587      -4.75735385
Ni       5.69641781       2.95627944      -0.12476892       0.00401990       0.00437750       0.00682070      -5.60416530
Al       6.94982771       4.14660593       1.44769626      -0.00343581       0.00075237      -0.00289599      -4.76738023
Ni       5.15904015       2.36293531       2.19701516      -0.00365968       0.01081385       0.00314700      -5.60804333
Ni       5.64860655       2.73076071       5.84066557      -0.00026483       0.00369711      -0.00735506      -5.78923273
Al       7.08648319       4.31811023       7.08456274       0.00596572      -0.00027372      -0.00113646      -4.66015310
Ni       5.71882043       2.93510069       8.39723817      -0.00758059       0.00172040       0.00351265      -5.79873381
Ni       5.51758512       5.63808214      -0.00069919       0.00438618      -0.00130005      -0.00077555      -5.95909891
Al       7.27242931       6.96484686       1.37350484      -0.00017978      -0.00541261      -0.00226911      -4.74012221
Ni       5.68866007       5.74671008       2.75290310      -0.01151218       0.00024825      -0.00129456      -5.79228553
Al       7.10632158       7.16513751       4.16925211      -0.00049370      -0.00442385       0.00011831      -4.70447368
Ni       5.74372773       5.51216400       5.42445242       0.00125702       0.00498181       0.00202582      -6.21937148
Al       7.08614518       7.06182397       6.83401809       0.00487611      -0.01530261      -0.00120028      -4.65711536
Ni       5.51130869       5.64896898       8.38138066      -0.00170701      -0.00303158       0.00681073      -6.18651724
Al       7.19902536       6.77969757       9.68727335       0.00308023      -0.00269374       0.00413207      -4.76314673
Ni       5.86184570       8.31791231      -0.00693753       0.00625383       0.00271303       0.00169500      -6.08097962
Al       7.04940034       9.98237772       1.21401169      -0.00001053       0.00430197       0.00229210      -4.76071483
Ni       5.72812663       8.55892386       2.76067465      -0.00152630       0.00929433      -0.00526288      -6.30874023
Al       7.23009968      10.07786036       4.48414054      -0.00432558       0.00056840      -0.00457017      -4.81221956
Ni       5.54085067       8.68111225       5.51374364       0.00873257      -0.00506602       0.00275767      -5.99028358
Ni       5.74140695       8.26039148       8.28529424       0.00496240      -0.00005309       0.00747517      -5.85371887
Al       6.84124362       9.95717564       9.57742499      -0.00030656      -0.01036764      -0.00541921      -4.78547714
Ni       8.58272524      -0.04847226      -0.11213426      -0.00105793       0.01103441       0.00711776      -6.29590481
Al       9.93200164       1.48243818       1.31157225       0.00314968      -0.00573582      -0.00106958      -4.77136162
Ni       8.42860252       0.07426575       2.72880111      -0.00824857       0.00022961      -0.01451175      -6.12458497
Ni       8.95361807       0.63720758       5.02822600       0.00741986       0.01317297       0.00573333      -5.93774735
Al       9.90686670       1.54720529       6.97999130      -0.00325551       0.00554530      -0.00749739      -4.77049413
Ni       8.55785249       0.02334336       8.47507768      -0.00651813       0.00396690      -0.00970348      -5.92975129
Al       9.95136825       1.51469672       9.75897572      -0.00130487       0.00525280       0.00407696      -4.60424788
Ni       8.57195522       3.01524686       0.00617244       0.00365151      -0.01481757       0.00745813      -5.86782590
Ni       8.75714903       2.82267858       2.88931553      -0.00379532      -0.00142567       0.00089162      -5.74969369
Al      10.19262419       4.37962808       4.23145240       0.00021582       0.00078766       0.00255521      -4.69665675
Ni       8.43369920       3.00907264       5.51973248      -0.00470716      -0.00247377       0.00135280      -5.91040297
Al       9.73409260       4.44220615       7.10465230      -0.00190939       0.00789028       0.00689704      -4.75343762
Ni       8.42041167       2.74741162       8.33389192       0.00168039      -0.00374334       0.00503636      -5.95657924
Ni       8.79986245       5.54252998       0.16946991      -0.00303113      -0.00355236      -0.00164993      -5.55799975
Ni       8.29654468       5.37375045       2.90587844       0.00227182       0.00597147      -0.00716574      -5.76100457
Al       9.97152519       6.92692032       3.56428211      -0.00185765       0.00361214       0.00297643      -4.78394341
Ni       8.37673028       5.55544178       5.40404741       0.00259483      -0.00465652       0.00553204      -5.97579320
Ni       7.19018993       4.36892296       9.71029319      -0.00595914       0.01488241      -0.00555396      -5.61820232
Al       9.82382487       6.76837640       9.50577671       0.00036277       0.00903820      -0.00741858      -4.58621045
Ni       8.53918734       8.48073899      -0.11554194      -0.00429047       0.00284228      -0.00709116      -6.09690395
Al       9.99533842       9.91524803       1.36457142       0.00707086       0.00622484      -0.00283340      -4.68332330
Ni       8.39804153       8.63710610       2.74221418       0.00744164      -0.00901613      -0.00026489      -6.04093347
Al       9.91118937       9.81540303       4.12690136      -0.00250159       0.01047384      -0.00578893      -4.54072064
Ni       8.93859236       8.03521271       5.58938871      -0.00716551      -0.00036392       0.00511477      -5.85380849
Al       9.67931894      10.00702449       6.73788977       0.00067701       0.00445195       0.00202107      -4.82566791
Ni       8.35804965       8.51523875       8.27629585       0.00755392       0.00608350      -0.00031208      -5.82895492
Al      10.19205530       9.54720813       9.44775659      -0.00381982      -0.00531767      -0.00023356      -4.75959432
