174
Lattice="13.928275581380444 0.03911074993906084 -0.07033518416073353 0.039017375889297955 13.833417383901555 0.12286999166881823 -0.07027769903162047 0.12255823576661838 13.934304802724293" Properties=species:S:1:pos:R:3:forces:R:3:energies:R:1 rep=5 n_sites=250 energy=-818.359014739686 stress="-0.00017103586297168239 0.00041596566346295956 -0.0001367959803015083 0.00041596566346295956 -8.951794363754254e-05 -0.0009692051465062286 -0.0001367959803015083 -0.0009692051465062286 0.0002073927300497189" free_energy=-818.359014739686 pbc="T T T"
Ni       0.06050239       0.06845129       0.05895953       0.00077093      -0.00309312       0.00779001      -6.08478642
Al       1.65921120       1.35728848       1.32367337      -0.00324963      -0.00571523      -0.00008906      -4.37046698
Ni       0.03466333       0.07256388       2.73110074       0.00511040       0.00061409       0.00600383      -6.16387864
Al       1.41154001       1.56556248       4.11349931       0.00133994      -0.00352116       0.00019738      -4.45078391
Ni      -0.19064601       0.18799952       5.46773772      -0.00009954      -0.00449056      -0.00526449      -6.25357862
Al       1.32983681       1.59254547       6.84787243       0.00119583       0.00244521       0.00013738      -4.28683927
Al       1.16879864       1.43374410       9.56871190      -0.00581579       0.00221274       0.00095266      -3.90471418
Al       1.44344872       1.34627289      12.30843490       0.00222655       0.00492992      -0.00184748      -4.17454070
Ni       0.24013733       2.70823844      -0.13149520      -0.00704325      -0.00753001       0.00782707      -5.99520685
Al       2.11776764       4.05622542       1.17209795       0.00139710       0.00262557       0.00207310      -3.76816743
Al       1.23574570       4.28089612       3.80802909       0.00846859       0.00686049       0.00492030      -4.09606503
Ni      -0.14707126       2.96339806       5.37850103      -0.00356468      -0.00757650      -0.00169624      -6.14327673
Al       1.33699607       4.22357420       6.84767242      -0.00197143       0.00337181      -0.00222891      -4.45996186
Al       1.32405675       4.20239733       9.73132215      -0.00031840       0.00263873       0.00324838      -4.33428714
Ni      -0.14620949       2.85727843      11.09898834      -0.00237088       0.00236506      -0.00009378      -6.02763139
Al       1.32919936       4.26735854      12.41117415       0.01021938       0.00942425      -0.00832077      -4.23610116
Al       1.04932515       6.71514775       1.40151039      -0.00074379       0.00175494       0.00596020      -3.76619722
Al       1.73294063       7.07251259       4.00794257      -0.00043949      -0.00556429      -0.00063978      -3.90408038
Ni       0.02534883       5.67717781       5.32598482       0.00463151      -0.00170128      -0.00575774      -6.09126139
Al       1.36164806       7.02786357       6.86274501       0.00872700       0.00583138      -0.00493380      -4.49259183
Al       1.36433312       6.91468968       9.74261170      -0.00911644       0.00077700       0.00105731      -4.44326943
Al       1.29145253       6.92113676      12.61575903      -0.00347758      -0.00418632       0.00095567      -4.07656768
Al       1.34891180       9.50121021       1.67900564       0.00015702      -0.00467229       0.00840947      -4.36845510
Al       1.29305430       9.65792122       4.47563982       0.00165384       0.00257075       0.00007905      -4.05318183
Al       1.43589488      10.05185839       7.13737878      -0.00214679       0.00000169       0.00555959      -4.20411121
Ni       0.02480574       8.42484379       8.36698602      -0.00069141      -0.00042481      -0.00245930      -6.06629224
Al       1.34964586       9.71815204       9.94556460      -0.00237710       0.00420182       0.00316213      -4.33905499
Al       1.31135179       9.72706861      12.65498119      -0.00809760       0.00178443      -0.00575537      -4.35323231
Al       1.42774753      12.35593656       1.57039077       0.00362700      -0.00344518       0.00135136      -4.61009686
Ni      -0.12828225      10.98660469       3.07961589      -0.00784032      -0.00683045      -0.00510537      -6.13127513
Al       1.37215318      12.43747323       4.39280580       0.00557591       0.00630929       0.01161070      -4.69406374
Ni      -0.19597474      11.23841235       5.71972679       0.00388670       0.00628874      -0.00643582      -5.97935107
Al       0.99022081      12.72775959       7.28188349       0.00221871       0.00217282      -0.00023591      -4.11746275
Al       1.46374400      12.54636000       9.94012823      -0.00119209       0.00039024      -0.00216340      -3.74865764
Ni      -0.06779530      11.10897546      11.24556760       0.00284456      -0.00653470       0.00008643      -5.90243779
Al       1.37827945      12.46362939      12.76293343       0.00832432      -0.00644049      -0.00351772      -4.13436202
Al       4.34663296       1.33150884       1.65937859       0.00304472       0.00365404       0.00879188      -4.17184113
Ni       2.83947099      -0.04300949       3.00663147      -0.00306033       0.00151335       0.00398295      -6.04036210
Al       4.31207173       1.41072605       4.45099573      -0.00130081      -0.00706889      -0.00271663      -4.25124375
Ni       2.73970844       0.02935138       5.61965082      -0.00016101      -0.00246065      -0.00764359      -5.96123790
Al       4.13725719       1.21672488       7.24896364       0.00358641       0.00259721       0.00552201      -3.99016531
Al       3.80110903       1.47405153      10.09180728       0.00531363      -0.00116633       0.00513765      -4.28167696
Al       4.08789787       1.49346907      12.88206056      -0.00557318      -0.00271152      -0.00844602      -4.14257029
Al       4.88264226       4.25714664       1.24869241      -0.00312400      -0.00388955       0.00497889      -3.81225404
Al       3.87913722       4.06215812       3.79605579      -0.00195119       0.00211431       0.00433283      -4.12621644
Al       4.26219235       4.01105752       6.75211329      -0.00366582      -0.00078841      -0.00020709      -4.16521158
Ni       2.76814139       2.86172601       8.33579796       0.00469495      -0.00200383      -0.00896247      -5.90934971
Al       4.27803368       4.18592755       9.75358202      -0.00836646      -0.00299721       0.00320068      -4.39049114
Al       4.07287810       4.20483250      12.61570067      -0.00458300       0.00013744      -0.00226246      -3.97690329
Al       3.87119604       6.74599962       1.75283886      -0.00564901       0.00253240       0.00794608      -4.00714294
Al       4.84262281       6.50593179       4.51177390       0.00266048       0.00995602      -0.00455603      -4.14203161
Ni       2.85690869       5.56329583       5.48034139      -0.00988751       0.00306869       0.00161694      -5.96939533
Al       4.24249423       6.96819761       7.03095583      -0.00085921       0.00119457       0.00573523      -4.31472451
Ni       2.84035524       5.48794636       8.28915446      -0.00085071      -0.00140697       0.00556018      -6.21724702
Al       4.26549242       6.97027781       9.76317567       0.00222819       0.00540497      -0.00559603      -4.59417292
Ni       2.80124681       5.64745386      11.15933390      -0.00417883      -0.00843206       0.00665459      -5.98857760
Al       4.25739940       6.94554051      12.76797680       0.00218670       0.00191276      -0.00482940      -4.28592423
Ni       2.69566523       8.18531357       0.13465076       0.00222970      -0.00100327      -0.00145292      -5.99998898
Al       4.27239160       9.46953011       1.51276061       0.00199605      -0.00054362      -0.00869672      -4.53013894
Al       4.00506996       9.27479412       4.31510739       0.00660803      -0.00335816       0.00723259      -4.12941683
Al       4.19497891       9.76524840       6.93084210       0.00520851      -0.00403707       0.00308262      -4.05971473
Ni       2.69513371       8.37180443       8.36877956       0.00491574       0.00204634      -0.00424311      -6.14584739
Al       4.04235811       9.86261186       9.83141973       0.01215027       0.00545090      -0.00416764      -4.62463088
Ni       2.82455746       8.25147192      11.28848106      -0.00283555       0.00557880       0.00349570      -6.17850779
Al       4.14706625       9.78279712      12.64403269       0.00609383      -0.00243745       0.00053246      -4.50567969
Ni       2.82424858      10.87147073       0.26323204      -0.00538013      -0.00786530       0.00156887      -6.00992347
Al       4.28956834      12.36900433       1.63812400       0.00022149       0.00097164       0.00478208      -4.43768636
Ni       2.84994157      10.97995700       2.97413717       0.00230484       0.00495386       0.00187883      -6.16428999
Al       4.26167890      12.26115914       4.56224451      -0.00017836       0.00487420       0.00288319      -4.40927301
Al       3.64742848      12.31590974       7.36172307      -0.00143577       0.00265482      -0.00089699      -4.08866498
Al       4.15956345      12.65934284       9.97576823       0.00288764      -0.00447752      -0.00545579      -4.09522493
Al       4.16245037      12.46403621      12.83676764       0.00594337      -0.00189836       0.00255474      -4.36456558
Ni       5.68763180      -0.05805972       0.13888287      -0.00048561      -0.00285683      -0.00109894      -5.91474126
Al       7.09513955       1.45047522       1.45133535      -0.00521620      -0.00471656      -0.00516297      -4.19025970
Al       6.98853056       0.91615286       4.16884463       0.00136868      -0.00063523      -0.00301375      -3.81284043
Al       6.68056119       1.91316481       6.69049639      -0.00198110       0.00000538       0.00405938      -3.99750819
Al       6.58586477       1.49820827       9.57455151       0.00870849      -0.00080888      -0.00010263      -4.50233293
Ni       5.51879673       0.13167078      11.35953610       0.00306218      -0.00836965      -0.00331367      -6.18276954
Al       7.04761666       1.53281691      12.66103959      -0.01087686      -0.00185402      -0.00030765      -4.36569535
Al       7.59094093       4.15802559       1.97219460      -0.00330805      -0.00087429      -0.00447548      -4.32790996
Ni       5.75378152       2.77074148       2.98945711      -0.00713316       0.00110341      -0.00021907      -5.78039876
Al       6.75871825       4.11613551       4.68231620       0.00371657      -0.01602208       0.00566863      -3.83068788
Al       6.82627658       4.73007837       7.32627755       0.00726455       0.00093023      -0.00054089      -3.77588351
Al       6.99220337       4.17255111      10.01691287      -0.00014043       0.00345110      -0.00064370      -4.17437901
Ni       5.48917412       2.75249926      11.29261815      -0.00427512       0.00022946      -0.00528665      -5.89943412
Al       6.81319610       4.25252491      12.75784591       0.00411602      -0.00213584       0.00609931      -4.42913463
Al       6.62621160       6.69522625       1.20814426      -0.00283661      -0.00177575       0.00390228      -4.34994957
Al       7.49806548       6.65661366       3.91387509      -0.00750302      -0.00755489      -0.00106823      -3.83635135
Al       6.94401747       7.39517155       6.68024718      -0.00026782      -0.00197041       0.00159574      -3.77388386
Al       7.04032511       6.98996761       9.62701484      -0.00006486      -0.00749010      -0.00340205      -4.26009338
Al       6.95000527       7.05730270      12.45399417      -0.00218962      -0.00783994      -0.00160404      -4.31007004
Al       7.09477039       9.54628802       1.62245302       0.00628467       0.00053055      -0.00270395      -4.22849621
Ni       5.64182571       8.07365132       2.93668040       0.00339846      -0.00326954      -0.00607206      -5.88634383
Al       6.95710191       9.25629742       4.53175484       0.00225649      -0.00268706      -0.00011778      -3.98736292
Al       7.11201029      10.16901666       7.05189196       0.00244285       0.00095972      -0.00335239      -4.00609234
Ni       5.62726355       8.54823819       8.40711124      -0.00451363      -0.00369270      -0.00002395      -6.04241267
Al       7.10247483       9.86027688       9.85030916      -0.00746201       0.00243547       0.00175451      -4.23175465
Ni       5.56144180       8.49492445      11.14391789      -0.00160464       0.00495058      -0.00039141      -6.05924258
Al       6.96526545       9.77432798      12.73592984      -0.00551285       0.00199441      -0.00020355      -4.17058652
Al       6.96923596      12.43621651       1.88974640      -0.00060135       0.00251811       0.00507360      -4.03529049
Ni       5.58477663      10.75724817       3.12510314       0.00635512       0.00122552      -0.00270922      -6.01480895
Al       7.10110971      11.99314733       4.64999076      -0.00047279      -0.00574130      -0.00423545      -3.87987501
Al       6.43733230      12.97752848       7.09679557       0.00143425       0.00039001      -0.00334643      -4.06537249
Ni       5.52094833      11.21002362       8.49957217      -0.00295633       0.00205954       0.00048752      -5.99463519
Al       7.03072522      12.67108729       9.87529284       0.00012573       0.00242885      -0.00015785      -4.33055022
Ni       5.62605568      11.22232478      11.24716554       0.00349907      -0.00523505      -0.00121876      -6.15418187
Al       7.04732951      12.49809549      12.82641091       0.00545137      -0.00588482       0.00346236      -4.11709276
Al       9.87954284       1.31639861       1.39010183      -0.00893412       0.00127081      -0.00087287      -3.98975353
Al       9.45550387       1.90222904       3.95652997       0.00447660      -0.00379154      -0.00211938      -3.89348760
Al       9.61458706       1.67086379       6.83372522      -0.00149599      -0.00091275      -0.01308799      -4.44543237
Ni       8.14379180       0.31417536       8.18012250      -0.00411094      -0.00262387      -0.00410020      -5.88242035
Al       9.51910619       1.54126687       9.75128222       0.00753380       0.00109486       0.00236906      -4.49841309
Al       9.70288599       1.53074951      12.52742277       0.00505273      -0.00203854      -0.00588007      -4.32734742
Ni       8.55298374       2.90256086       0.14323229       0.00207555       0.00668443      -0.00185586      -5.91520818
Al      10.43219618       4.22616124       1.19916409      -0.00053752       0.00357613      -0.00055488      -4.05560336
Al       9.52140426       4.67609622       3.98124363       0.00215020      -0.00441600      -0.00062429      -4.06569130
Al       9.56583899       4.38111521       6.83345604       0.00341937      -0.00040485      -0.00069367      -4.36771246
Ni       8.17674590       2.90864473       8.27108217      -0.01517169       0.00234216       0.00232803      -5.90246771
Al       9.70951037       4.31802839       9.59356388       0.00358832       0.00729715       0.00473249      -4.26811635
Al       9.75785815       4.20267694      12.37767432      -0.00051180       0.00186133       0.00802896      -4.38409172
Ni       8.44376038       5.47734859       0.01228339      -0.00325111      -0.00489827      -0.00287242      -6.13249479
Al       9.49329542       6.72146953       1.78340964       0.00183734      -0.00541978      -0.00545377      -4.07467244
Al      10.07922223       7.66152866       4.21091147      -0.00664519      -0.00074784       0.00106201      -3.84809704
Al       9.60655711       7.20408281       6.85900263      -0.00344177       0.00026190      -0.00610620      -4.10583269
Al       9.88336468       7.07531725       9.92117087      -0.00581226      -0.00278346      -0.00532679      -4.32592345
Ni       8.40038658       5.71593350      11.19809117      -0.00474828       0.00098089       0.00465688      -5.85007845
Al       9.92561846       6.97562017      12.74209594       0.00013777       0.00133083      -0.00056287      -4.17766610
Ni       8.39864465       8.12711049       0.13831919      -0.00634680       0.00403679       0.00307146      -5.90736222
Al       9.83000365       9.43968068       1.52458072       0.00021756      -0.00036577      -0.00267128      -4.27082885
Al       9.43384680      10.30988191       4.36250259      -0.00071649       0.00367129      -0.00043941      -3.80547389
Al       9.80888413       9.99638529       7.02121251      -0.00015961       0.00162586      -0.00272584      -3.71399319
Al       9.75743357       9.83620274       9.76940872       0.00775916       0.00787445      -0.00217898      -3.90352503
Al       9.71171349       9.69212624      12.58364425       0.00452756       0.00412780       0.00533403      -4.19642069
Al       9.55035151      12.39806265       1.24733009       0.00287497      -0.00404796      -0.00281807      -4.11550340
Al       9.58498221      12.97610211       3.83586236       0.00134289      -0.00165179       0.00448367      -4.04502749
Al       9.27357181      12.71275358       6.61079205       0.00302926       0.00108360       0.00159990      -4.04086795
Al       9.77712952      12.61031857       9.46330785      -0.00440732       0.00170946       0.00765518      -4.19816858
Al       9.63814948      12.52136609      12.45497465      -0.00058809      -0.00334022       0.00537153      -4.23787459
Ni      11.15384936      -0.08692314      -0.15034933      -0.00066857      -0.00599439      -0.00038356      -6.05317481
Al      12.55211251       1.59593058       1.23210707       0.00114488       0.00377834      -0.00167985      -4.24787071
Al      12.37620858       1.60449853       3.85957139       0.00226026       0.01496254      -0.00128844      -4.42880432
Ni      10.88928898       0.37075373       5.33656920       0.00360180      -0.00098989       0.00400891      -5.98771140
Al      12.39829789       1.66785643       6.83721659      -0.00322194       0.00126013      -0.00041467      -4.25547478
Al      12.42487727       1.39669627       9.48293528       0.00341012      -0.00181183       0.00793218      -4.07900992
Ni      11.03793509       0.07063662      10.98954380      -0.00281706       0.00351438       0.00429413      -6.13782492
Al      12.52263390       1.44229298      12.41112684      -0.01291861       0.01082132      -0.01210151      -4.63711787
Al      13.28427725       4.40952744       1.29894847      -0.00503323      -0.00264094      -0.00068656      -3.83104030
Al      12.35885359       4.40857581       3.80534862       0.00429293      -0.00292870      -0.00077255      -4.23928474
Ni      10.99716313       3.09109678       5.31632581       0.00019842      -0.00146911      -0.00283882      -6.12203626
Al      12.50830003       4.41461041       6.81788879      -0.00051142      -0.00223078      -0.00267505      -4.44294378
Al      12.44866469       4.22252784       9.49778274      -0.00099646       0.00260836      -0.00004310      -4.27647541
Ni      11.17004653       2.81799830      10.98782665       0.00173019      -0.00661699      -0.00654418      -6.01285694
Al      12.44150107       4.30507926      12.55333903       0.00408088      -0.00277300      -0.00095688      -4.14904675
Al      12.15457645       6.83382955       0.99641030       0.00329868       0.00201014      -0.00043507      -3.54219395
Al      12.77810161       7.16963845       3.70518032      -0.00109019       0.00460348      -0.00097096      -3.93176265
Ni      11.11978856       5.78585875       5.40680758      -0.01002478       0.00101067      -0.00399184      -6.02627871
Al      12.57021820       7.24153235       6.66140671       0.00135656       0.00430671       0.00187253      -4.52611301
Ni      11.05385558       5.81281015       8.14698690      -0.00455964       0.00010049       0.00264538      -6.01186091
Al      12.66157739       6.86009178       9.55571003       0.01321444       0.00312787       0.00889096      -4.06877612
Al      12.55031523       7.06130607      12.22416677      -0.00404722       0.00161780       0.00143923      -3.48892365
Al      12.57178189       9.52240843       1.54826183       0.00696974       0.00641330       0.00394996      -4.09844551
Al      12.20750999       9.77024871       4.42057386      -0.00058544       0.00476275       0.00130133      -4.16864413
Al      12.51367702      10.04899681       7.20931426      -0.00126148      -0.00419064       0.01422405      -4.20292591
Ni      11.17955779       8.39712575       8.33233630       0.00586597       0.00619859      -0.00450339      -6.00891692
Al      12.51182342       9.53512058      10.01552065       0.00263677       0.00234057      -0.01133898      -4.50524595
Al      12.53662854       9.73023673      12.74574480       0.00907333      -0.00512351      -0.00210046      -4.09817383
Ni      11.12407165      11.00997097       0.09193956       0.00515394       0.00701743       0.00859762      -6.12928225
Al      12.58614678      12.46551887       1.43666225       0.00151323      -0.00271616      -0.00912082      -4.64633912
Ni      11.03714870      11.10423649       2.72354961      -0.00123393       0.00310888      -0.00007645      -5.98794610
Al      12.32413170      12.63982766       4.15216802      -0.00282774       0.00407200       0.00861861      -4.56900040
Al      12.11180870      12.70616316       6.96128379      -0.00369578      -0.00247094      -0.00540327      -4.11462574
Al      12.58313386      12.51621459       9.64347270       0.00190620       0.00104215      -0.00492971      -4.11790955
Ni      11.18391232      11.20470552      11.19367617      -0.00367806       0.00691187       0.00429396      -6.06590425
Al      12.61139743      12.55535615      12.60540153      -0.00881605      -0.00073215      -0.00206705      -4.57651245
