139
Lattice="13.431271693239754 -0.389062130159217 0.01919795811111301 -0.3859196796244578 13.523348993655107 0.07726495732333595 0.019579438894154543 0.07917385286381211 12.766636680519989" Properties=species:S:1:pos:R:3:forces:R:3:energies:R:1 rep=5 n_sites=250 energy=-563.7066650390625 stress="0.00020398928609210998 -0.0004956271732226014 6.412449147319421e-05 -0.0004956271732226014 -0.00012552512635011226 -0.00043409099453128874 6.412449147319421e-05 -0.00043409099453128874 -6.077291982364841e-05" free_energy=-563.7066650390625 pbc="T T T"
Al       2.08248798       0.27772947       1.11519722       0.00297686       0.00570954      -0.00241267      -3.68041492
Al       2.02798044       1.90863627       3.51919123       0.00510662       0.00197703      -0.00124004      -4.03805971
Ni       0.74302925       0.43901818       4.93587955       0.00300941      -0.00624642      -0.00237596      -6.00649828
Al       1.96452042       1.71960985       6.63035107       0.01019257      -0.00556976      -0.00717422      -4.04216444
Al       0.53139780       1.82130917       8.91757362       0.00130476      -0.00168674      -0.00195761      -3.98832887
Ni      -0.45023318       0.33878484      10.54060290      -0.00070537      -0.00603179       0.00051406      -5.94799727
Al       1.35381860       1.67959185      11.58094412      -0.00048164       0.00383165      -0.00299968      -3.86130416
Al       0.45084687       3.06362446       1.04507754       0.00192148       0.00257141      -0.00037245      -3.69748914
Al       2.06424764       4.64039294       2.72637701      -0.00120546      -0.00886302      -0.00746024      -3.83593988
Al       1.16258738       4.05596314       5.16993847       0.00067201       0.00015689       0.00021861      -3.83390903
Al       0.80536124       4.30277176       7.74770829      -0.00627155       0.00042166       0.00632456      -3.69243467
Al       0.65448713       4.19258380      10.42147563      -0.00407286       0.00592258      -0.00028692      -3.67061293
Al       0.32271991       6.00195780       1.29044046       0.00278025      -0.00778146       0.00787574      -3.67532599
Al       1.38294121       7.38443018       3.45896188      -0.00014555       0.00122890      -0.00468077      -3.88132936
Al       0.98889736       6.69074494       6.15335772      -0.00158170       0.00685239       0.00371295      -4.21411270
Al       1.86671461       6.81080130       8.86670511      -0.00535454       0.00143987      -0.00015837      -3.93141413
Al       0.89007173       6.78143353      11.55345538       0.00086006      -0.00214095      -0.00587422      -3.66646159
Al       1.70906802       8.61951079       1.04012398      -0.00560757      -0.00049313      -0.00242435      -3.71714330
Al       0.59763810       9.90339285       3.87343566       0.00468427       0.00139420       0.00328699      -3.60844898
Al       1.70483922       9.57268090       6.37337131       0.00363448      -0.00233657      -0.00127479      -3.99247158
Ni       0.28700904       8.31372894       7.82595602       0.00860159       0.00007460       0.00035265      -5.85409784
Al       1.65491748       9.64681664       9.36166186      -0.00422803      -0.00295871      -0.00609848      -4.07557434
Al       0.12189224       9.60268026      11.82848715       0.00046238      -0.00218477      -0.00566399      -3.62829173
Al       0.22232240      11.10047126       1.51492529       0.00089232      -0.00825928       0.00514359      -3.71036983
Al       1.73245598      12.42835318       3.67009083      -0.00214563      -0.00020564       0.00224966      -4.03075838
Al       1.89336114      12.30650921       6.63053146      -0.00206755       0.00407004       0.00105165      -4.16178608
Ni       0.17498682      10.87036929       7.87812276       0.00356045       0.00245333       0.00538748      -5.88407111
Al       0.99896771      12.64083143       9.31015597      -0.00192752       0.00282064       0.00232929      -3.99938816
Al       0.47357202      12.32352601      11.93260906      -0.00306682      -0.00779667       0.00242490      -3.83057332
Al       4.86408464       0.07610122       0.97538660       0.00266024       0.00688188       0.00338051      -3.68563175
Al       4.73885122       1.57691357       3.36351761       0.00185448       0.00226922      -0.00032119      -3.89108789
Ni       3.33407792       0.43709018       5.05738728      -0.00195812      -0.00023856       0.00526656      -5.92995822
Al       4.53471251       2.23211848       6.36366008      -0.00048240      -0.00111644      -0.00145921      -3.81152213
Al       3.55552921       0.72867345       8.83828031      -0.00528729       0.00149435      -0.00354070      -3.70541644
Al       3.48768406      -0.27790535      11.40664428       0.00389895      -0.00126654       0.00130945      -3.75605273
Al       3.31931139       2.81844378       1.17409800      -0.00378264       0.00423497       0.00117390      -3.89076698
Al       4.53039893       4.27643027       4.09944388       0.01117465       0.00000711       0.00214044      -3.92228854
Al       3.67654700       4.90843717       6.65822863       0.00255617       0.00360306      -0.00268969      -3.94349527
Al       3.08493761       3.38992742       8.77027336      -0.00040593      -0.00475493      -0.00187074      -3.71423078
Al       3.96504764       2.49123543      11.20891234      -0.00016217       0.00005269      -0.00227372      -3.86077070
Al       3.24719132       6.09648833       0.62331995      -0.00202657      -0.00173753       0.00482982      -3.87644720
Al       4.17450265       6.98187006       3.09296424      -0.00206661       0.00570145      -0.00305298      -3.87064964
Ni       2.74505834       5.85972971       4.69972254       0.00532634       0.01027342       0.00625849      -5.75740159
Al       3.75714427       7.71455991       5.87689908       0.00216493       0.00000715       0.00182089      -3.89357793
Al       4.49245943       6.23756290       8.85689339      -0.00456208       0.00017781       0.00613645      -3.62746739
Al       3.14470380       5.10801683      10.91976245      -0.00248639      -0.00503103       0.00019975      -3.83170617
Al       4.30766474       8.79557307       0.95934595       0.00969206      -0.00130905       0.00202447      -3.63937569
Al       3.27345758       9.70954907       3.55847135       0.00545216       0.00112265       0.00223326      -3.73263872
Al       4.24163400      10.45874529       6.07888571       0.00075228       0.00023609       0.00713291      -3.62911630
Al       4.35529682       8.91029479       8.50347330      -0.00217723       0.00308904      -0.00249237      -3.70152473
Al       3.31665679       7.88149715      11.01044295      -0.00117642      -0.00240787       0.00343942      -3.69963646
Al       2.95089263      11.34720964       1.38226973      -0.00549783      -0.00028515      -0.00195866      -3.71808720
Al       4.43035483      12.33968962       3.97415178       0.00371842       0.00037923       0.00470442      -3.89188510
Al       4.63348019      13.07981202       6.76442068       0.00021134       0.00118738      -0.00111152      -3.89392179
Al       3.80395115      11.54984228       9.17299928      -0.00038143      -0.00339212      -0.00511957      -3.66395330
Al       2.86338786      10.47151393      11.63997842       0.00363414       0.00106529       0.00213070      -3.66477764
Al       7.37777880       0.13407598       2.04282403       0.00259797       0.00161947      -0.00249522      -3.67821240
Al       7.02271278       0.49608794       4.73153411       0.00267073      -0.00500280      -0.00265726      -3.83177686
Al       7.37638373       1.41735084       7.22257235       0.00206895      -0.00006668      -0.00038803      -3.90089840
Al       5.72020285       2.42688745       9.04007665       0.00088582      -0.00115063       0.00103419      -3.71640670
Al       6.22767082       1.04572258      11.46220704      -0.00043327      -0.00302232      -0.00397127      -3.65741432
Al       6.13828949       2.55759188       0.97253057       0.00229350      -0.00060780      -0.00047578      -3.88679552
Al       6.99704437       3.13845025       3.48320380      -0.00366564       0.00050130       0.00437570      -3.90314341
Al       6.50399376       3.95448002       6.03261472      -0.00288203       0.00261970      -0.00603508      -3.81779611
Al       6.87568155       4.83383423       8.58767356       0.00092159       0.00084956       0.00443187      -3.83888519
Al       6.78304506       3.81342609      11.30757772       0.00123742      -0.00272846      -0.00326580      -4.13331985
Ni       4.72733169       4.27398416      -0.16893053      -0.00716298      -0.00232122      -0.01051256      -5.76639265
Al       5.93975422       5.29630146       1.60312450       0.00370225       0.00328161       0.00235331      -3.90911645
Al       6.63931649       6.12448227       4.02245260      -0.00127968       0.00208807       0.00117232      -3.82202554
Al       6.19648215       6.61135487       6.69761762      -0.00727689      -0.00390701       0.00022677      -3.84547901
Al       6.98245861       7.68943922       9.20501629       0.00408499      -0.00619245      -0.00004067      -3.99048579
Al       5.72160620       6.33715492      11.57124277       0.00557283       0.00345555      -0.00402284      -4.11041182
Al       6.95777056       8.87237677       1.07994332      -0.00852803       0.00127588      -0.00262105      -3.61773717
Al       5.87523434       8.92151002       4.04328066      -0.00503977      -0.00075030       0.00033164      -3.88643497
Al       6.55180340       9.35808505       6.82662501       0.00472543       0.00112838      -0.00415969      -3.87822664
Al       6.53235107      10.53492135       9.25768861      -0.00058823       0.00169849       0.00440858      -3.72663879
Al       5.67959819       9.10403401      11.35611690      -0.00101334      -0.00278725       0.00146728      -3.66229916
Al       5.60266042      11.11157489       1.85992029      -0.00013281       0.00242914      -0.00530231      -3.65835059
Al       7.08133062      11.42698694       4.19399191       0.00085797       0.00477853      -0.00117134      -3.63158917
Al       7.23566563      12.04060334       6.96506541      -0.00142535      -0.00053910       0.00169216      -3.66281819
Al       5.97495029      13.20663978       9.21166242      -0.00249332      -0.00186152      -0.00385998      -3.76072693
Al       5.45392475      11.80066003      11.74493751      -0.01011209      -0.00173884       0.00119896      -3.68462932
Al      10.03478144       0.16493680       1.24861813       0.00071121      -0.00493364       0.00113206      -3.65874267
Al       9.70499367       1.02205840       3.80800141       0.00350661      -0.00300703      -0.00611413      -3.97211301
Al      10.16959751       1.47268487       6.54964227       0.00371782       0.00141880      -0.00757360      -3.99470383
Al       8.50176018       1.41203905       9.72306485       0.00066460      -0.00212383       0.00567254      -3.64391136
Al       9.12175144       2.28746864      12.21708904      -0.00929507      -0.00286308       0.00306438      -3.58968878
Al       8.58346933       3.85095523       1.52329539       0.00039690       0.00192576       0.00132924      -3.61159813
Al       9.95172392       3.70329959       3.93033515      -0.00658326      -0.00128239       0.00090355      -3.83664143
Ni       8.37635277       2.42025877       5.29982421       0.00032823       0.00117667       0.00003964      -5.72907674
Al       9.10548394       4.15457220       6.72828274      -0.00384265       0.00129792       0.00130821      -4.16307503
Al       9.34290467       4.02502483       9.71149246       0.00140192       0.00623572       0.00677004      -3.99799871
Al       9.50906311       5.26568807      12.17387116       0.00111786      -0.00221410       0.00401062      -3.89292657
Al       8.40037137       6.59526693       1.62266534      -0.00244829      -0.00403720      -0.00169636      -3.86799490
Al       9.29117713       6.23330829       4.32103181      -0.00008070       0.00119430      -0.00211214      -4.14652854
Al       9.08810415       7.06283939       7.08626760       0.00136357      -0.00007938       0.00433725      -4.21904540
Al       9.90174483       6.88511384       9.64675331       0.00128858      -0.00769937      -0.00796963      -4.07711816
Ni       7.87041746       5.82299452      10.52961390      -0.00514222      -0.00746441      -0.00499795      -5.76241583
Al       8.28573056       7.81532748      11.74345243      -0.00456697       0.01551530       0.00560674      -3.93881851
Al       9.78676664       8.94362479       0.86540270       0.00206801       0.00556011      -0.00311729      -3.94254643
Al       8.63109237       9.05457497       3.44991048       0.00512430       0.00421527      -0.00117934      -4.28081620
Ni       7.74081069       7.91397619       5.33069159      -0.00235239       0.00072401       0.00422795      -5.89897579
Al       9.13266244       9.91131298       6.14912707       0.00333105      -0.00617442      -0.00670345      -4.01638794
Al       9.27367632       9.56499479       9.04131203       0.00203543       0.00072522      -0.00016182      -3.65198016
Al       8.10720444      10.50412893      11.60285838       0.00004191      -0.00410667      -0.00453847      -3.76983714
Al       8.29750971      11.24211574       1.59373775       0.00184037       0.00207406       0.00276616      -3.74073255
Al       9.75920355      11.85890226       3.94439762       0.00779044       0.00317948       0.00184682      -3.85797018
Al       9.97709969      12.29154525       7.01392464      -0.00128843       0.00105329       0.00164416      -3.76724792
Al       8.70173788      12.25986918       9.47633966      -0.00343463       0.00395378      -0.00599739      -3.71193779
Al       7.95456324      13.12980659      12.11403656       0.00041733       0.00125846       0.00364002      -3.66743100
Al      12.77155486       0.13929505       0.63358343      -0.00381683      -0.00417292      -0.00629790      -3.77632570
Al      12.65362915       1.27093256       3.34359648       0.00120417      -0.00150147      -0.00398716      -4.05290133
Ni      11.55773670      -0.02252431       5.09186126      -0.00613577      -0.00225831      -0.00677531      -5.89324123
Al      12.81750875       1.69677959       6.30295094      -0.00164054       0.00722605       0.00008297      -4.08414418
Al      11.11673632       0.60373443       9.03986248      -0.00079179       0.00517930       0.00487493      -3.81944656
Al      11.89477732       2.00724108      11.37087064      -0.00113021       0.00313044       0.00145834      -3.87802291
Al      11.10129173       2.63915446       1.43516632       0.00063814      -0.00088999       0.00034963      -3.72426963
Al      12.65372940       3.99622288       3.31391388      -0.00176179       0.00028450      -0.00224981      -3.69932127
Al      11.98989053       4.34295254       6.02458742       0.00116195      -0.00444108      -0.00283602      -3.91191763
Al      11.75723870       3.21230066       8.62196653       0.00058581      -0.00266522      -0.00314648      -3.92816305
Al      12.17047244       4.56763793      12.18685888       0.00233555      -0.00487691       0.00114628      -3.63011038
Al      10.96943885       5.48780947       1.74216267      -0.00311240       0.00417873       0.00637232      -4.01970500
Al      12.16679486       6.70783485       4.11192067      -0.00290713      -0.00068548      -0.00529450      -4.11785555
Al      11.77884643       6.93516649       6.80000209      -0.00072433       0.00306145      -0.01040046      -4.16378391
Ni      10.67445286       5.24760126       8.04062234      -0.00722064      -0.00233751       0.01260573      -5.74779886
Al      12.61194719       6.03621847       9.29981642      -0.00110707      -0.00076188       0.00089538      -4.09549791
Al      11.61778873       7.25823914      11.75309619       0.00150258       0.00363065      -0.00439537      -3.63439238
Al      12.49732433       8.09263716       1.53752521      -0.00318807       0.00234617      -0.00947690      -3.99775785
Ni      10.43530800       7.59849295       2.69430423       0.00275902      -0.01246700       0.01164386      -5.85986960
Al      11.36563258       9.61631536       3.56219561      -0.00269356      -0.00054246       0.00336309      -4.12706357
Ni      10.38257259       8.14824613       5.21298041      -0.00249086       0.01359309       0.00766686      -5.96022683
Al      12.24124532       9.46057739       6.20798479      -0.00103746       0.00246546       0.00594065      -4.23333710
Al      12.14645283       8.90221492       9.29439162       0.00002411      -0.00509785       0.00315243      -4.05254900
Al      10.80431097       9.91871085      11.35770154       0.00284653      -0.00623987       0.00760612      -3.61772549
Al      11.02638385      11.32756711       1.28256829       0.00905070       0.00286980      -0.00043302      -3.66996646
Al      12.46511726      12.03243076       3.67434326       0.00623251       0.00685459       0.00207964      -4.03543854
Al      12.63207923      12.24416860       6.64202744       0.00451732      -0.00280438       0.00334492      -4.22756934
Al      11.74763863      11.57248495       9.20626688       0.00068924      -0.00174774       0.00340519      -4.06784374
Al      10.58867062      12.63337100      11.62259002      -0.00392777       0.00148423      -0.00525630      -3.93412489
