108
Lattice="10.140216891296074 -0.7356225521251682 0.6995313713430539 -0.8199620969961928 11.381160829179265 0.009302097204092667 0.7874881313424512 -0.00498700354150143 11.329289269957783" Properties=species:S:1:pos:R:3:forces:R:3:energies:R:1 energy=-591.6482905479214 stress="2.161429092285086e-06 -0.0003612970678096783 -0.00047670883696436815 -0.0003612970678096783 -0.000750242591357974 -0.00015441272562485893 -0.00047670883696436815 -0.00015441272562485893 0.0005464847076512193" free_energy=-591.6482905479214 pbc="T T T"
Ni      -0.08611197      -0.18736945       0.33459484      -0.00393874       0.00126949      -0.00102920      -6.14461874
Al       1.28173748       1.36222641       1.61675184      -0.00015940       0.00809640      -0.00138943      -4.71316114
Ni       0.04851403      -0.15212847       3.03801570       0.00069809       0.00112332       0.00409126      -6.00517589
Al       1.35258305       1.29866365       4.46392564      -0.00453793       0.00122643       0.00317157      -4.77600766
Ni       0.08013165      -0.24758693       5.92158473       0.00117113      -0.00044083      -0.00317675      -5.93386083
Al       1.59550666       1.19732983       7.24670927      -0.00030506      -0.00244154       0.00004918      -4.73971377
Ni       0.45712576      -0.21377006       8.91870466       0.00613714      -0.00357803      -0.00236625      -6.02469671
Al       1.92171266       1.27999424      10.14711743      -0.00130905       0.00292438       0.01119242      -4.71750212
Ni      -0.24139223       2.69060250       0.21967265       0.00018981      -0.00801203      -0.00406939      -6.16731385
Al       1.08383088       4.16838556       1.66610053      -0.00262091       0.00726830      -0.00763403      -4.65516450
Ni      -0.19123252       2.67281393       3.14301394      -0.00063384      -0.00674386       0.00630436      -6.14196456
Al       1.24393267       4.09057049       4.47845054       0.00448988       0.00815401      -0.00075449      -4.71456188
Ni      -0.05272821       2.57784151       6.04582764      -0.00214904       0.00034412      -0.00795266      -6.14532428
Al       1.51587099       4.07772937       7.22970868      -0.00797421       0.00172812       0.00149399      -4.70967026
Ni       0.32840030       2.59384987       8.81714267      -0.00429407      -0.00076626       0.00020640      -6.17640338
Al       1.89452596       4.15404802      10.05772939      -0.00851407      -0.00269882       0.00516541      -4.78817641
Ni      -0.46292950       5.42461490       0.15170924      -0.00305126      -0.00134866       0.00581158      -5.97705271
Al       0.68824056       6.94666950       1.64789046      -0.00339301       0.00239018       0.00381585      -4.82266354
Ni      -0.52828335       5.38670242       3.28043205       0.00534667       0.00752908       0.00141406      -6.19692760
Al       0.94904507       6.99862118       4.49560902      -0.00000789      -0.00923602       0.00394945      -4.81532524
Ni      -0.16976224       5.30783047       5.98045879       0.00257734       0.00250686       0.00141136      -6.13307451
Al       0.99907711       7.07786612       7.26086060       0.00321532       0.00558179      -0.00102138      -4.84047209
Ni       0.26476647       5.38444746       8.79050609      -0.00411428      -0.00467447      -0.00382218      -5.93660701
Al       1.49381640       7.04241846      10.11459131       0.00061932       0.00232998      -0.00623230      -4.76715564
Ni      -0.91406521       8.23028461       0.26005194      -0.00466775      -0.00787359      -0.00604371      -6.01151399
Al       0.56729890       9.71159220       1.65710933      -0.00707894      -0.00012019      -0.00370926      -4.73452050
Ni      -0.78337562       8.17562788       3.15554226      -0.00320283      -0.00027639       0.00707744      -6.00683615
Al       0.70301255       9.80919254       4.43417309       0.00592896      -0.00051947      -0.00269140      -4.83659053
Ni      -0.61712188       8.48421619       5.99096181      -0.00423645       0.00293267      -0.00521200      -5.92111495
Al       0.90121594       9.83827083       7.28897817       0.00547062      -0.00397731       0.00074415      -4.81133958
Ni      -0.30978774       8.39551788       8.86948383       0.00831117       0.00422112      -0.00103658      -5.91163274
Al       1.19222997       9.77401598      10.15870402      -0.00035228      -0.00036096       0.00795523      -4.74730055
Ni       2.65096451      -0.11574963       0.18406488       0.00593730      -0.00249190       0.00607912      -6.22561454
Ni       2.75614976      -0.04200301       2.89726919      -0.00785498       0.00196188      -0.00109912      -6.08590666
Al       4.42994150       1.29742353       4.14602516      -0.00401310       0.00418449      -0.00042669      -4.84359542
Ni       3.01742504      -0.03160849       5.73084462      -0.00868265       0.00264205       0.00711125      -6.13542794
Al       4.57727981       1.50088653       7.11293947      -0.00697763       0.00174209      -0.00265831      -4.69531350
Ni       3.29405219      -0.08423935       8.59917867       0.00913752       0.00495107       0.00096250      -6.33164619
Al       4.59234293       1.58817071       9.87375029      -0.00475359      -0.00293766       0.00293557      -4.56956320
Ni       2.53809593       2.86246706       0.20259308      -0.00149506      -0.00498952       0.00199187      -6.00821410
Ni       2.71863588       2.78875018       2.96984673      -0.00114755       0.00996474      -0.00666316      -6.12865675
Al       4.02498764       4.45948566       4.29792596      -0.00201755      -0.00589595       0.00241411      -4.74791556
Ni       2.94346211       2.73132367       5.74695258      -0.00352828      -0.00205525       0.00265042      -6.31669790
Ni       2.99816627       2.67997318       8.47011764      -0.00448593       0.00216102      -0.00713622      -6.01173185
Ni       2.29068738       5.69418248       0.18672118       0.00722525       0.00016410      -0.00315091      -6.00060107
Al       3.64884289       7.15239854       1.57158615       0.01545591       0.00063953      -0.00470012      -4.73766413
Ni       2.36105782       5.67871000       2.98047612      -0.00082615      -0.00210535       0.00020166      -5.88810057
Ni       2.57689408       5.71946640       5.82351920       0.00784765      -0.00490994      -0.01283857      -6.11104095
Al       4.21729106       7.26239989       6.91360765       0.00241964      -0.00401559       0.00098460      -4.90142081
Ni       2.84325716       5.82458448       8.43909095       0.00529504       0.00004293      -0.00321614      -6.14617749
Al       4.37412191       7.09742064       9.91459128      -0.00446640      -0.00279950      -0.00187893      -4.91176010
Ni       2.12796410       8.53309759       0.16283629      -0.00269506      -0.00194045       0.00045567      -6.30727347
Al       3.60860519      10.04327452       1.64397357      -0.00480809       0.00335022       0.00388287      -4.75231478
Ni       2.19015799       8.47722679       2.99896426      -0.00452939       0.00038957      -0.00495207      -6.03424965
Ni       2.39897354       8.51294594       5.74401425       0.00764660       0.00207952      -0.00572765      -6.01864360
Al       3.86851446      10.02482082       6.95580598      -0.00276169      -0.00146983       0.00470119      -4.83351899
Ni       2.69879316       8.53266678       8.56670969      -0.00295622       0.00742106       0.00168288      -6.28755726
Al       4.15939329      10.08841813      10.03491467       0.00337598       0.00374333       0.00276281      -4.72294077
Ni       5.66165801      -2.69198610       0.00170048       0.00135797      -0.00274569       0.01120163      -5.89522696
Al       4.22094297       1.35571724       1.39455926       0.00194318      -0.00638667       0.00196030      -4.61632959
Ni       4.48007168      -1.26426963       4.17872770       0.00412720      -0.00277318      -0.00670259      -5.80223465
Al       6.87053149      -0.84784124       3.87127364      -0.00879219      -0.00160457      -0.00292381      -4.78992899
Ni       5.98417732       0.29198180       5.70057722      -0.00422767      -0.00036459      -0.00301155      -5.91417108
Ni       6.01608809       0.07466411       8.39255353       0.00143195       0.00259480      -0.00778776      -5.89324168
Al       7.19242007       1.73995179       9.91705196       0.00684947      -0.00549790       0.00047431      -4.77379114
Ni       4.97059822       3.07472537      -0.00013845       0.00287707       0.00687900       0.00148199      -5.59282207
Al       6.54433060       4.35834010       1.03781960       0.00604150       0.00878998      -0.00508361      -4.68590031
Ni       5.25105604       3.11398181       2.66036647       0.00144744       0.00055289       0.00536381      -5.82462277
Al       6.80827650       4.41717540       3.99929633       0.00639527      -0.00079947       0.01203692      -4.82445613
Ni       5.63896452       2.95116741       5.49256781      -0.00183451      -0.00171637      -0.00239333      -5.90703353
Al       4.42204851       4.28410601       7.22023639       0.00345106      -0.00848268       0.00352293      -4.88421603
Ni       4.42019859       4.32453810       9.71925318      -0.00475488       0.00324812       0.01438139      -5.68676701
Ni       4.88844704       5.69853426       0.00710410       0.01010246       0.00337697       0.00545801      -5.80539084
Ni       5.30178322       5.76784871       2.63754159       0.00174489      -0.01243941      -0.00558754      -5.98994173
Al       6.60214420       7.23152372       4.09805114      -0.00856498       0.00810420      -0.00787299      -4.85710555
Ni       5.61101705       5.71847900       5.65033330       0.00537522       0.00671856      -0.00092431      -5.98055919
Ni       5.73704130       5.98811548       8.29878164       0.01060042       0.01152608       0.00002652      -5.68851197
Ni       6.30986822       7.30188308      -1.47487739      -0.00206655       0.00384875      -0.00202947      -5.68919435
Al       6.46312852       7.25892492       1.03923350      -0.01136814       0.00873912       0.00351968      -4.90418029
Ni       3.93873955       7.09344766       4.25574894      -0.01362576      -0.01099679       0.01458451      -5.80559907
Ni       5.27437711       8.80470057       5.38842480      -0.00106433       0.00688553      -0.00367519      -5.90947846
Al       6.68730435      10.09746204       6.81640154      -0.00448506      -0.00122897       0.00386267      -4.92699302
Ni       5.49593116       8.75613528       8.51138450      -0.00236636       0.00233145      -0.00243456      -5.95336057
Ni       6.94634864      -0.91330787       1.32400597      -0.00203828      -0.00488667      -0.00388206      -5.76350388
Al       8.60689796       0.49238188       2.48638698       0.00089068      -0.00372857      -0.01083113      -4.75822905
Ni       6.04079973      -2.79474254       2.70941748       0.01232213      -0.00492239      -0.00416487      -5.98464475
Ni       8.55695157       0.37213581       5.26564410      -0.00167266      -0.00592716       0.00910852      -5.80277441
Al       8.92497281       0.29930091       8.28799585       0.00395825      -0.00298939      -0.00381832      -4.91632262
Ni       7.55049521      -0.89667816       9.97413730       0.01369038      -0.00253330      -0.00622111      -5.71706151
Al       9.18200086       0.37892477      11.12736971      -0.00224071      -0.00891736       0.00025426      -4.76451574
Ni       6.78424968       1.69500771       1.18631398       0.00566930      -0.00205227       0.00440581      -5.79735525
Al       8.43253728       3.19522252       2.33579584      -0.00017478       0.00566016      -0.00076925      -4.81804236
Ni       7.01236289       1.74477666       3.79968741      -0.00358876       0.00047010      -0.00672360      -5.86602030
Al       8.39371698       2.93058811       5.46517252       0.00887346       0.00253667      -0.00074042      -4.81362519
Ni       7.28554760       1.76721700       7.23481046      -0.00472354      -0.00355694       0.00068325      -5.78985764
Al       8.77009878       3.34064534       8.37674514       0.00603024       0.00447644      -0.00039450      -4.79936748
Ni       8.89265544       3.16352734      10.94505559      -0.00783951      -0.00278758       0.00200622      -5.95295272
Ni       6.24284295       4.40248588      -1.63953566      -0.00797489      -0.00245504      -0.01020064      -5.73950212
Ni       7.99062998       5.82008595       2.38942778       0.00635115       0.00532429       0.00885476      -5.93650785
Al       8.29154453       5.95357626       5.69043135      -0.00172808       0.00166486       0.00756148      -4.80557159
Ni       7.05970387       4.31024554       7.01860396       0.01712624       0.00146259       0.00586966      -5.72124780
Ni       8.48107451       5.97247128       8.22473565       0.00481675       0.00595622      -0.00529707      -5.84997757
Al       8.78101460       5.81426611      10.72410935      -0.00686735      -0.00842630      -0.00275303      -4.87284023
Ni       7.56254924       9.03661625      -0.16710870      -0.00502406      -0.00000434       0.00379421      -5.71697621
Al       7.87058360       8.98761766       2.44472492      -0.00570553       0.00180364      -0.00539403      -4.92779299
Ni       7.87928405       9.05891694       5.01425465       0.00213518      -0.00417910       0.00277176      -5.78461244
Ni       6.92843670       7.54435364       6.81909816      -0.00982213      -0.00956235       0.00440605      -5.74911581
Ni       8.13462864       9.06308574       8.41965591       0.00298585       0.00263018      -0.00605524      -5.62182549
