128
Lattice="11.80506530271308 0.0462939560535197 0.0938952668546886 0.04489060880521317 11.484910200202968 0.020713839599119415 0.09542158529672291 0.02239633531681329 12.135127890882877" Properties=species:S:1:pos:R:3:forces:R:3:energies:R:1 energy=-647.3651012899271 stress="0.0006603835929035102 0.00030106324454222557 0.0005901096576771378 0.00030106324454222557 -1.1738301795387841e-05 0.00017720046987852934 0.0005901096576771378 0.00017720046987852934 -0.00028805680534243154" free_energy=-647.3651012899271 pbc="T T T"
Ni       0.05690740       0.00097747      -0.02907402      -0.00721481      -0.00126364      -0.00068626      -6.14882220
Al       1.37135046       1.54278391       1.32002782       0.00847646      -0.00802997      -0.00185147      -4.40400311
Ni       0.19636763       0.20727908       3.03048700      -0.00567365      -0.00032129       0.00355668      -6.14644173
Al       1.47012313       1.52022232       4.90084585       0.00510335      -0.00390673      -0.00051270      -4.31370492
Al      -0.18253813      -0.32362393       6.53759153      -0.00394735      -0.00936296      -0.00202200      -3.90394012
Al       1.68455786       1.43117426       7.76625506      -0.00041996       0.00287224      -0.00270723      -4.49614955
Ni       0.01936576       0.07042795       9.11245792      -0.00264680       0.00497234      -0.00090435      -6.32459578
Al       1.57640351       1.43654521      10.54838354      -0.00064806      -0.00075145      -0.00453553      -4.56173005
Ni      -0.01158917       2.88398659      -0.22271030      -0.00622139       0.00508858      -0.00208768      -6.17714799
Al       1.36568432       4.32653433       1.20993646       0.00453238       0.00236865      -0.00250062      -4.34322842
Ni       0.21542687       2.99044580       3.14167439       0.00385410      -0.00038339      -0.00448184      -6.31052074
Al       1.61538962       4.39325054       4.90688375       0.01106071       0.00639650      -0.00078590      -4.29774160
Ni       0.28455545       2.99365233       6.40355879      -0.00491559       0.00138203       0.00775797      -6.14356781
Al       1.67153854       4.40657449       7.83012069       0.00329904      -0.00523814       0.00582453      -4.55922193
Ni       0.13661639       2.88993961       9.15064503      -0.00184123      -0.00110128      -0.00016007      -6.18705901
Al       1.59567235       4.39335601      10.52982437      -0.00286122      -0.01039565      -0.00411900      -4.56635802
Ni      -0.05405437       5.80949057      -0.21106266       0.00446516       0.00145829      -0.00258675      -6.22404980
Al       1.43638497       7.18686445       1.29161523      -0.00021166      -0.00241341       0.01017170      -4.38166025
Al       0.02768853       5.71321445       3.02561508       0.01134742       0.00842514      -0.01010463      -3.81334583
Al       1.57290203       7.20657695       4.78985901      -0.00457081       0.00219312       0.00035506      -4.40557141
Ni       0.23384483       5.83753407       6.37792440      -0.00054733      -0.00078153       0.00091760      -6.19015422
Al       1.66979442       7.22981066       7.81883272       0.00359464       0.00037506       0.00307765      -4.50634391
Ni       0.04451909       5.80526990       9.17386388       0.00545182       0.00174560       0.00273444      -6.18033409
Al       1.57071478       7.25022583      10.55493667      -0.00008483       0.00037751      -0.00349823      -4.51930155
Ni       0.00019616       8.63362745      -0.00340239       0.00247953       0.00630947      -0.00032871      -6.17771391
Al       1.39799954      10.00764049       1.53381501       0.00224538       0.00024054       0.00137804      -4.47404938
Ni       0.09810438       8.38338046       3.01366233       0.00158350      -0.00175429       0.00325254      -6.19053129
Al       1.51221939       9.93487097       4.60589014       0.00182469      -0.00425302       0.00585461      -4.37244694
Ni       0.32024573       8.66629127       6.33989611       0.00308339      -0.00283305      -0.00331630      -6.26886391
Al       1.91550834      10.13480105       7.74105228      -0.00301012      -0.00151231      -0.00412664      -4.30130358
Al      -0.31270487       9.09787160       8.74194716       0.00521645       0.00127108      -0.00009279      -4.05476100
Al       1.58190623      10.11506687      10.58874131       0.00100416       0.00067435      -0.00259312      -4.50066945
Ni       2.79163391       0.00111232      -0.01691610       0.00392998      -0.00375957       0.00096393      -6.24061654
Al       4.29324544       1.49485254       1.31220932      -0.00102905      -0.00107490      -0.00039250      -4.21530706
Al       2.85282621       0.14692194       3.15072819      -0.00213870       0.00404375       0.00791113      -3.71713605
Al       4.54253758       1.66507495       4.83073299      -0.00283654       0.00039293       0.00605523      -4.36377637
Ni       3.11990749       0.04590760       5.98072359      -0.00152798       0.00656751       0.00174180      -6.18698552
Al       4.52582362       1.49079230       7.55541629      -0.00017021       0.00836299       0.00577063      -4.45978608
Ni       3.27848132       0.01633251       9.22413807      -0.00297842      -0.00131004      -0.00174953      -6.25101007
Al       4.43277559       1.54233531      10.75496035      -0.00227355       0.00007396      -0.00198710      -4.41802003
Ni       2.82129221       2.93892548      -0.11862521      -0.00118690       0.00111928      -0.00917788      -6.21549005
Al       4.50604586       4.24261447       1.17015785      -0.00689463       0.00096771       0.00388321      -4.42446538
Al       2.91864776       2.99185434       3.04257371      -0.00051953      -0.00318750       0.00095591      -3.75867421
Al       4.48226811       4.38427438       4.84855995      -0.00958061      -0.00069605       0.00576309      -4.37029337
Ni       3.00249186       2.94122031       6.30383486       0.00026281      -0.00281826      -0.00623659      -6.19394807
Al       4.57665854       4.36639974       7.73226252       0.00178488      -0.00086816       0.00122496      -4.54672025
Ni       3.15343185       2.87053119       9.15556495      -0.00613656      -0.00390079       0.00079198      -6.17747910
Al       4.59639850       4.30303005      10.62880496      -0.00091315       0.00007390      -0.00258923      -4.53839823
Ni       2.97231178       5.75107790      -0.06422819      -0.00186013       0.00276388       0.00324577      -6.25912799
Al       4.49906281       7.30517656       1.33090400      -0.00080864      -0.00187104      -0.00392602      -4.49570276
Al       2.99659198       5.76053015       2.89798854      -0.00174233      -0.00248017      -0.00730003      -3.84462275
Al       4.43312263       7.16177146       4.64313127      -0.00067135       0.00317480       0.00038092      -4.40748421
Ni       3.06635391       5.81672188       6.30680923      -0.00153614       0.00129209      -0.00438317      -6.19184432
Al       4.60563316       7.23534924       7.69185870       0.00097605      -0.00674886      -0.00504590      -4.55816814
Ni       3.21556869       5.84521764       9.21115263      -0.00335933       0.00267979       0.00559184      -6.18322539
Al       4.57867984       7.29841585      10.75478226       0.00040261       0.00307498       0.00091544      -4.53628460
Ni       2.77895653       8.62647495      -0.04866397       0.00708415       0.00767898      -0.00342961      -6.15370399
Al       4.19719551       9.98425184       1.45836948       0.00211165       0.00235867      -0.00436315      -4.36988068
Ni       2.86443115       8.44427499       2.97974921      -0.00358280       0.00389459       0.00271602      -6.25000778
Al       4.36332901       9.86743739       4.65810660       0.00519162      -0.00559268       0.00456617      -4.36924597
Ni       3.03148653       8.56102079       6.22484330       0.00516564      -0.00602075      -0.00142155      -6.16694333
Al       4.56524761       9.99865620       7.51182472      -0.00956936      -0.00368328       0.00110122      -4.43942209
Ni       3.22439238       8.68448174       9.22542075       0.00188403      -0.00058134      -0.00032270      -6.17000109
Al       4.45312800      10.00852099      10.86256365      -0.00643181       0.00198953       0.00972091      -4.39982191
Al       6.13593273      -0.01964383       0.15559977      -0.00401001       0.00003718       0.00022286      -3.87800200
Al       7.52504400       1.61907189       1.78199796      -0.00223735       0.00716545      -0.00173487      -4.29806465
Al       5.73460246      -0.02936869       3.07571273       0.00286976       0.00658777       0.00900927      -3.75509490
Al       7.32264684       1.43606638       4.58724278      -0.00446400      -0.00144784      -0.00203456      -4.18931713
Ni       5.88420822      -0.08617704       5.91365002       0.00266422       0.00432912      -0.00043705      -6.18352225
Al       7.37575864       1.37766060       7.60484858      -0.00434029      -0.00077989       0.00872812      -4.18541263
Al       5.92114133      -0.04757527       9.25345131       0.00820518       0.01189446      -0.00568397      -3.75556780
Al       7.70608692       1.47662651      10.59416708       0.00207475       0.00083126       0.00447004      -4.31683315
Ni       6.10235758       2.66758318       0.03569188      -0.00210626       0.00475779      -0.00089253      -6.22489259
Al       7.35616595       4.38697800       1.49699804       0.00169023      -0.00139491      -0.00320928      -4.41403699
Ni       5.60744442       2.85733923       2.89915238      -0.00681259       0.00157872      -0.00140557      -6.23761089
Al       7.07067504       4.30957529       4.23805572       0.00555804      -0.00252039       0.00067665      -4.26045470
Ni       6.15417674       3.08051236       6.21765345       0.00291686       0.00029491       0.00455203      -6.22121998
Al       7.29669248       4.42618726       7.94718614      -0.00391418      -0.00021296       0.00039858      -4.42975096
Ni       6.03759936       2.69243757       9.21403502       0.00296217      -0.00247268       0.00536291      -6.23759330
Al       7.44513841       4.32402260      10.71915105      -0.00295053       0.00157864       0.00371577      -4.55538348
Ni       5.97661181       5.80894960       0.00162583      -0.00096595       0.00230315       0.00161941      -6.15639114
Al       7.40968548       7.17637887       1.54258165      -0.00075189       0.00091744      -0.00189518      -4.44307359
Ni       5.55561460       5.63306921       2.83557922       0.00133000      -0.00216111      -0.00377719      -6.18031398
Al       7.08871291       7.12897029       4.11949284       0.00207262       0.00358336       0.00313448      -4.48575422
Ni       6.09503698       5.78773839       6.14417524      -0.00041954       0.00354852       0.00314700      -6.24188574
Al       7.35380682       7.23672434       7.88349247      -0.00226637       0.00005004       0.00367602      -4.51743398
Ni       5.95504248       5.89122830       9.35281587       0.00320048       0.00122090      -0.00775321      -6.14245101
Al       7.49224357       7.31119142      10.72635142      -0.00259822      -0.00222610      -0.00060978      -4.54742429
Ni       6.11498744       8.85015682       0.17935433      -0.00103102       0.00436759       0.00058386      -6.23087199
Al       7.72022312       9.97724832       1.89248651      -0.00311574      -0.00150153       0.00249955      -4.39762928
Ni       5.74059089       8.80924037       2.89665310      -0.00161059       0.00291042       0.00563793      -6.10703904
Al       7.63937105      10.00851752       4.64086107      -0.00284486      -0.00312633      -0.00399791      -4.44790623
Ni       5.92767560       8.52200134       5.96412385      -0.00032461      -0.00192724       0.00318474      -6.11463118
Al       7.30300002       9.92768611       7.42189729       0.00394149      -0.00289357      -0.00710130      -4.27434122
Ni       6.03491654       8.82058573       9.31639652       0.00448013      -0.00806712      -0.00595659      -6.24920839
Al       7.72825728      10.02630216      10.71007531       0.00583121      -0.00772273      -0.00320154      -4.29582006
Ni       8.77222242       0.07383304       0.26950920       0.00548382       0.00038791       0.00055752      -6.23902766
Al      10.45933150       1.49180721       1.49945645      -0.00037603      -0.00132883      -0.00035052      -4.44785977
Ni       9.06021486       0.28703325       3.20993488       0.00155982      -0.00029285      -0.00379621      -6.16285375
Al      10.64743694       1.50747773       4.78307927      -0.00066342       0.00205952      -0.00372922      -4.22592776
Ni       9.03403392       0.24842225       6.12298548       0.00116171      -0.00504150       0.00053613      -6.34565576
Al      10.45583053       1.74220302       7.74408089      -0.00296592       0.00637772       0.00154545      -4.23013312
Al       9.29429486      -0.32248546       8.73458144      -0.00013217      -0.00580112       0.00228570      -3.99987403
Al      10.42126840       1.50764971      10.71448569       0.00933583       0.00612074      -0.00131052      -4.46442817
Ni       8.84538206       2.86251096       0.08123367       0.00034990       0.00732052      -0.00596355      -6.18203038
Al      10.35716684       4.39512986       1.29295277      -0.00245407       0.00368628      -0.00346913      -4.34627127
Al       9.22268471       3.10189438       3.26232947      -0.00365064      -0.00728151      -0.00004334      -3.76265164
Al      10.72504740       4.38678105       5.00671559      -0.01041298      -0.00707188       0.01085771      -4.09280368
Al       8.74587930       3.01913489       6.13175631       0.00785174       0.00883647      -0.01217524      -3.74682381
Al      10.48088468       4.42353865       7.83803792       0.00193655      -0.00152474      -0.00569657      -4.39736001
Ni       8.87994937       3.01650862       9.12681392       0.00357278      -0.00362784       0.00729247      -6.18467245
Al      10.37116083       4.35766175      10.65263999       0.00326384       0.00262823       0.00319770      -4.55539348
Ni       8.79270661       5.80062282      -0.02616138       0.00404989       0.00256896       0.00294120      -6.15692543
Al      10.30380300       7.20162364       1.46531157       0.00053363       0.00233538      -0.00163877      -4.45682998
Ni       9.16241858       5.64300099       3.29312611       0.00556878      -0.00169975       0.00515423      -6.27364549
Al      10.56497047       7.34146678       4.91773492      -0.00228218      -0.00737585      -0.00349496      -4.43123692
Al       8.60901062       5.67309688       5.89074663       0.00290818      -0.01323629      -0.00303548      -3.98624758
Al      10.27549662       7.05888265       7.68327322       0.00484751      -0.00530575       0.00072425      -4.29616382
Ni       8.90732381       5.80230907       9.30664326      -0.00579201      -0.00104894      -0.00016602      -6.18045610
Al      10.35238211       7.31771519      10.70758365       0.00443764      -0.00115033       0.00307210      -4.52155221
Ni       8.88866239       8.68144139       0.20554642      -0.00079257      -0.00321343      -0.00396781      -6.14719253
Al      10.44613967      10.10742705       1.67407281       0.00105832      -0.00008510      -0.00149570      -4.45320956
Ni       9.10808968       8.40441506       3.22852984      -0.00807215      -0.00493822      -0.00380979      -6.05641630
Al      10.54114097      10.14086302       4.34638205      -0.00492954       0.00620033       0.00111576      -4.16329259
Ni       8.37010882       8.00175596       5.84244202      -0.00698711      -0.00097280      -0.00587815      -5.87400800
Al       9.80259075       9.46457431       6.80355574      -0.00570891       0.00790121      -0.00275442      -4.06267847
Ni       8.98761368       8.70876519       9.10111617      -0.00090304       0.00364923       0.00648241      -6.35535445
Al      10.42338719      10.19965977      10.99238675       0.00031655      -0.00634244       0.00422992      -4.27226552
