128
Lattice="12.7717402346882 -0.045990073981796 -0.0023335147895189676 -0.04682336006748464 13.145952682181546 0.08256928557882542 -0.0026568387666255754 0.08075418594357958 13.133214101470791" Properties=species:S:1:pos:R:3:forces:R:3:energies:R:1 rep=5 n_sites=250 energy=-482.10662841796875 stress="-0.0003805367450695485 -2.2866390281706117e-05 -0.0003662676608655602 -2.2866390281706117e-05 2.448210580041632e-05 -0.0005126910982653499 -0.0003662676608655602 -0.0005126910982653499 0.0003287477302365005" free_energy=-482.10662841796875 pbc="T T T"
Al       1.38351485      -0.10215758       1.34154143       0.00296439      -0.00179450      -0.01191700      -3.76433027
Al       1.25252308       1.32176864       3.92867536      -0.00037584       0.00134150       0.01059673      -3.77696168
Al       0.68607843       2.39219279       6.47890175      -0.00463238      -0.00161399      -0.00275624      -3.75572717
Al       1.34867640       0.38830442       8.38494929      -0.01172845      -0.00292848       0.00709656      -3.63115966
Al       1.25698723       1.52757753      11.95487493       0.00638781       0.00269710       0.00377444      -3.69873023
Al       0.74839961       2.54081467       1.23282449       0.00498564       0.00240664       0.00287301      -3.73609531
Al       0.79166183       3.96919446       3.78736754      -0.00847233      -0.00820369       0.00901770      -3.65077901
Al       0.69821342       5.27486242       6.15390477       0.00283909      -0.00077912       0.00885772      -3.65455341
Al       0.59819805       2.84140636       9.46889381       0.00583531      -0.00093794       0.00339728      -3.66801107
Al       0.08326001       4.16391045      12.15179682       0.00585024      -0.00060367       0.00617274      -3.70321250
Al       1.34781558       5.19338457       1.47230529      -0.00142962      -0.00659088       0.00425565      -3.71300530
Al       1.87272899       6.87640283       4.06293426      -0.00080204      -0.00068029       0.00266694      -3.69390953
Al       1.48487996       7.59167330       7.44278761       0.01298338      -0.00035644      -0.00424403      -3.65621388
Al       0.75235431       5.58543227       9.19092952       0.00475682      -0.00271191      -0.00080636      -3.71306407
Al       1.72705064       6.38293975      11.90901865      -0.01312075       0.00048146      -0.00283917      -3.74289346
Al       2.18826386       7.71598800       1.21564204       0.00076147       0.00235261       0.00209723      -3.68281317
Al       1.43812992       9.61366067       5.23035086       0.00022737       0.00863323      -0.00792260      -3.66325390
Al       0.25998573      10.13907462       7.68872865      -0.00694554      -0.00265599       0.00201606      -3.68286681
Al       1.32777403       8.37139919       9.97362219      -0.00232739      -0.00850371      -0.00369419      -3.66011631
Al       2.95838300       9.07754877      12.01610011       0.00315123      -0.00245846      -0.01384333      -3.69940031
Al       1.73617162      10.41140949       0.96314434       0.00408989       0.00403717       0.00163900      -3.64395189
Al       2.08230747      11.84361585       3.81925064      -0.00264223      -0.00810626       0.00474060      -3.70330882
Al       0.55890244      12.48922532       6.04387376       0.01450789      -0.00576757      -0.00876817      -3.74031830
Al       2.01175268      11.16445066       9.81903898       0.00663606      -0.00454585      -0.00542939      -3.64003158
Al       0.28598395      12.08530062      11.99812959       0.00596828       0.00499397      -0.01108600      -3.67810392
Al       3.68541200       1.29855966       0.56366660      -0.00456279       0.00320288       0.00440063      -3.72623408
Al       3.89714970       0.75910260       3.33358647      -0.00370017      -0.00267926       0.01162702      -3.66212130
Al       3.09032214       0.73962030       6.04506560      -0.00134743      -0.00044816       0.00659889      -3.74967134
Al       3.12906698       2.56898347       8.13368389      -0.00206809       0.00598422       0.00094970      -3.65216005
Al       3.73339552       1.83908228      10.91811405       0.01222123      -0.00235242      -0.00141801      -3.60471332
Al       3.08469380       3.18786617       2.55030236      -0.00099153       0.00702603      -0.00551986      -3.68295968
Al       3.05371917       3.54614220       5.42186794       0.00493976       0.00175991       0.00759813      -3.69792366
Al       3.17507926       5.40734327       7.49776584      -0.00278683       0.00618612      -0.00607591      -3.68578053
Al       2.91087565       4.34889631      10.19949182      -0.00298635       0.00404721      -0.00125000      -3.65465808
Al       2.94586212       3.84056296      12.88491594       0.00342919       0.00128284       0.00311093      -3.74288654
Al       3.86192701       5.77844306       2.43843772       0.00113354       0.00073680      -0.01152528      -3.66123307
Al       4.72499936       5.91942912       5.06679699      -0.00660283      -0.00637969      -0.00513496      -3.60982788
Al       5.45490337       7.02869611       7.60812966      -0.00243709       0.00298940      -0.01148509      -3.69629812
Al       3.87070855       6.90116925      10.02646449      -0.00276191      -0.00278835      -0.00292777      -3.73824263
Al       4.25350773       6.28506964      12.79063402       0.00433494       0.00781419      -0.00156276      -3.70853055
Al       5.04041087       8.10492865       1.33630227       0.00702839       0.00136250       0.00663854      -3.95192558
Al       3.20497722       9.36857063       3.13598941       0.00652081       0.00369611       0.00675549      -3.91013944
Al       3.59038222       8.20602722       5.93340965      -0.00178915       0.00456760       0.00767285      -3.58088839
Al       3.62276117       9.21609594       8.59559160       0.00340231      -0.00128443       0.00589426      -3.65687180
Al       4.71171540      10.83787775      10.78402638       0.00072484      -0.00078525      -0.01050500      -3.61562562
Al       4.05077736      11.79439385       1.63224608      -0.00447832      -0.00198707       0.00844073      -3.96365583
Al       4.80972981      11.43698828       4.43567753       0.00516291      -0.00049336      -0.01231435      -3.92353684
Al       2.99010213      11.24754888       6.88253110      -0.00075497      -0.00327865       0.00118942      -3.70951259
Al       3.91756466      13.07030235       8.99645281       0.01099931       0.00711483       0.00408283      -3.67526364
Al       2.95822786      12.34206527      12.20825495      -0.00064307       0.00578313       0.00456737      -3.66733944
Al       6.19540211       0.74882541       1.45199868      -0.01078664      -0.00202702       0.00421855      -3.78211093
Al       6.49536722       0.80189718       4.32156702       0.00171763      -0.00907522       0.00893986      -3.78802884
Al       5.49374095       2.28791994       6.61920166      -0.00972462      -0.00109372       0.00502974      -3.90661401
Al       6.17043395       1.81825393       9.70967438      -0.00504538      -0.00431199       0.01101434      -3.88457173
Al       7.23539934       2.29718550      12.33017389       0.00040317      -0.00642241      -0.00158635      -3.59885061
Al       5.56104311       3.68932133       1.17042503       0.00365026       0.00250512      -0.00282687      -3.91905141
Al       5.52848517       3.48980903       4.03975539      -0.01357722      -0.00511064       0.00695153      -3.87834042
Al       6.93086122       4.83249370       6.40197597      -0.00087267       0.00620884      -0.01234351      -3.86340892
Al       5.44771577       4.40848644       8.78116831      -0.01356295       0.00442985       0.00183718      -3.90536606
Al       5.46997801       4.20955508      11.52324507       0.00619162       0.00534428      -0.00847054      -3.67563283
Al       7.04139024       6.33084634      -0.00302887      -0.00532696      -0.00392171      -0.00389937      -3.69942653
Al       6.51302623       6.11373532       2.68532436      -0.00150680      -0.00458910      -0.00643149      -3.66650248
Al       7.78143818       6.98162945       4.92084608       0.01292562      -0.00550110       0.01009650      -3.66225088
Al       8.14691106       7.50811812       7.73245263      -0.00004059      -0.00456639      -0.00326864      -3.67429960
Al       6.65705490       6.51829109      10.16565525      -0.00815497      -0.00752156       0.00693924      -3.69547319
Al       7.70319388       8.82204312       2.27939667      -0.00013554       0.00313309       0.00706462      -3.96741056
Al       5.68314846       8.47992606       4.29843896       0.00521354       0.00986740      -0.00657859      -3.89704394
Al       5.61305767       9.88298924       6.69824389       0.00502876      -0.00235014       0.00102262      -3.67418981
Al       6.33853918       9.22071744       9.22887585      -0.00414247       0.00532308      -0.01300507      -3.68584800
Al       5.66621700       8.47538959      11.78582561      -0.00026529      -0.00975394       0.00063860      -3.62875438
Al       6.23756763      10.59730828       0.35182630      -0.01170646      -0.00450690       0.00922555      -3.91130149
Ni       5.51524846      10.06867249       2.54571890       0.00031341       0.00304802       0.00139331      -5.74575889
Al       7.27431198      11.66231407       2.94829696      -0.00086105      -0.00782932      -0.00816344      -3.81773770
Al       5.50382147      12.62275430       6.72514191      -0.00201166       0.01286669       0.00623131      -3.66091657
Al       6.46878731      12.23678357       9.27370751       0.00138020       0.00095789       0.00236307      -3.59009206
Al       5.65625337      13.16664236      12.03325720       0.00667175       0.00698826      -0.00333818      -3.69574976
Al       8.95909753       1.24974347       1.37535905      -0.00236285      -0.00584088       0.00360133      -3.82271063
Al       9.05233554       1.79796332       4.07202625       0.00298676       0.00128449       0.01024620      -3.78462374
Al       7.89088008       0.76325445       7.37552886      -0.00577710      -0.00317049      -0.01314805      -3.88898766
Al       8.97919916       2.31527111       9.72091517      -0.00303744       0.00159513      -0.00424674      -3.93802387
Al       9.12937628       0.44531656      11.89477702       0.00683708      -0.00255711      -0.00714769      -3.68436348
Al       8.40539985       4.10827768       1.14407195      -0.00260235      -0.00623623       0.00512628      -3.92568374
Ni       7.27501941       2.57202896       2.63604269       0.01158248       0.00277173      -0.01355965      -5.82479596
Al       8.30523232       4.37698916       4.02421646       0.00553034       0.00860353       0.00787956      -3.85611713
Al       9.26566544       2.99679371       6.56945655       0.00807965      -0.00239654      -0.00010054      -3.91334301
Ni       7.34131349       3.04817761       7.99964467       0.00440226       0.00750557       0.00224817      -5.75288457
Al       8.77565990       4.95629126       8.57660415       0.00051060      -0.00160712       0.00318512      -3.93612778
Al       8.27828309       4.62099314      11.36599463      -0.00044064       0.00000617      -0.00258106      -3.69781494
Al       9.30894050       6.37199669       2.41538803      -0.00050207      -0.00330541       0.00683861      -3.67056227
Al      10.12913886       8.26804482       4.11268922      -0.00886777       0.00960505       0.00084260      -3.72160685
Al      10.02009954       5.93054594       5.97516908      -0.00904205       0.00459613      -0.00116167      -3.75171292
Al       9.36324394       7.04143288      10.32443944      -0.00302793       0.00462545       0.00168509      -3.69153297
Al       9.86689964       6.22766197      12.87997322      -0.00332628       0.00665853      -0.00316852      -3.64502323
Al      10.28860265       8.76083064       1.19116299      -0.00276323       0.00304629      -0.00514003      -3.66275525
Al       9.84999254      10.79118371       3.14578736      -0.00088684       0.00291138       0.00172333      -3.64358199
Al       8.05353167       9.71485614       5.13536362       0.00219585      -0.00195991      -0.01234701      -3.66266823
Al       8.95394562       9.67574649       9.64098289       0.00584519      -0.00181393      -0.00673546      -3.59423780
Al       8.40130266       8.78066977      12.39078510      -0.00651875      -0.00223745      -0.00916570      -3.65493715
Al       8.98406650      11.59770322       0.75146178      -0.00134381      -0.00680296      -0.00159776      -3.64782131
Al       8.78544756      12.44280654       5.17884387       0.00869147       0.00483087       0.00079287      -3.61270726
Al       8.02857065      11.03248506       7.44941586       0.00083789       0.00782507       0.00171898      -3.67845380
Al       9.35691173      12.59758041       9.49102061      -0.01214558       0.00014969       0.00948061      -3.74123490
Al       7.71520328      11.27649366      11.41633745      -0.00035603       0.00609427      -0.00384831      -3.66987038
Al      11.46721106       0.46509605       0.37799713       0.00575463      -0.00722139      -0.00174253      -3.72089744
Al      11.41804730       1.84082787       2.75839774       0.00819711      -0.00267111      -0.00643982      -3.60413718
Al      11.23718537       0.94762440       5.37911526       0.00302648       0.00016846       0.00968157      -3.68288457
Al      11.29565972       1.31810629       8.10662335      -0.00331181      -0.00022022      -0.00416180      -3.65981710
Al      11.53464325       1.20390373      10.81452302      -0.00087602      -0.00876532      -0.00158522      -3.67738712
Al      11.32704750       4.35881674       1.56354349      -0.00173808      -0.00301583       0.00289694      -3.69178951
Al      11.05952040       3.77170660       4.69636746       0.00083240      -0.00308426       0.00022539      -3.66030800
Al      11.52891419       4.06122994       7.60629807      -0.00404152      -0.00308661      -0.00534826      -3.69365239
Al      10.92011027       4.37442302      10.23952202      -0.00023911       0.00695738       0.00329804      -3.70594597
Al      10.21644108       3.01495168      12.53856275      -0.00438212      -0.00472955       0.00592993      -3.72840869
Al      12.26361517       6.91286148       0.78458600      -0.00194972      -0.00177672      -0.00013975      -3.64115822
Al      11.92932320       6.17799525       3.55885204       0.00416619       0.00551010       0.00641640      -3.69677460
Al      12.21092812       7.74999898       5.75919377       0.00193561      -0.00372811      -0.00045255      -3.69161797
Al      11.22445130       6.75917012       8.28029907      -0.00031814       0.00574601       0.00194394      -3.71454120
Al      11.95189649       6.76919997      11.13595624      -0.00334388      -0.00301576       0.00060897      -3.68874776
Al      12.81847556       8.86696893       2.85581165       0.00308190       0.00017106       0.00334063      -3.71191859
Al      11.63398807      10.38741808       5.11219116       0.00614159      -0.00283336      -0.00081229      -3.67930353
Al      10.22238999       9.15467869       7.11122829      -0.00429125       0.00175691       0.00794056      -3.64879215
Al      11.52445514       9.13782798       9.78302014      -0.00063959       0.00194787       0.00038013      -3.64131057
Al      12.78968418       9.17342400      12.32889877      -0.00209146      -0.00211158      -0.00129515      -3.68726909
Al      11.82842817      10.97936357       1.11033654      -0.00394172       0.00335997       0.00133700      -3.63277006
Al      12.14283694      12.42818883       3.38677704      -0.00476411      -0.00666841      -0.00766976      -3.63989437
Al      10.68705500      11.93140431       7.15012403      -0.01068856       0.00319164      -0.00218397      -3.69284463
Al      12.03940248      11.93286793       9.50731828       0.01037916      -0.00049739       0.00331168      -3.59517860
Al      10.50546025      10.89286333      11.70202412       0.00137354      -0.00043869      -0.00565758      -3.68946755
