164
Lattice="13.795572979131503 0.04856036692916219 0.07623079500878334 0.048622660714499756 13.716489849268012 -0.06223230424631874 0.07595422031666663 -0.06200046670243976 13.71000930788891" Properties=species:S:1:pos:R:3:forces:R:3:energies:R:1 rep=5 n_sites=250 energy=-745.0688784188001 stress="0.0005606939278800614 0.0001997639052464697 0.0004068439139548003 0.0001997639052464697 -0.00024210917236607094 4.9482233693648754e-05 0.0004068439139548003 4.9482233693648754e-05 -0.00021867525971820364" free_energy=-745.0688784188001 pbc="T T T"
Al       1.92569498       1.40208284       1.08241151       0.00538850      -0.00686369       0.00167917      -4.01673031
Al       1.69596236       1.37699051       4.16037735      -0.00047319      -0.00530856       0.00186258      -4.32901647
Al       1.49623012       1.32866726       6.90940900      -0.00117071       0.00490232      -0.00542849      -4.24156069
Al       1.74295752       1.37238637       9.71306579      -0.00756656      -0.00435842       0.00117973      -3.72423909
Al       0.72641202       1.30166740      12.25301519      -0.00230294       0.00942804       0.00129673      -3.60193702
Al       1.49452773       4.14641519       1.33003619      -0.01108999       0.00173433       0.00145579      -4.38883682
Ni       0.26215152       2.53839145       2.70833461      -0.00727859       0.00038216       0.00747957      -6.00075519
Al       1.49661941       4.15309362       4.17238789       0.00001951       0.00409467      -0.00619632      -4.60280282
Ni      -0.02708158       2.67214734       5.44165638       0.00585716      -0.00828862      -0.00154624      -6.15952412
Al       1.59583737       4.07112080       6.89315432      -0.00240557      -0.00428526       0.00143067      -4.25301426
Ni       0.08306057       2.64677768       8.29943600      -0.00505652      -0.00097176      -0.00575901      -5.94366133
Al       1.03246807       4.14670430       9.87168408       0.01106559      -0.00585322       0.00685512      -4.26324313
Al       1.57580333       3.87747872      12.45680238      -0.00150119      -0.00110567      -0.00655249      -3.90474202
Ni      -0.09428495       5.40472867       0.03249509       0.00019911      -0.00077259      -0.00039333      -5.89440171
Al       1.32905678       6.96642986       1.22041306       0.00510135       0.00495481      -0.00140567      -4.24844145
Ni      -0.04752428       5.57226846       2.65800045       0.00812085      -0.00753749       0.00462232      -6.23110209
Al       1.40793129       6.92927252       4.08395147       0.00056162      -0.00327490       0.00091202      -4.39043666
Ni      -0.00116653       5.54562525       5.53709604       0.00895678       0.00154781      -0.00285376      -6.22230922
Al       1.43786957       7.07887568       6.77429693       0.00118156      -0.00403345      -0.00807428      -4.09195873
Ni       0.11186255       5.45177227       8.08162878      -0.00490507      -0.00572351      -0.01376879      -5.76127004
Al       1.67342134       6.75472570       9.37058004       0.01093601       0.01357986       0.00101992      -4.33637972
Al       1.15525172       6.65912522      12.17148323      -0.00673209       0.00110760      -0.00177332      -4.33769739
Al       1.51318130       9.60193204       1.53943738      -0.00385197      -0.00400006       0.00749122      -4.42217206
Ni      -0.11224711       8.26205241       2.75999299       0.00266980       0.00083346      -0.00552762      -6.11373135
Al       1.44811757       9.63324566       4.31837015      -0.00034962       0.00381576      -0.00827552      -4.43447646
Ni      -0.25932243       8.36724801       5.54942351      -0.00061146      -0.00202049      -0.00162732      -6.15644929
Al       0.85365131       9.70168031       7.31135327       0.00715032       0.00148906       0.00115523      -4.33936935
Al       1.39266396       9.47249451       9.93220119      -0.00473654      -0.00628162       0.00682926      -3.96790737
Al       1.51050697       9.34525657      12.58940196      -0.00420282       0.00320298      -0.00542886      -4.19684734
Ni       0.10234839      11.14350724      -0.10812969      -0.00089389      -0.00974674       0.00326369      -6.08236526
Al       1.30864645      12.55588866       1.45095791       0.00940172       0.00247396       0.00162302      -4.26234589
Ni      -0.02550968      11.03024741       2.84041690      -0.00574806      -0.00254429       0.00368194      -6.14368568
Al       1.46258664      12.41247494       4.24694499       0.00373621       0.00114746       0.00399389      -4.29605602
Ni      -0.14458881      11.00974080       5.55503467      -0.00101538       0.00252696      -0.00451411      -5.98942268
Al       1.47515776      12.32487111       6.89974618      -0.00135455       0.00111642      -0.00503058      -4.10685827
Al       0.91269978      12.28093614       9.68670487      -0.00171899      -0.00244378      -0.00829238      -3.88774849
Al       1.83069613      12.51601895      12.25988278       0.00518076      -0.00315588       0.00461420      -3.97259247
Al       4.84927337       1.80103036       1.43591165      -0.00329657       0.00726398       0.00045338      -4.31099442
Al       4.40467723       1.42483038       4.15121290      -0.00237338       0.00080104      -0.00370573      -4.04152091
Ni       2.98365822      -0.00507905       5.67554287      -0.00202256      -0.01409724      -0.00515967      -5.76719983
Al       4.52061349       1.12858595       7.06378275      -0.00994536      -0.00093916       0.00026807      -4.14301821
Al       4.43088505       1.63539438       9.94426896      -0.00120158       0.00592932      -0.00629342      -4.07165983
Al       3.71311412       0.95779619      12.56603128       0.00142548       0.00847462       0.00623577      -4.03345301
Al       4.40964544       4.44528725       1.08126020      -0.00479511      -0.01232804       0.00053915      -3.99124828
Ni       3.02681156       2.87708963       2.64259956       0.00059526      -0.00605136       0.00391687      -5.97817658
Al       4.44465227       4.20855437       3.96733091      -0.00071360      -0.00352297      -0.00079359      -4.25786917
Al       4.26793847       3.85824707       6.63719170      -0.00283414       0.00278967       0.00706058      -4.07356213
Al       3.81425528       4.21728489       9.23229094      -0.00403398      -0.00133353       0.00238972      -4.34086843
Al       4.27935890       3.69628755      12.03822050      -0.00100156      -0.00214916      -0.00429086      -3.84217813
Al       3.95185933       7.22288034       1.52694514       0.00270241      -0.00455587       0.00716990      -4.28396025
Ni       2.84971175       5.50015967       2.70409033      -0.00364249       0.00494139      -0.00168633      -5.97750691
Al       4.12300330       6.95867535       4.26792035       0.00070990       0.00125815       0.00394417      -4.11838912
Al       4.03892065       6.73550976       7.04069466       0.00670136       0.00310478       0.00051732      -4.13650563
Al       4.61056496       6.74910919       9.98097001      -0.00478096      -0.00712315       0.00379848      -4.52250773
Ni       2.85180874       5.39186463      11.02217143      -0.00191358      -0.00411721      -0.00186558      -5.89292324
Al       4.31274010       6.49862656      12.66177763      -0.00445704       0.00738571      -0.00446474      -4.23887437
Al       4.43063662       9.94182971       1.31225373       0.00479152      -0.00653669       0.00992826      -4.56386750
Al       4.17035693       9.71860801       4.35783652      -0.00080994       0.00237142      -0.00361801      -4.15046721
Al       3.67023192       9.35172571       7.04192087       0.00295992      -0.00818604      -0.00944366      -3.96365790
Al       4.20206365       9.63460984       9.77147421       0.00238356      -0.00157955      -0.00492410      -4.14040524
Ni       2.84200667       7.94028007      11.10735003      -0.00380989      -0.00354668      -0.00635747      -5.89114297
Al       4.20590965       9.32591089      12.45745457      -0.00176825      -0.00803684      -0.00104966      -4.10479559
Ni       2.75634114      11.08455809       0.08468798      -0.01547556       0.00226628      -0.00497701      -5.99010885
Al       4.08928052      12.73938959       1.38555241      -0.00150090       0.00068001      -0.00062860      -4.56605259
Ni       2.88883657      11.11898775       2.78120851      -0.00505726       0.00114532      -0.00334921      -6.09228243
Al       4.45230779      12.47252217       4.21222981      -0.00439988       0.00304735       0.00365764      -4.38311168
Al       4.24234906      12.09098570       7.08523223       0.00386430       0.00646836       0.00266542      -4.04317532
Ni       2.61170366      10.98669427       8.51270051       0.00200599       0.01358286       0.00094656      -5.76417391
Al       3.71367277      12.64133780       9.91160865      -0.00547730      -0.00283129      -0.00204009      -4.19425554
Al       4.70435356      11.91968989      12.47551055       0.00566550       0.00526176      -0.01371155      -4.34817128
Ni       5.72724950       0.06397054       0.03545322       0.00057999      -0.00593327      -0.00226827      -6.04199573
Al       7.65422904       1.05420763       1.29023746      -0.00209426      -0.00068247      -0.00059833      -4.06026597
Ni       5.92621194      -0.06403641       2.66634706       0.00148459       0.00101305      -0.00491815      -5.99213921
Al       7.20147426       1.25077715       4.24003420       0.00027086       0.00333781      -0.01100003      -4.20699940
Al       7.23460003       1.55684568       7.06023699       0.00872979       0.00080070      -0.00888940      -4.14187123
Al       7.19990901       1.24284431       9.74775966      -0.00229188       0.00105261       0.00141886      -4.19235690
Ni       5.56343530      -0.05688124      11.16715118      -0.00263145      -0.00373786       0.01067006      -5.87620491
Al       6.42392103       1.88378167      12.43078382       0.00370993       0.00468729       0.00032210      -4.14123435
Al       7.39979639       3.77036345       1.43238775      -0.00696086       0.00178333      -0.00354272      -3.78166694
Al       7.12878519       4.15569357       4.14992062      -0.00597339       0.00414911       0.00236073      -4.13542758
Al       7.23738786       4.28097833       6.90699415       0.00404758      -0.00261043      -0.00057674      -4.43246196
Ni       5.68257658       2.85254570       8.33143214      -0.00416297       0.00780212       0.00802561      -5.87523102
Al       6.62104911       4.16265780      10.03072872      -0.00657970       0.00372070      -0.00054526      -4.35477250
Al       6.71723773       4.54998976      12.75286690       0.00531362       0.00819279       0.01114068      -3.82690122
Al       6.67416067       6.45451298       1.31343011      -0.00212624       0.00271859      -0.00028159      -4.28768047
Al       6.86925428       6.87667501       4.06437301       0.00222682       0.00022578       0.00967544      -4.15917524
Ni       5.60478979       5.52385954       5.58031641       0.00179244       0.00607510      -0.00026514      -5.91410706
Al       6.91348510       7.22870376       6.70285692       0.00525564      -0.00166497       0.00258143      -4.19661924
Ni       5.66588225       5.49060153       8.17728574       0.00903461      -0.00416116      -0.00575889      -6.11181292
Al       7.39639007       6.79782067       9.38522294      -0.00173578       0.00157722       0.00407969      -4.27547615
Al       7.04692086       7.20116610      12.09966214       0.00455449      -0.00249325       0.00045250      -4.09217672
Ni       5.69183727       8.21532258       0.14916806       0.00372556      -0.00054009       0.00273768      -5.88229536
Al       7.28776980       9.40605747       1.56375481       0.00147631       0.00671639       0.00935793      -4.13578971
Ni       5.56612638       8.43838825       2.82900745      -0.00296610      -0.00137276      -0.00464242      -5.97569319
Al       7.04357347       9.57303138       4.48801738       0.00784961       0.00861911       0.00740321      -4.06340836
Al       6.32280686      10.05715325       7.09356428       0.00397014       0.00370004       0.00141371      -3.87974824
Ni       5.58908909       8.19591700       8.39687855       0.00708860      -0.00375583      -0.00496710      -5.88232220
Al       7.15668494       9.53832608       9.79422743       0.00272140       0.00245559       0.00721366      -3.83305244
Al       6.93566241       9.94919903      12.57351210       0.00278880       0.00316866      -0.00054320      -3.80584094
Al       7.06529303      12.03892983       1.10039498      -0.00721389      -0.00242755      -0.00728410      -4.22121549
Ni       5.78098340      11.00800087       2.93371035      -0.00218581       0.00006881      -0.00782879      -6.02326371
Al       7.53494937      12.24997436       3.96784496       0.00511966       0.00478495       0.00760237      -3.95618194
Al       6.84572853      12.62379882       6.53158081      -0.00536783       0.00063154       0.00626393      -3.80940248
Al       6.56472802      12.27049139       9.33611727      -0.00038997       0.00092718      -0.00559870      -3.99654137
Al       7.53740231      12.64272009      12.13296018      -0.00373515       0.00102084       0.00502960      -4.07389043
Al      10.31551221       1.87232729       0.80390034       0.00191010       0.00371491      -0.00788280      -3.71045641
Al       9.74885923       2.10124931       3.49518157       0.00305698       0.00277484      -0.00022111      -4.05694941
Al       9.76854651       0.86147780       6.38918867       0.00091579       0.00648121       0.00382445      -4.25838061
Ni       8.40953170      -0.28985910       8.16501779       0.00322606      -0.00425864      -0.00003412      -5.75690532
Al      10.12278741       0.77486273       9.48264323      -0.00644571      -0.01166754      -0.00093514      -3.91562101
Al       9.09391988       1.25949325      12.20305922      -0.00027419      -0.00232014       0.00135702      -3.67207277
Al      10.06616347       4.40785039       1.75593076      -0.00056621      -0.00280283       0.00122859      -3.73412575
Al       9.77075847       4.76135391       4.62059836      -0.00099020       0.01102830       0.00201305      -4.22480112
Ni       8.57108647       2.77931612       5.49595608      -0.00292359      -0.00444197      -0.00317779      -5.88047552
Al       9.81291192       3.66239186       7.39407700      -0.00228502      -0.00445417       0.00451671      -4.06120080
Al       9.25068126       3.25728094      10.23187129      -0.00091353      -0.00836162      -0.00096356      -4.03810867
Al       9.53329766       3.99724589      12.87416899       0.00091996       0.00096718       0.00085175      -3.99653276
Al       9.38282390       7.24145934       1.03872165      -0.00026332       0.00115393       0.00693602      -4.02030395
Ni       8.43877897       5.71128320       2.73176739       0.00635859      -0.00275112      -0.00402353      -5.74914647
Al       9.47447462       7.64001198       3.79238913      -0.00257701       0.00569958       0.00203053      -4.15893707
Al       9.54566272       6.61160329       6.66844225       0.00515198      -0.00108862       0.00212674      -3.79901814
Al       9.88050374       5.81865821       9.14407455      -0.00351981       0.00370907      -0.00131942      -4.04927740
Ni       8.37009388       5.36519951      11.13557038      -0.00814174       0.00210752       0.00680765      -5.91345197
Al       9.78170875       7.19000894      11.74175308      -0.00416957       0.00207666       0.00018030      -4.24458061
Al       9.77263155      10.15580857       1.31266258      -0.00365876      -0.00027779      -0.00106703      -3.94216072
Al       9.66101602      10.43701270       4.26478939      -0.00491744       0.00137738      -0.00372106      -3.75642788
Al       8.98303329       9.35440299       6.80244025       0.00145149      -0.00557666      -0.00450773      -3.85040891
Al       9.90646473       8.77384183       9.34657306       0.00316700      -0.00195723       0.00329955      -3.58203562
Al       9.64150742       9.93140156      11.93119494       0.00085827      -0.00127943       0.00149005      -4.01775583
Al       9.66715497      12.85279118       0.44378292       0.00298692       0.00636841      -0.00113034      -3.85219146
Al       9.94689196      13.13354933       3.12351731      -0.00052713       0.01021153       0.00596781      -3.60622565
Al       9.75854388      11.96760813       6.60551077      -0.00385268      -0.00746635      -0.01184868      -3.76848127
Al       9.18762746      11.42929153       9.31625279      -0.00199602       0.00593875      -0.01114091      -3.88431241
Al      10.31038619      12.58371326      11.53543733       0.00158495      -0.00195141       0.00150679      -3.84718577
Al      12.99242059       1.18605332       1.01880794       0.00058514      -0.00033610       0.00606762      -3.81498013
Al      12.39091793       1.29837325       3.98203667      -0.00218777       0.00546148      -0.00192355      -4.11883925
Al      12.35507387       1.39578543       6.98040442       0.00476877       0.01002282      -0.00453593      -4.12844807
Al      12.89133481       0.64283552       9.54618682      -0.00099448      -0.00350332      -0.00417276      -3.88903275
Al      11.76898155       1.32572554      12.01717801      -0.00085502      -0.00827664      -0.00312414      -3.65603199
Al      12.53134630       3.83839384       1.37084835       0.00874517       0.00416851       0.00295750      -4.11562222
Al      12.41960333       4.12418365       4.07959576      -0.00060076       0.00243020       0.00458553      -4.47584131
Ni      11.04764249       2.73534997       5.47483876      -0.00512298      -0.00587217      -0.00190266      -6.06469271
Al      12.37012998       4.16081860       6.96663991       0.00613478      -0.00029218       0.00881811      -4.41735319
Al      11.91964139       3.30942730       9.67488510       0.00280871      -0.00205967      -0.00185684      -4.21983251
Al      12.59138410       3.88735888      12.33629762      -0.00352198      -0.00627311       0.00727883      -4.08704905
Al      12.15358413       6.94749769       1.41204822       0.00132561       0.00056639       0.00051444      -4.28431984
Al      12.19704146       6.85058551       4.23651902      -0.00045743       0.00742924       0.00535327      -4.44643509
Al      12.24910080       7.02590397       7.15997008       0.00469566      -0.00240984       0.00522972      -4.40023044
Al      12.50052312       6.24627868       9.85652045       0.00124143      -0.00148431      -0.00245161      -4.10157367
Ni      10.87428052       5.03212974      11.12589529       0.00261367      -0.00187225       0.00677975      -5.88927827
Al      12.24786840       6.69759477      12.46421854       0.01017898       0.00433854       0.00292266      -4.06830390
Ni      10.89815597       8.56084800      -0.25578276       0.00035970      -0.00552989      -0.00005747      -5.88092664
Al      12.53054975       9.63488246       1.19538521       0.00657362      -0.00001223       0.00873985      -4.51856498
Al      12.17832858       9.67890256       4.04920024       0.00693356       0.00102186      -0.00213728      -4.40974626
Ni      10.84493805       8.35744515       5.57569130      -0.00381778      -0.00521632       0.00539598      -5.86548077
Al      11.86993323       9.92751388       6.98930857      -0.00350476      -0.00563242       0.00035012      -4.22376993
Al      12.67060291       8.88189456       9.39628246       0.00334762      -0.00346934      -0.00060129      -3.56356209
Al      12.66340101       9.60957400      12.00420453       0.00095940      -0.00233978      -0.00678946      -4.19298794
Ni      11.25663451      11.16533707      -0.38278313      -0.00141723       0.00203326      -0.00123270      -6.01427326
Al      12.25054060      12.39195582       1.47336273      -0.00022008      -0.00339300       0.00566041      -4.19010479
Al      12.18801915      12.40906841       4.33027003       0.00017691      -0.00068500       0.00270984      -3.92679028
Al      12.49433754      12.51954975       7.22356100      -0.00537289       0.00484151       0.00491623      -3.80018330
Al      11.97356989      11.46364934       9.64717722      -0.00016092      -0.00157619      -0.00130487      -3.69986526
Al      12.93636734      12.58010823      12.10528771      -0.00116142       0.00551165      -0.01172336      -4.08783225
