250
Lattice="16.432441383784134 0.11488841173781998 0.21145067915469817 0.11307524213992802 15.638779682892384 0.2761193628628797 0.21397158125803967 0.28073783533840535 15.741439436497618" Properties=species:S:1:pos:R:3:forces:R:3:energies:R:1 rep=5 n_sites=250 energy=-1035.3719482421875 stress="0.00016786096966825426 -1.9204071577405557e-05 -0.00030208093812689185 -1.9204071577405557e-05 0.0005309888510964811 1.8436858226777986e-05 -0.00030208093812689185 1.8436858226777986e-05 -0.0003732309560291469" free_energy=-1035.3719482421875 pbc="T T T"
Al       0.31202790      -0.88242238       0.24002920      -0.00104807       0.00587679       0.00087434      -3.64056313
Al       1.11054121       1.71051365       1.24967657      -0.00145781      -0.00224158       0.00351726      -3.82832646
Al      -0.23376682      -0.11305167       2.90710578      -0.00537510      -0.00892924       0.00558551      -3.71781576
Al       0.72113475       2.37280577       3.87133844      -0.00604623       0.00640901      -0.00026879      -3.69235456
Al       0.37416028       0.46725025       5.73346799      -0.00097598      -0.01234224       0.00134256      -3.73728335
Al       1.96874275       0.45824158       8.41994498      -0.00624824       0.00249378       0.00504643      -4.19803578
Ni       0.59613542      -0.06843142      10.53045542       0.00708847       0.00332861      -0.00508545      -5.87311512
Al       2.28673232       1.76962811      10.79002724       0.00326923       0.00433150      -0.00111419      -4.20303220
Al       0.69197743      -0.25043601      13.04912299       0.00194807       0.00415396       0.00532204      -3.77091682
Al       1.35087411       2.18994458      14.17469729       0.00186244       0.00460538       0.00601688      -3.89109063
Ni      -0.25261651       3.28364912      -0.00098730       0.00156206      -0.00201009       0.00165138      -5.90447432
Al       1.17164183       4.54281209       1.65617603       0.00149816      -0.00410777       0.00229192      -3.94474220
Al      -0.89800250       4.46654515       3.70866556      -0.00049704      -0.00326720      -0.00165515      -3.85202068
Al       1.48373900       4.83432704       4.79933076      -0.00171963       0.00015648      -0.00287991      -3.71382439
Al      -0.33813346       3.06487246       6.44675555      -0.00622294      -0.00564749       0.00103853      -3.68776286
Al       1.72138071       4.63951655       7.49212830      -0.00043605       0.00677240      -0.00166463      -3.85414112
Al       0.37693926       3.28762189       9.35497074       0.00352654      -0.00751886       0.00122299      -3.78833425
Al       2.81419582       4.48778489      10.09636844       0.00525426       0.00997119       0.00181660      -3.96770495
Al       0.90672977       4.07694877      11.98397138       0.00396768       0.00151912       0.00313720      -3.76514959
Al       1.71298371       4.90073098      14.51724170       0.00372925       0.00667977       0.00845124      -3.90111637
Al      -0.31174304       6.38393997      -0.13722900      -0.00273318       0.00417372       0.00179128      -3.67646742
Al       2.03243051       7.82992417       1.65667627      -0.00801553       0.00155461       0.00558849      -3.75620675
Al      -0.20344573       6.84510914       2.70609456       0.00329782      -0.00325739       0.00520796      -3.67530334
Al       1.78551341       7.83044606       4.47100222      -0.00438889       0.00271801      -0.00727288      -3.84633732
Al      -0.70605275       6.46694551       5.60123557      -0.00337243      -0.00663140       0.00706933      -3.74242473
Al       1.36078346       7.24856977       7.30097488       0.00633074      -0.00375292      -0.00460303      -3.65814972
Al       0.59318303       6.23301228       9.88654544      -0.00493377       0.00088217      -0.00288679      -3.78357339
Al       1.68065771       8.45340981      11.56802626      -0.00336931      -0.00173067       0.00556980      -3.64407015
Al       0.11847593       6.55257063      12.73766454      -0.00035584      -0.00331380       0.00298179      -3.74022090
Al       1.97116979       7.94645214      14.34213593       0.00124467       0.00508961       0.00459346      -3.77212906
Al      -0.01219778       9.05040493       0.35556005       0.00164310       0.00958680       0.00136383      -3.63032174
Al       2.28089663      11.27425255       1.25371660      -0.00189200       0.00034933       0.00933045      -3.97501892
Al       0.53369404       9.81322355       2.95644997       0.00657053      -0.00058174      -0.00057073      -3.82646561
Al       2.26836741      10.43672857       5.27461733      -0.00314403       0.00261255       0.00507437      -4.18126392
Al      -0.01601195       9.31204558       6.26217441      -0.00536262       0.00632346      -0.00024685      -3.88494349
Al       2.32559931      11.52008807       7.86323975       0.00173219      -0.00497942       0.00145252      -4.22435564
Al       0.90040353       9.23933176       9.10422726      -0.00017023       0.00479175      -0.00046685      -3.60567927
Al       2.65996348      12.13484077      12.27835886      -0.00127727       0.00333112      -0.00543575      -4.00435030
Al      -0.16626339       9.74758063      13.04228288      -0.00960192       0.00062446       0.00586044      -3.83988333
Al       1.77249945      10.84522720      14.49447011       0.00306753       0.00690808       0.00293947      -3.63685298
Al      -0.41597099      11.92222898       0.12664624      -0.00545791       0.00906849      -0.00620700      -3.93250144
Al       2.61159183      13.79368291       2.20185136      -0.00486782       0.00118303       0.00326635      -3.91022331
Al       0.30692690      12.58388522       2.67809745       0.00272821      -0.00053202       0.00359800      -3.58709598
Al       1.79668214      13.30779177       4.82629266       0.00674343       0.00446676       0.00019258      -4.13300800
Ni       0.51817675      11.79824851       6.22361742       0.00417454      -0.00335475       0.00050207      -5.75775129
Al       0.60335193      13.86403099       7.46568137      -0.00224395       0.00493816       0.00076820      -3.81565547
Al       0.87304275      13.12682570      10.25691784       0.00146464      -0.00402224      -0.00030843      -3.96249044
Al       2.98427701      14.68465948      11.09777373      -0.00253067       0.00096164      -0.00300780      -4.35705954
Al       0.14924656      12.57912921      13.12877780      -0.00132864       0.00177512       0.00315669      -3.56229258
Al       2.55131817      13.59520457      14.78992835      -0.00450867      -0.00075412      -0.00352271      -4.13415229
Al       3.12024089       0.28545164       0.23744200       0.00111154       0.00104178       0.00795628      -3.72667027
Al       5.40139027       1.67554314       1.38371698      -0.00411180      -0.00281706       0.00333457      -4.02941203
Al       2.45202132       0.40272201       3.47991836      -0.00480568       0.00358379       0.00211926      -3.95363826
Al       5.07159773       0.76014529       4.40080239      -0.00602005       0.00611028      -0.00430650      -4.08894318
Al       2.97318193      -0.48611881       6.06292317      -0.00241041      -0.00669226      -0.00526682      -3.83957100
Al       4.57478452       1.25692134       7.35668745       0.00797439       0.00145774      -0.00311404      -4.06648284
Ni       4.23490360       0.75344682       9.65028840       0.00206354       0.00447226       0.00824998      -5.86983877
Al       5.13354137       2.96517006       9.79962699       0.00101720      -0.01024875       0.00190634      -4.19773579
Al       3.33795002       0.53603117      13.27377996       0.00940515      -0.01082653       0.00096457      -3.85939980
Al       5.61953130       1.84914450      14.15578635       0.00348350       0.00009981      -0.00048457      -3.90823966
Al       3.45074916       3.08946970       0.00414080       0.00168422       0.00347897      -0.00223335      -3.88194484
Al       5.19213496       4.36452524       1.88339556      -0.00457199      -0.00209142      -0.00551564      -3.89508998
Al       3.24481087       2.96430879       3.12155907      -0.00300372      -0.00337215       0.00363210      -3.60926652
Al       5.16746238       4.45893037       4.63995288       0.00197048       0.00430341      -0.00334516      -3.64203358
Al       2.48537446       2.33944426       5.95907934      -0.00069325      -0.00230364       0.00763097      -3.88254029
Al       4.43699305       4.12595495       7.22726292      -0.00378941      -0.00621521       0.00506903      -3.78588152
Ni       2.95863195       2.73180439       8.49847908       0.00314255       0.00582036       0.00149804      -6.07479024
Al       5.19382046       5.45009495      10.82722892      -0.00643949      -0.00914754      -0.01032121      -3.83275735
Al       3.41289526       3.27533596      12.70626136       0.00907782       0.00600343       0.00379827      -3.59780025
Al       4.97733450       5.06977528      13.81099964       0.00079289      -0.00196071       0.00750587      -3.99974471
Al       3.43008979       6.04672476       0.23926722      -0.00249895       0.00008969       0.00562422      -3.70844018
Al       4.81412473       7.87776580       2.20774074      -0.00058260       0.00633922       0.00503176      -4.08003825
Al       3.25929819       5.79511438       3.09029161      -0.00425332       0.00238427       0.00242968      -3.60449111
Al       4.51358197       8.74619311       4.97366076      -0.00012025       0.00159669      -0.00266272      -4.19573456
Al       3.54081114       6.35035926       5.94243468      -0.00045345       0.00146368      -0.00024908      -3.59346449
Al       3.55460008       8.85625504       7.59621537       0.00714785      -0.00225127      -0.00391179      -3.95045519
Al       3.13094592       7.16746101       9.60053704       0.00091217      -0.00122347       0.00364038      -3.71762657
Al       5.04650828       8.13569758      11.31542283       0.00083779       0.00394517       0.00418264      -3.89486790
Al       2.82951958       6.12301947      12.30067396      -0.00100744      -0.00241020      -0.00481257      -3.77714765
Al       5.13502762       7.75307952      14.04196873       0.00190678       0.00264160       0.00273126      -3.93343294
Al       3.63227376       9.12019814      -0.08970420      -0.00838429       0.00842583      -0.00714275      -3.71409440
Al       4.93285339      10.83777776       1.49561793       0.00160658       0.00116303       0.00510021      -4.15399492
Ni       3.15788232       9.63568413       2.99855437      -0.00561711      -0.00358785      -0.00381594      -6.12385631
Al       4.28908995      11.69456213       4.03917846      -0.00253155       0.00696665      -0.00448759      -4.28448075
Ni       4.44410698      10.73466627       6.45665731       0.00911003       0.00611831       0.00526839      -5.97358340
Al       5.06957948      11.63645551       8.59172899       0.00108898      -0.00682524      -0.01206955      -4.07772291
Al       3.34193367      10.11952362      10.27281379       0.00207209       0.00454187      -0.00048245      -3.88335449
Al       5.27941132      12.43613980      11.31417774       0.01191708       0.00046733      -0.00498930      -4.35500377
Al       3.72896557       9.77891261      12.98165788       0.00441463      -0.00427478       0.00507901      -3.62039542
Al       5.14611020      11.98930757      14.26508568      -0.00017010       0.01032144      -0.00046180      -4.26029360
Ni       4.22435512      12.95352055       0.56933935       0.00122792      -0.00044552      -0.00516259      -5.87780845
Al       5.15488830      14.60732867       2.10412418       0.00608340       0.00117969       0.00139028      -4.26874971
Ni       4.00032567      14.17658493       4.29010319      -0.00769001      -0.00320186       0.00325973      -6.00059479
Al       6.48512040      13.89591247       4.37167539       0.00392666      -0.00067160       0.00117922      -3.99122411
Al       4.90646122      13.13644735       6.33706508      -0.00230676      -0.00685552       0.00257161      -4.01411110
Al       4.44714679      14.29682433       8.76633168       0.00227186      -0.00601078      -0.00515026      -4.07890666
Ni       3.22033420      12.47402969       9.95789995      -0.00406081       0.00421342       0.00208265      -5.76293373
Al       5.62558551      15.50382976      11.87616168      -0.00423163       0.00025052       0.00144108      -4.27116430
Ni       4.23845680      13.86583849      13.01693048       0.00010518       0.00679810       0.01371371      -5.91160119
Al       5.55902605      14.78165221      14.78686026      -0.00400057       0.00492102      -0.00068043      -4.24527937
Al       7.32778672       0.03842948       0.32643531       0.00228052      -0.00105224       0.00528300      -3.86184132
Al       9.07365270       1.34907343       2.34613713      -0.00229628       0.00283101       0.00763702      -4.24068499
Ni       6.90749337       0.27678708       2.72060711       0.01031229      -0.00174371      -0.00594598      -6.00259405
Al       9.25643953       2.28538851       5.16881696      -0.00535396      -0.00690371       0.00101854      -4.00719362
Al       6.91268568      -0.08274773       6.73412960       0.00282402       0.00248022       0.00003609      -3.63750911
Al       8.68384623       1.91268677       7.78842923       0.00700283       0.00499761      -0.00782891      -4.02932775
Al       6.72141099       0.75568785       9.37381290      -0.00172310       0.00270048      -0.00228327      -4.03852546
Al       9.39961561       1.72444068      10.88310194      -0.00395365       0.00289277      -0.00547672      -4.15389335
Al       7.77645557       0.09042382      13.40521439       0.00059402      -0.00192082      -0.00088949      -3.78560948
Al       8.48404717       2.55535789      14.65742164       0.00490803       0.00205442       0.00243285      -4.06199712
Ni       5.93416166       3.47267077      -0.25798756      -0.00307928       0.00814587      -0.00254595      -5.92267764
Al       7.84774160       3.94625667       1.01127098      -0.00417155      -0.00802131      -0.00689997      -4.14358181
Al       6.95486642       2.67613647       3.51906698       0.00041158       0.00072828      -0.00435392      -3.87403136
Al       7.98832589       4.77195384       5.47977015       0.00182548      -0.00446931      -0.00392992      -3.65926707
Al       6.52976481       2.57358889       6.14144247      -0.00471666      -0.00108795       0.00319335      -3.60130203
Al       6.77500108       4.84665664       8.26573971      -0.00007138       0.00252330       0.00307746      -3.85867071
Ni       7.61883538       3.06167402       9.65872486      -0.00387935       0.00372307       0.00568205      -5.79025966
Al       7.97494677       5.07002580      10.94840385       0.00311821      -0.00838354      -0.00175798      -4.17865676
Al       7.11624882       2.50071486      11.99952783      -0.00972672      -0.00178260       0.00075661      -3.92488825
Al       7.64388445       4.95298050      13.86628624      -0.00248022       0.00000266      -0.00391430      -4.22025996
Al       6.30930641       6.32375539       0.42253359      -0.00130865       0.00032867      -0.00174249      -3.75078070
Al       7.56287839       8.38866394       2.04297765      -0.00481179       0.00576000       0.00332676      -3.86117440
Al       7.07054412       5.83712883       3.14028030      -0.00370076       0.00878957       0.00144046      -3.70694137
Al       7.57344738       8.47178348       4.73083226      -0.00032210       0.00206296       0.00236534      -3.84136713
Al       6.20600691       6.64767492       6.19337448       0.00117550       0.00387927      -0.00361654      -3.63887823
Al       8.41498623       8.45077996       8.62221956       0.00215382      -0.00168252       0.00035161      -3.59035039
Al       5.76426063       7.32378589       8.78820442      -0.00478491       0.00699588      -0.00158839      -3.59680772
Al       8.03337686       7.90675570      11.24369001       0.00908592      -0.00023484      -0.00237902      -3.95615351
Ni       6.50858347       6.52408312      12.47366264       0.00016635       0.00050750       0.01115359      -5.84851903
Al       8.00148229       7.72524463      14.06672812      -0.00492954      -0.00380068       0.00088991      -3.92508107
Al       6.45497401       9.43923071      -0.31290891       0.00071367      -0.00152654       0.00040741      -3.65849030
Al       7.61479986      11.18501437       2.62033104      -0.00475655      -0.01706666      -0.00013159      -3.85452169
Ni       5.91412528       9.70281053       3.32963505       0.01115745       0.01018510      -0.00186679      -5.84846520
Al       6.67369074      11.06941821       5.22312505      -0.00193861       0.00329596      -0.00966305      -4.03090495
Al       6.35590140       9.47453990       7.29630902      -0.00231269       0.00357771      -0.00135390      -3.87242424
Al       8.55636132      11.28699448       8.56774008       0.00904389       0.00028352      -0.00375720      -3.72616935
Al       6.59802479       9.99587504      10.03940218      -0.00473744      -0.00437612       0.00431677      -3.68263566
Al       8.04475541      11.89751730      11.45173618       0.00053056       0.00335111       0.00000730      -3.85529089
Al       6.53268398      10.01388339      12.75785882      -0.00272643      -0.00416897       0.00272034      -3.68452060
Al       8.14181089      11.91648484      14.24001990      -0.00246128       0.00039831       0.00352781      -3.77116179
Al       6.71345533      12.73059549       0.60459067      -0.00205743       0.00245324      -0.00571591      -3.80049729
Al      10.86511990      14.85749979       2.17175978      -0.00791263      -0.00324002      -0.00282201      -3.78775859
Al       8.35743137      13.85259494       2.39702467       0.00326386       0.00813806       0.00186968      -3.83894861
Al       8.79003528      15.22146489       4.83751051       0.00218478      -0.00669536      -0.00691709      -4.11756086
Al       7.76455914      13.06497627       6.60048325      -0.00605031      -0.00064678       0.00140952      -3.59446788
Al       9.33822187      14.98369187       8.67818970       0.00286396       0.00114135      -0.00329950      -3.88917321
Al       7.06875592      13.53331219       9.14643312       0.00075743       0.00008287       0.00310830      -3.65918744
Al       8.44727163      14.64191965      11.32178079      -0.00722280      -0.00173923       0.00805463      -4.02152807
Ni       6.77441751      13.55381970      12.85271113       0.00142471       0.00581763      -0.00050634      -5.94151092
Al       9.44410801      14.21193007      15.33857256       0.00740099       0.00378110      -0.00695887      -3.60894465
Al      10.47300041       0.77007656      -0.22191913       0.00657126       0.00009772      -0.00201489      -4.04538178
Al      11.85737981       1.98685537       2.28587498       0.00615448      -0.00053242       0.00723284      -4.18418193
Ni      10.81799209       0.52486723       3.98599405      -0.00201265      -0.00532434      -0.00270964      -5.98656315
Al      11.93635634       2.51989629       4.86920976       0.01154181       0.00541770      -0.00758545      -4.21089840
Al      10.91774702       0.37446501       6.40493311      -0.00293505      -0.00190932      -0.00589654      -4.04106617
Al      11.29239000       1.56630956       9.04656890      -0.00924700       0.00115204      -0.00203748      -4.22711194
Ni      10.68285485      -0.42652314      10.42611978       0.00750007      -0.00159647      -0.00113328      -6.04831481
Al      12.80983962       0.64671257      11.42899500      -0.00407985      -0.00188939      -0.00185806      -4.11936271
Al      10.72222160      -0.39898873      12.86510260       0.00033432       0.00235239       0.00195752      -3.94037163
Al      11.02780869       2.29767436      13.11479192       0.00545673      -0.00554320       0.00003333      -4.05260676
Ni      10.07953567       2.98435833       0.85504052       0.00380877       0.00575139      -0.00588177      -6.00127435
Al      11.63938005       4.65289933       1.80291737      -0.00037874      -0.01385558      -0.00242352      -3.94251561
Al       9.35089303       4.14299270       3.14423935      -0.00353622      -0.00677634       0.00800049      -3.79844296
Al      10.82642792       5.02792973       5.73993708      -0.00472871      -0.00324282      -0.00048541      -3.82831347
Ni      10.83372421       2.89545281       7.02843065      -0.00499654       0.00448431       0.00580658      -6.05781364
Al      12.12759601       4.54484478       8.35350163      -0.00359872      -0.00090697      -0.00757241      -3.92347056
Al       9.41504125       4.44618659       8.34028376      -0.00700521      -0.00339302      -0.00498428      -3.89950025
Al      11.28201101       4.03860451      10.96162973      -0.00242198      -0.00003997      -0.00684418      -3.80406749
Ni       9.27647293       3.73460938      12.56516465      -0.00068272      -0.00111958       0.00258875      -5.99162894
Al      10.40934333       4.72148352      14.65686717       0.00989243      -0.00062758       0.00535780      -4.08764124
Al       8.97664918       6.38016465       0.85524995       0.00740596       0.00524472       0.00182923      -3.66806793
Al      11.25825015       7.44270579       1.66028461      -0.00987610      -0.01134038       0.00154405      -4.04583263
Al       9.53681806       6.76689679       3.74964715       0.00841818       0.00052220      -0.00413177      -3.65940559
Al      11.44780406       8.17121164       5.26904357      -0.00513992      -0.00330654      -0.00211969      -3.88329870
Al       9.17031849       6.99186247       6.57032031       0.00003762      -0.00052725      -0.00552948      -3.59772873
Al      11.23509465       8.42070186       8.00553550      -0.00122186      -0.00156171      -0.00052132      -3.68948936
Al      10.25661692       6.65242713       9.74500498       0.00444768       0.00068496       0.00453607      -3.62814736
Al      12.10303097       8.28077739      11.70969044      -0.00193226       0.00363941       0.00883533      -3.78169990
Al      10.04204675       6.12104911      12.35810475      -0.00195849      -0.00012553      -0.00215507      -3.77380192
Al      10.72417575       7.56571856      14.44579478       0.00124720       0.00053614       0.00151615      -3.91053611
Al       9.20517096       9.30945725       0.06274831      -0.00150448      -0.00252603       0.00327684      -3.65810132
Al      11.90858278      10.16986723       1.04171099      -0.00484908       0.00169203       0.00132011      -4.14818239
Al      10.02467177       9.63695799       3.18575751      -0.00551942      -0.00121859      -0.00331667      -3.85965574
Al      12.10347668      10.90394716       4.62873088       0.00526610      -0.00501487      -0.00341168      -4.11232519
Al       9.41391945       9.95107351       6.27543118       0.00089095       0.00508181      -0.00087268      -3.66707158
Al      11.39948095      11.05069099       8.34797254      -0.00905240       0.00132300      -0.00497350      -3.84802085
Al       9.99905389       9.71950626      10.36388825       0.00282395      -0.00244948      -0.00124965      -3.66597128
Al      12.19246098      11.05452877      11.29419132       0.00547329      -0.00691306       0.00105381      -4.04827017
Al       9.34135069       9.80952446      12.95649878       0.00376800       0.00720257      -0.00310422      -3.67283833
Al      11.81678295      10.07552730      13.91109242       0.00660521      -0.00364864      -0.00650155      -3.98624492
Al       9.68216513      11.76195648       1.02463898       0.00805430       0.01097918      -0.00078898      -3.61748338
Al      12.01470674      12.54182415       2.23627608       0.00947219      -0.00424721       0.00105038      -3.93876052
Al       9.33272914      12.11781953       4.47670949      -0.00584948      -0.00834859      -0.00294942      -3.64462876
Al      11.38242064      13.80904088       4.75189358       0.01054335       0.00484776      -0.00697521      -3.93307841
Al      10.32022632      13.05122826       7.02999680       0.00285461      -0.00809534       0.00241479      -3.61042809
Al      12.12444035      14.31513668       8.71669653      -0.00254634      -0.00806347      -0.00944954      -4.17418194
Al      10.26174326      12.79809229      10.27635639      -0.00130862      -0.00769857      -0.00362929      -3.92306238
Al      12.69798535      13.64181297      11.30005737       0.00645599       0.00754712       0.00126988      -3.93481702
Al      10.67479503      12.46789201      13.24778570       0.00455489      -0.00080083       0.00353011      -3.54708970
Al      12.15169336      14.11950050      15.35127155      -0.00896731       0.00598422      -0.00098737      -4.02208930
Al      13.21635917       0.30251610       0.70164482      -0.00196420      -0.00114071      -0.00148436      -3.79824150
Al      14.76918250       2.21038763       1.90875728       0.00224080      -0.00643247       0.00218823      -4.03968817
Al      13.23749193      -0.24603073       3.65203325      -0.00585642      -0.00024687      -0.00297468      -4.05038959
Al      14.60392472       1.89670901       4.70434407      -0.01234473      -0.00043851       0.00075775      -3.84267914
Al      14.19348679      -0.19979854       6.72742457      -0.00813843       0.00179882       0.00475204      -3.76181626
Al      15.77447035       0.97553640       8.81086377       0.00176233      -0.00074339       0.00421360      -4.03854895
Ni      13.47361565       0.55930428       8.96855554       0.01163612      -0.00559989       0.00106287      -5.90684986
Al      15.91264323       1.91053127      11.79260448       0.00203796       0.00017515       0.00137508      -3.84606302
Ni      12.75315032       0.87931784      14.07805134      -0.00348294       0.00298321       0.00471725      -6.16749096
Al      15.15416497       1.83205842      14.69984832      -0.00816476      -0.00723626       0.00253391      -3.99404848
Al      12.36152020       2.84043730      -0.40526661      -0.00001152       0.00148654      -0.00420119      -4.02492058
Al      14.48734094       4.82903392       1.39925838       0.00024860       0.00206831       0.00227573      -4.00567532
Ni      13.38074747       3.78492602       3.34058420      -0.00692537      -0.01045146      -0.00012201      -6.00682735
Al      13.70492941       4.45145994       5.80682343      -0.00456358      -0.00714072      -0.00427839      -3.83564043
Al      13.28032500       2.24357620       7.27879772      -0.00646371       0.00694330      -0.00442767      -4.02683765
Al      14.95518824       5.06589909       8.35400076      -0.00088681      -0.00294356       0.00008509      -3.71457255
Al      13.86281222       2.82070283       9.93998665      -0.00262969       0.00770622       0.00653765      -3.85727274
Al      14.92815719       5.02649851      11.22434769      -0.00549895      -0.00216328      -0.00515214      -3.70720840
Al      13.58458404       2.96500060      12.67301657       0.00933303       0.00025044       0.00089855      -3.77510750
Al      15.05028880       4.70871185      14.20698632       0.00211106       0.00382194       0.00405297      -3.92469120
Al      12.70578132       5.79403309      -0.37373861      -0.00291222      -0.00470147      -0.00063409      -3.80719590
Al      14.06527807       7.92575396       1.51188974       0.00278509       0.00357991       0.00187856      -4.08908111
Al      12.88675051       6.26255809       3.76877022      -0.00150143      -0.00153660       0.00189485      -4.02927625
Al      14.56317889       8.60263948       4.32190066       0.00357476       0.00149736      -0.00510526      -3.87419236
Al      13.10614903       6.77001722       6.92564480      -0.00465170       0.00724886       0.00067942      -3.63781750
Al      15.21539004       7.82590090       8.36713138      -0.00002814      -0.00287469      -0.00006910      -3.72245276
Al      13.07664579       6.65393742       9.80613107       0.00520141      -0.00167266       0.00007214      -3.64072096
Al      15.21338347       8.34852393      11.13907497       0.00491482      -0.00466080      -0.00572616      -3.81809855
Al      12.73825911       5.62803287      12.68282243       0.00022391      -0.00460206      -0.00629139      -3.58401060
Al      14.22036105       7.77704830      13.74448455      -0.00049400      -0.00199619       0.00024940      -4.08989048
Ni      12.46986150       8.20989616      -0.26562918       0.00386655       0.00132264      -0.00347532      -5.84107673
Al      14.17720752      10.84197099       2.48378748      -0.00003722      -0.00081788       0.00230483      -4.14443034
Ni      12.45091079       8.89411076       3.17494375      -0.00040777       0.00002796      -0.00783865      -6.00253493
Al      15.13573413      11.20461283       4.99312777       0.00098820      -0.01024082      -0.00236912      -4.04615396
Al      13.54221012       9.53002643       6.75654791       0.00091578       0.00242776       0.00319004      -3.61728692
Al      15.54048438      11.42884247       8.33025249       0.00143591       0.00085770      -0.00469218      -4.08321631
Al      13.49205774       9.59701682       9.43768956       0.00793541      -0.00568524       0.00284650      -3.81114459
Al      15.02825448      11.58564111      11.13736363       0.00377628       0.00282271       0.00321744      -4.09369558
Ni      13.94159167       9.92829024      12.62962870       0.00192232      -0.00268450       0.00182725      -6.10146308
Al      14.35283262      10.25519615      15.16357898      -0.00003520       0.01021590      -0.00493267      -4.08490658
Ni      13.59318243      12.17683699       0.32341162       0.00649077      -0.00865927       0.00335364      -5.97362632
Al      14.48333676      13.73578240       2.01690974       0.00069222      -0.00214979      -0.00200748      -4.01415521
Ni      13.53272714      12.84095914       4.21354154      -0.00228159      -0.00191946      -0.00388853      -6.02580047
Al      15.52262995      13.81032196       5.30271828      -0.00436597       0.00535691       0.00012850      -3.98323339
Al      13.17428279      12.57535633       6.73882013      -0.00533630      -0.00440688       0.00159995      -4.01527911
Al      14.83530744      14.01409984       9.40234974      -0.00067627      -0.00483347      -0.00204941      -4.04828584
Ni      13.39033736      12.10074195       9.29819843       0.00162315       0.00351371       0.00737485      -6.06724703
Al      15.16676951      14.58122053      12.03976235      -0.00261307       0.00222763      -0.00985368      -3.76566601
Al      13.64824850      12.31033598      13.56094662       0.00705211       0.00002283      -0.00142513      -4.06219423
Al      14.78789389      14.58952496      14.81951845       0.00783899      -0.00106898      -0.00620054      -3.92500180
