103
Lattice="11.038539253616275 0.22399279715278173 0.43650435484442773 0.21953107524930712 10.84270269024432 -0.3410312387102468 0.44522162705025725 -0.3454445604068833 10.476339508247815" Properties=species:S:1:pos:R:3:forces:R:3:energies:R:1 energy=-560.324003666895 stress="-0.0003645015232450994 -0.0006824513802946988 -0.0004420580416351572 -0.0006824513802946988 -0.000832950030767853 0.00011864352709045837 -0.0004420580416351572 0.00011864352709045837 0.0009168404177809433" free_energy=-560.324003666895 pbc="T T T"
Ni       0.25083493       0.30909501      -0.45885638       0.00021355      -0.00122204      -0.00106402      -5.80161624
Ni       0.99848826       0.46475594       1.95446711       0.00482585      -0.00711468      -0.00568774      -5.88404581
Al       1.46732915       1.78567316       3.96091930      -0.00109047      -0.00420578      -0.00078373      -4.75631137
Ni       0.54038577      -0.12779441       5.48575561      -0.00577878       0.00068237       0.00580092      -5.93051655
Al       0.88263906       2.02510082       6.55195108      -0.00053113       0.00270185      -0.00459889      -4.60861099
Ni      -0.31245954       0.44962741       7.92577358      -0.00030535       0.00848852      -0.00325387      -5.82060313
Al       2.21887769       1.01996848       8.53073602       0.00463594       0.02015824      -0.00291657      -4.86401717
Ni       1.06495002       2.52436665       0.27939851       0.00160166       0.00415155       0.00202730      -5.85840830
Al       2.01275425       4.40380146       1.55098655      -0.00278036       0.00154276      -0.00275235      -4.83583908
Ni       0.00723370       3.29486233       2.36392148      -0.00663091      -0.00345331      -0.01333405      -5.73246048
Al      -0.72339818       3.54967292       4.58239114      -0.01533254       0.00067209       0.00531302      -4.84804729
Ni      -0.90426568       1.23019621       3.77408464      -0.00195829       0.00380034      -0.01213654      -5.91416655
Al       1.64453007       4.62431671       6.35769827      -0.00015882      -0.00734032      -0.00169832      -4.80762202
Ni      -0.65600417       3.81872833       7.05182249      -0.00481554       0.00732101       0.00386634      -5.84221649
Al       1.91051558       3.87677658       9.13023827      -0.00496792       0.00329459       0.00290132      -4.86736614
Ni      -0.07340977       4.93565208       0.43378020       0.00129803      -0.00377856      -0.00056758      -5.85833884
Al       1.39562041       6.87388205       0.20797861      -0.00575115       0.00146127       0.00121088      -4.97594866
Ni       0.73447310       6.16883248       2.64248380       0.00592611       0.00344782      -0.00341696      -5.60545893
Ni       0.01790772       5.83329792       5.05160924       0.00012423       0.00267356       0.00059806      -5.82471806
Al       1.42663072       7.32519714       6.68350283      -0.00330732       0.00391055       0.00174653      -4.93206382
Ni       0.71462735       5.89396091       8.52646618      -0.00473501       0.00639626       0.00445952      -5.74460168
Ni      -1.01525272       7.29235209      -0.00966962       0.00370246       0.00255398      -0.00817085      -5.68380639
Al       1.87481502       9.42483098       0.11274224       0.00090853       0.00854562       0.00595974      -4.77326057
Ni       0.70116253       8.48916370       1.95319811       0.00070095       0.00040896      -0.00691862      -5.66209509
Al       2.03807739       9.93443359       3.33005010      -0.00480583       0.00872971      -0.00473361      -4.73458517
Ni       0.66591539       8.09074536       4.42181748      -0.00258454       0.00315451       0.00357921      -5.79251796
Ni       0.43478701       8.48582043       8.78787617       0.00480026      -0.00512527       0.00587011      -5.80547195
Ni       2.65795931       0.65343827       0.11399366       0.00143142      -0.00550903       0.00918911      -5.48670530
Al       4.78242598       1.17596693       0.88002477      -0.01316480       0.00700511       0.00294473      -4.71666463
Ni       3.55929689      -0.80366033       1.92234546      -0.01195783       0.00453981       0.00495917      -6.00527993
Al       4.10606216       0.81494503       3.73441467       0.00462057       0.00048458      -0.01224800      -4.76154453
Ni       2.89364842       0.61756688       5.99954332      -0.00414186      -0.00051436       0.00052143      -5.98319381
Al       4.81292412       1.26920429       7.77544136      -0.00727479      -0.00630245      -0.00514682      -4.79151212
Ni       1.50104609      -1.09811089       7.52066409      -0.00636463      -0.00587205      -0.00219638      -5.75945451
Ni       3.42068979       2.84133784      -0.67936822       0.00072905       0.00044285       0.00734982      -5.99639788
Al       4.79636203       3.79416931       1.04294321       0.00303753      -0.00905308      -0.00477281      -4.90180357
Ni       2.94075465       2.23512731       2.06342064       0.00151826       0.00652333      -0.00285777      -6.02964595
Al       3.87177495       3.82663403       3.78802541      -0.00171851       0.00688407       0.01280694      -4.79262060
Ni       1.57050291       4.19719344       3.94179535       0.01481631      -0.00142209      -0.00323309      -5.68390076
Ni       3.19336875       2.94759063       7.25388410      -0.00519565      -0.00597914      -0.00292098      -5.91210677
Al       5.21379435       4.38206286       8.74308729       0.00490000      -0.00689458      -0.00562316      -4.96300972
Ni       3.28318454       5.46362591      -0.17234119      -0.00383911      -0.00201587      -0.00512410      -5.74940791
Ni       3.95548749       5.75372729       2.17801194       0.00151153       0.00162605      -0.00266535      -5.69532628
Al       4.94569742       6.37777762       4.16777222       0.00414020       0.00136491      -0.00548075      -4.74190116
Ni       2.59043764       6.24012330       4.72137225      -0.00508547      -0.00599504      -0.00560432      -5.93178335
Al       4.12505164       7.08667155       6.51688305       0.00571196       0.00392516       0.00594228      -4.62054145
Ni       3.13598038       5.53120451       7.96622482       0.00041524      -0.00185794      -0.01308729      -5.82708513
Ni       3.71692863       7.76730668       0.49423298       0.00221212      -0.00834509       0.00096121      -5.68721803
Ni       2.89695240       7.79126278       2.82876259       0.00716479      -0.00553018      -0.00022133      -5.67396287
Al       4.74325027       9.05217546       3.66016500      -0.00153059      -0.00307875       0.00474359      -4.64042641
Ni       2.90064526       8.74919422       5.22570714       0.00692584       0.00444998      -0.00198710      -5.82896233
Al       4.09342885       9.63772429       7.03135136      -0.00007584       0.01277253       0.00260244      -4.65461832
Ni       2.94214180       7.91157766       8.56546941       0.00151816       0.00673206      -0.01151430      -5.95439878
Al       4.87141623       9.33613213       9.56733356       0.00653626      -0.00456589      -0.00111575      -4.83966694
Ni       6.56389667      -0.11538399      -0.01871201      -0.00151351       0.00440854       0.01018551      -5.66727842
Al       7.29539743       1.98653500       1.25501467       0.00464330      -0.00062594       0.00056089      -4.84217990
Ni       5.94985640      -0.29960236       2.47710056      -0.00032235      -0.00063895       0.00625345      -5.93099916
Al       7.10400918       1.14216017       4.60389172      -0.00093787      -0.00872604       0.00378573      -5.07195933
Ni       5.36596511      -0.25746902       5.66791430       0.01026291      -0.00511984       0.00616357      -5.88030358
Ni       6.09678375      -0.94226750       8.06975111       0.00027036      -0.00156323       0.00690169      -5.61999014
Ni       6.02550489       2.20271714      -1.02193481      -0.00347278       0.00276774       0.00174274      -5.90250753
Ni       5.68847300       2.43372144       2.94551164      -0.00329345      -0.00605993      -0.00838908      -5.97614338
Al       6.55076217       3.97619115       4.74342473      -0.00348595      -0.00410113      -0.00428606      -4.87635138
Ni       4.85705673       2.23424559       5.42442979       0.00639522       0.00338823      -0.00494430      -5.73333441
Ni       6.99820733       1.10761259       6.99823029      -0.00484384      -0.00559105       0.00653405      -5.69455402
Al       7.64370498       3.84881351      10.15278184      -0.00674426      -0.00020553       0.00376305      -4.72171300
Ni       5.63795312       5.99449510       0.35075660       0.00632232       0.00289462       0.00203793      -5.89647539
Al       8.08092986       6.42381884       1.29690555       0.00079586      -0.00009852       0.00826655      -5.03702056
Ni       6.53965702       4.84950498       2.44990056       0.01179225      -0.01273997      -0.01346069      -5.96465664
Al       7.57578321       6.57265694       3.97894220       0.00239117      -0.00064735      -0.00550697      -4.70376203
Ni       4.42571580       4.72186719       5.97011765      -0.00877921       0.00510145      -0.00172914      -6.02176525
Al       6.50873006       5.95970466       6.70040030       0.00062760      -0.00137294      -0.00142388      -4.85892474
Ni       6.18889973       3.32242380       7.07317724      -0.00500668       0.01083099       0.00826921      -5.68362183
Al       7.59848286       6.45603422       9.20004220       0.00068258      -0.00582794       0.00083737      -4.70678273
Ni       6.13770011       8.41712843       0.03313526      -0.00306952      -0.00036903       0.01089947      -5.55684479
Ni       5.98740077       7.50888343       2.30978326      -0.00181732      -0.01099132       0.00104002      -5.91955109
Al       7.47630998       9.15322523       3.61282868      -0.00974881       0.00574738       0.00291856      -4.79549805
Ni       6.18333462       8.14955177       5.53302531      -0.00190410      -0.00496234      -0.00145289      -6.04710696
Ni       5.22592898       6.90375485       8.72142315       0.00657938      -0.00099366       0.00255945      -5.81508756
Ni       8.86066455       0.74164552      -0.04947796      -0.00144698       0.00634859      -0.00980979      -5.77727158
Al       9.98695432       1.78685203       1.77452873       0.00717485      -0.00336919      -0.00252642      -4.78526651
Ni       8.34635908       0.29109651       2.72129797      -0.00006530       0.00135785      -0.00251478      -5.90855922
Ni       7.83077356      -0.96363948       6.07482201      -0.00295612      -0.00096540       0.00036125      -5.84168267
Al       9.36727902       0.95802124       6.44696644      -0.00127538      -0.00038426      -0.00097767      -4.80206992
Ni       8.40801756      -0.29551810       8.34642222      -0.00045212       0.00286100       0.01275077      -5.66592439
Al      10.55251211       2.71767451       9.81282362      -0.00196910       0.00042289       0.00183729      -5.08314471
Ni       8.88470530       3.98231660       1.31814397       0.00147196       0.00076534      -0.00486595      -5.75843308
Ni       8.31550805       2.95064649       3.40269241       0.00333844      -0.00429677      -0.00102928      -5.89127247
Ni       8.35049380       2.94871764       5.99056974      -0.00505741      -0.00031341       0.00192341      -5.70394520
Ni       8.68436784       2.24455124       8.45820175       0.00482252       0.00532321      -0.00243393      -5.71221706
Ni       9.17875459       5.45085364      -0.78851303       0.00387065      -0.00212402       0.00031858      -5.79915201
Ni       9.50110809       5.37846177       3.26976705       0.00135558      -0.00802170       0.00845516      -5.67512818
Ni       8.63806075       5.34357783       5.67558343       0.01318744      -0.01292706       0.00406815      -5.73091883
Al       9.78150614       6.46226862       7.54692913       0.00515358       0.00035687      -0.00495116      -4.93587648
Ni       8.02390873       4.55425507       7.90312352      -0.00666633       0.00756081       0.00019441      -5.78023177
Ni       8.00611162       8.98035681       1.31736287       0.00420752       0.00312600       0.00513679      -5.69602071
Al      10.22658841       9.88679120       1.07414130       0.00145140       0.00142105       0.00818633      -5.00118500
Ni       9.53917046       7.80160870       2.86942590       0.00970765       0.00106439       0.00174940      -5.88961859
Al      10.08319959       9.89264379       4.04610960      -0.00451694      -0.00781499       0.00586563      -4.94468110
Ni       9.21416276       7.76319381       5.29887621      -0.00118396       0.00698836       0.00568454      -5.87076217
Al      10.35147391       9.27791194       6.89352233       0.00404784      -0.00071546      -0.00123382      -5.06838723
Ni       7.88810333       8.02635734       7.40450571      -0.00307168      -0.00598298      -0.00670560      -5.79064830
Al       8.98941557       8.73606136       9.48388020       0.00300479      -0.00085584       0.00146977      -4.89334085
