128
Lattice="11.710217882639288 0.08103458412613511 -0.018528260740163675 0.07990175346393574 12.38754531994499 -0.01328485556061631 -0.018001303299459648 -0.014436513994350164 11.355191963383094" Properties=species:S:1:pos:R:3:forces:R:3:energies:R:1 energy=-643.6340689963397 stress="-0.00015218856282427364 -0.00012735121516187976 -0.0001449705339585383 -0.00012735121516187976 3.343860656115961e-05 -0.00026959840216825466 -0.0001449705339585383 -0.00026959840216825466 2.603768490055753e-05" free_energy=-643.6340689963397 pbc="T T T"
Ni      -0.09199935      -0.29183094       0.03458236      -0.00064428      -0.00512176       0.00124861      -6.32898482
Al       1.46849378       1.33936697       1.38094966      -0.00103072      -0.00636191       0.00200896      -4.36977391
Al      -0.09372082      -0.06225464       2.99851559      -0.01006694       0.01251380      -0.01074688      -3.70985421
Al       1.40699414       1.72316213       4.35140374      -0.00909261      -0.00238342       0.00174001      -4.47748600
Ni      -0.08220317      -0.06106628       5.53939742      -0.00176647      -0.00014061      -0.00497473      -6.20894439
Al       1.42443694       1.34537039       7.04033380       0.00710296      -0.00072825       0.00015667      -4.47251814
Ni      -0.07367841      -0.20601474       8.52955012      -0.00279306       0.00407513      -0.00200576      -6.16268116
Al       1.44599397       1.19190767       9.94074004       0.00264461       0.00156939       0.00562468      -4.37076755
Al       0.15316995       3.14410463      -0.06429109       0.00169760      -0.00149161      -0.00253153      -3.81361357
Al       1.60492704       4.90754827       1.39909144      -0.00171113       0.00508480       0.00140925      -4.38152516
Ni       0.05007834       3.07839577       2.61143803       0.00413146      -0.00079116       0.00123204      -6.21597438
Al       1.50594100       4.58432755       4.17071262       0.00019521       0.00095979      -0.00231224      -4.45992799
Ni       0.01356186       3.20311809       5.95822354      -0.00263927      -0.00439134      -0.00096165      -6.19295299
Al       1.61444062       4.86800037       7.16269216      -0.00105245      -0.00164406       0.00083345      -4.41428818
Al       0.08641863       3.14345341       8.51229740       0.00298393      -0.00671549      -0.00069409      -3.86135436
Al       1.61254872       4.99516778       9.97798014       0.00146383      -0.00324297      -0.00158334      -4.36484964
Ni       0.17585333       6.60713620      -0.00769463      -0.00373832       0.00362692       0.00324045      -6.24024275
Al       1.77550562       7.79805938       1.49335183      -0.00048731       0.00108274       0.00142511      -4.42600451
Ni       0.19923350       6.46464045       2.93591759      -0.00035886       0.00444863       0.00023046      -6.15684305
Al       1.81195553       7.86142489       4.16993447      -0.00752143      -0.00180887       0.00295820      -4.40821911
Al       0.19313164       6.42605054       5.57104079       0.00237164       0.01066587      -0.01101360      -3.75737095
Al       1.78110417       7.81758887       7.13243983      -0.00142209       0.00440189       0.00267450      -4.41274688
Ni       0.18190894       6.52964890       8.47238155      -0.00139475      -0.00092547       0.00009010      -6.18015803
Al       1.78255410       7.84200618       9.84446465      -0.00396976       0.00307683      -0.00591640      -4.43792761
Al       0.08631090       9.18659632      -0.01926514      -0.00333199      -0.00130429      -0.00130981      -3.69535567
Al       1.61601166      10.72608469       1.49581838       0.00703308      -0.00223877      -0.00016710      -4.40167533
Ni       0.03984286       9.10548434       2.87376758      -0.00259094      -0.00181071      -0.00115315      -6.21131578
Al       1.42994715      10.65350194       4.30166704       0.00635548      -0.01107550       0.00591568      -4.28427280
Ni       0.05446983       9.03604858       5.66079953       0.00284234       0.00068382      -0.00316103      -6.23734419
Al       1.36364653      10.79738823       7.05237521      -0.00003735      -0.00510814      -0.00331282      -4.48001240
Ni       0.05535825       9.16101348       8.44160708      -0.00284155       0.00092129      -0.00383076      -6.18257777
Al       1.58071621      10.72840712       9.81988548       0.00365903       0.00210631      -0.00375799      -4.45660669
Ni       2.92658836      -0.20066591      -0.00352021       0.00553417      -0.00326130      -0.00106934      -6.19875046
Al       4.13566878       1.50153462       1.48272856       0.00088496      -0.00385502       0.00207207      -4.46341412
Ni       2.70533008      -0.07142490       2.95872813       0.00103327      -0.00075559       0.00109406      -6.20842654
Al       4.18876323       1.60038828       4.29316254      -0.00111436      -0.00366619       0.00153397      -4.53692750
Ni       2.76909942      -0.11922232       5.62773564       0.00354032      -0.00499665       0.00196836      -6.22124511
Al       4.20693932       1.57005199       7.07709525      -0.00395548       0.00103358       0.00085438      -4.52328766
Ni       2.80264303      -0.14553092       8.44124320       0.00231843       0.00131282       0.00008705      -6.13963031
Al       4.12408503       1.52057844       9.82989803      -0.00023046      -0.00070936      -0.00037657      -4.49301200
Ni       2.68725920       3.01805266      -0.06580995       0.00009575      -0.00077808      -0.00099697      -6.21186872
Al       4.28466091       4.41800369       1.39870952      -0.00262105      -0.00226581      -0.00035982      -4.42658577
Ni       2.74454346       3.06378191       2.73877424      -0.00272403      -0.00265489      -0.00374017      -6.12383729
Al       4.38000058       4.49988817       4.21695680      -0.00023159       0.00224364      -0.00117972      -4.54361950
Ni       2.78719444       3.19820712       5.78496154       0.00152387      -0.00049436       0.00335003      -6.11078776
Al       4.41131647       4.58372918       7.11606851      -0.00115371       0.00499904       0.00028203      -4.52981964
Ni       2.64621871       3.06188826       8.55118196       0.00187390      -0.00153634      -0.00015627      -6.21262995
Al       4.26689679       4.39087275       9.91191776      -0.00378563       0.00271926       0.00447236      -4.45182137
Ni       3.20474244       6.37622140       0.00167120       0.00237427       0.00437211       0.00043781      -6.20259634
Al       4.45242231       8.00296067       1.53890421       0.00394194       0.00397177       0.00429520      -4.43531857
Ni       3.10373767       6.13253853       2.80800564      -0.00052849       0.00365815      -0.00251778      -6.11052516
Al       4.53729473       7.54230801       4.19778316       0.00838300       0.00213307       0.00099218      -4.39444231
Ni       3.01406041       6.10472219       5.58407198      -0.00243088      -0.00299597       0.00138924      -6.25094666
Al       4.56326087       7.47308555       7.07682700      -0.00228006      -0.00490509       0.00193724      -4.39735717
Ni       3.17311143       6.20886490       8.60737055      -0.00156120       0.00145574      -0.00408067      -6.11354776
Al       4.45787332       8.01906558       9.79053632      -0.00098997       0.00305613      -0.00221653      -4.46761310
Ni       3.09611537       9.42380937       0.00643339       0.00178183       0.00197390      -0.00221807      -6.19258463
Al       4.47929037      10.89717898       1.50683082      -0.00346682       0.00214800      -0.00088428      -4.44646539
Ni       3.24432954       9.50516613       3.06683302       0.00594913       0.00905872      -0.00139934      -6.20837864
Al       4.61876174      11.25864039       4.19131005       0.00341912      -0.00065944      -0.00053608      -4.44520773
Al       3.31205891       9.48313220       5.69324074      -0.00209734       0.00607867       0.00396260      -3.83696777
Al       4.64312970      11.26001311       7.11768277      -0.00031098       0.00121489       0.00006491      -4.41238720
Ni       3.21464463       9.48987883       8.22209894      -0.00018909      -0.00164951      -0.00167395      -6.21191219
Al       4.47166350      10.85928478       9.81396690       0.00406288      -0.00140040      -0.00254769      -4.46612191
Al       5.84284452       0.15305931      -0.00223268      -0.00028196       0.00084782       0.00505738      -3.84101319
Al       7.47921896       1.70813969       1.51815891      -0.00243050       0.00120615       0.00124153      -4.31003320
Ni       5.95826631       0.24667918       2.74077534       0.00009291       0.00557884       0.00384199      -6.19613333
Al       7.42259717       1.65486515       4.25564570       0.00395160       0.00353792      -0.00006953      -4.38807809
Ni       5.92575230       0.31279827       5.65335900      -0.00116635       0.00183931      -0.00440243      -6.16934878
Al       7.42368864       1.65208174       7.04208270       0.00022239       0.00213169       0.00081852      -4.47097774
Ni       5.96863566       0.25793404       8.58793813       0.00002625       0.00265233      -0.00188079      -6.19750436
Al       7.42046157       1.69782801       9.87911926      -0.00238497       0.00268959      -0.00106547      -4.18891799
Ni       5.68605331       2.77893093      -0.01046089       0.00222037      -0.00132893       0.00001743      -6.28037662
Al       7.01326637       4.33276720       1.39480396       0.00367341       0.00336235      -0.00065980      -4.20689983
Ni       5.68833581       2.86736274       2.83188256      -0.00463074      -0.00255534       0.00213893      -6.10911788
Al       7.23748363       4.30866984       4.29267480      -0.00333750       0.00337756       0.00082131      -4.43037265
Ni       5.72922003       2.99127122       5.70475844       0.00353276      -0.00083659      -0.00048474      -6.13573555
Al       7.18146029       4.62395760       7.08237435      -0.00102266      -0.00083121      -0.00109721      -4.46840660
Ni       5.73337858       2.90427020       8.47745407      -0.00053711       0.00538635       0.00174438      -6.13014119
Al       6.99624091       4.38720399       9.93714769      -0.00224585       0.00024640      -0.00554600      -4.17982970
Al       5.74620614       6.28806789       0.01775687      -0.00069318      -0.00010633       0.00217390      -3.87446528
Al       7.24320317       8.01395910       1.47354699      -0.00226774       0.00278142      -0.00198822      -4.31673133
Ni       5.90674511       6.11160571       2.67823279      -0.00160459       0.00282154       0.00620710      -6.27845635
Al       7.29131841       7.67646713       4.24792594      -0.00329353       0.00287730       0.00678298      -4.25175082
Ni       5.91992883       6.00950881       5.54346359      -0.00180090       0.00089830       0.00344849      -6.12772990
Al       7.40667736       7.44615149       7.10663064      -0.00026342       0.00092634       0.00441115      -4.48966827
Ni       5.84559906       6.13637950       8.71087626       0.00180566       0.00261241       0.00303298      -6.20113312
Al       7.26184099       7.98508735       9.79214357      -0.00171561       0.00396754      -0.00469147      -4.39588218
Ni       5.89667928       9.41804012      -0.02793318      -0.00043121      -0.00043140      -0.00122750      -6.21128266
Al       7.28189408      10.80926824       1.55395520      -0.00442576      -0.00519564       0.00268794      -4.38727382
Ni       5.88572131       9.41172093       3.08708000       0.00209814      -0.00341029       0.00097788      -6.26025932
Al       7.42107085      11.13764511       4.22872694       0.00000664      -0.00442685       0.00092156      -4.46831038
Al       6.00872288       9.39676633       5.70702046       0.00399097       0.00231990      -0.00237427      -3.93232549
Al       7.46504775      11.20535423       7.03556384      -0.00388515       0.00198708       0.00280731      -4.46936799
Ni       5.89924631       9.34490820       8.19678138       0.00363270       0.00090230       0.00399564      -6.21544554
Al       7.26346704      10.77306905       9.73836875      -0.00450932      -0.00322473      -0.00210334      -4.41972382
Al       8.78963688      -0.12825641       0.00592120      -0.00032960       0.00079027       0.00206456      -3.76099172
Al      10.29734426       1.55975420       1.40958288       0.00289953      -0.01064232       0.00704519      -4.10926322
Ni       8.87724678       0.03752191       2.79982117       0.00019356       0.00016997       0.00249688      -6.26812447
Al      10.19483814       1.90093139       4.28420644       0.00626984      -0.00802088      -0.00112204      -4.44392168
Ni       8.92360281       0.12713989       5.52235930       0.00196984       0.00165448      -0.00309038      -6.09813148
Al      10.28878591       1.40395463       7.04640090      -0.00199302       0.00052453      -0.00437535      -4.38856364
Ni       8.77960468       0.03086593       8.61842181      -0.00010196       0.00028629      -0.00535453      -6.25753195
Al      10.36058459       1.39125309       9.91713245       0.00236845      -0.00155531      -0.00347892      -4.09113512
Al       9.09912661       3.40140731      -0.05380134       0.00062012       0.00519117      -0.00376267      -3.80102395
Al      10.64201940       5.06436321       1.43289103      -0.00879738      -0.00739221       0.00193659      -4.16171660
Ni       9.09507708       3.45104294       2.49560741       0.00155265      -0.00129487       0.00254332      -6.23788945
Al      10.42054796       4.62916283       4.24869525       0.00390055      -0.00348255       0.00352988      -4.40246910
Ni       9.04339104       3.32206824       5.96603779      -0.00156931      -0.00270271      -0.00192915      -6.12049372
Al      10.27820842       5.15124685       7.09653748       0.00554780      -0.00389289       0.00084991      -4.20997630
Al       9.06346978       3.35402546       8.54988863       0.00004739       0.00022963      -0.00154282      -3.83117087
Al      10.57220990       5.16099924       9.90202479      -0.00029405       0.00069870       0.00078538      -4.08866423
Al       8.55072940       6.13654396      -0.02058153       0.00729510      -0.00384942       0.00068359      -3.76177031
Al      10.14101951       7.83040435       1.47400524       0.00008941       0.00240916       0.00627118      -4.21781791
Al       8.56793655       5.96800798       2.76991910       0.00277724      -0.01230965      -0.00705839      -3.84586270
Al      10.08032242       7.85580053       4.22965910       0.00475411      -0.00018638       0.00517253      -4.40205332
Ni       8.66570722       6.01855659       5.42831535       0.00361020       0.00154332       0.00125971      -6.14813806
Al      10.12318566       7.89261935       7.03883096       0.00388242      -0.00294627       0.00542544      -4.31241846
Ni       8.49860449       5.98943315       8.83744719       0.00331187      -0.00620831      -0.00356097      -6.22285142
Al      10.07125628       7.86719454       9.76328928      -0.00132307       0.00152199       0.00013698      -4.36740224
Ni       8.71299485       9.45570796      -0.02195991       0.00133026      -0.00186520       0.00437922      -6.27778639
Al      10.23661256      10.66284724       1.55834958      -0.00538936      -0.00203149       0.00244319      -4.31454612
Ni       8.63180921       9.35659011       2.96357969      -0.00305493       0.00061733       0.00006135      -6.14089958
Al      10.22057223      10.66271228       4.33635486      -0.00225801      -0.00340237      -0.00238768      -4.44333263
Ni       8.58685432       9.35158617       5.67515702      -0.00161514       0.00439492      -0.00527251      -6.20868812
Al      10.27741218      10.83973140       7.00162622      -0.00579722       0.00213089      -0.00007310      -4.47821552
Ni       8.62474470       9.37796283       8.27263223      -0.00158507       0.00084378      -0.00072549      -6.08607741
Al      10.24623992      10.69619219       9.71973608      -0.00167362       0.00339490      -0.00308403      -4.37024216
