250
Lattice="15.787758439659289 0.32060608939059304 -0.19469124710173608 0.3210076524393308 16.67992705318705 0.3133958545498648 -0.19245682372063647 0.31425699750779107 15.67179792778063" Properties=species:S:1:pos:R:3:forces:R:3:energies:R:1 rep=5 n_sites=250 energy=-992.488525390625 stress="0.0002556327963247895 -0.00012254648027010262 -0.0006995423464104533 -0.00012254648027010262 -0.0002843230904545635 -0.00015546067152172327 -0.0006995423464104533 -0.00015546067152172327 9.571317059453577e-05" free_energy=-992.488525390625 pbc="T T T"
Al       0.11133553      -0.07040141       0.21006771       0.00067564       0.00414584      -0.00225443      -3.66373885
Al       1.63672507       1.75182124       1.41382882      -0.00653411      -0.00717772      -0.00172294      -3.64633358
Al       0.38067478      -0.14825814       3.00630216      -0.00087237      -0.00208506      -0.00223925      -3.77152646
Al       1.73485767       2.12356834       4.12347713       0.00273087       0.00181768      -0.00043469      -3.69102955
Al       0.48143563       0.17832463       5.76899356       0.00745750      -0.00560108       0.00372080      -3.64265311
Al       1.95274822       1.33285406       7.83348704       0.00114858      -0.00137514       0.00232893      -3.90597576
Al      -0.33086944      -0.15470764       8.83494944      -0.00253974      -0.00480291       0.00547589      -4.03426695
Al       1.41732220       1.41556154      10.73859318      -0.00732251      -0.00089957      -0.00004949      -3.77122343
Al      -0.95097252       0.55803667      12.15038514      -0.00010874       0.00124922      -0.00547140      -3.59465778
Al       1.23948323       1.42732394      13.78366350       0.00048217      -0.00798608      -0.00055144      -3.68815339
Al      -0.15906459       3.25215456       0.07600881       0.00254150       0.00123516      -0.01364471      -3.61642587
Al       0.99516435       5.96650239       2.10142642      -0.00287312      -0.00833288      -0.00258818      -4.07653815
Al      -0.26125763       3.73712549       2.95815984       0.00823117       0.00440421      -0.00139439      -3.68084657
Al       2.42149397       5.48490374       4.82782608      -0.00920685      -0.00486618       0.00681752      -3.90359312
Al       0.73396507       3.78749732       6.02159848       0.00444272      -0.00282720      -0.00577638      -3.78219283
Al       1.87557636       5.35759715       7.93728950      -0.00297381      -0.00236923      -0.00121748      -3.90353131
Ni       0.79292523       3.29846955       8.53403099      -0.00901053       0.00995654       0.00172952      -5.97260171
Al       0.94074672       4.67315906      10.54464202      -0.00082306      -0.00079173      -0.00580633      -3.88963264
Al      -0.22061964       3.35212479      12.66402907      -0.00747526      -0.00501521      -0.00504152      -3.71026397
Al       0.56587667       5.85131938      14.79920051      -0.00487895      -0.01718438       0.00395039      -3.80796349
Ni       0.12855450       7.49069145       0.40711158      -0.00662865       0.00006765       0.00096080      -5.77898479
Al       2.05351752       8.42917248       1.44273476      -0.00159977       0.00512683       0.00151294      -3.97575784
Al      -0.32645692       6.19457740       4.52029654      -0.00370223       0.00649106       0.00250820      -3.63266027
Al       1.80941662       8.02399445       4.21092777       0.00150825      -0.00254747       0.00082678      -4.12269115
Al       0.32074335       7.31897696       6.86646843      -0.00111423      -0.00107190      -0.00603659      -3.68744624
Al       1.70014828       9.63408643       8.96670222      -0.00988144      -0.00237691       0.00415835      -4.11101079
Al       0.10422686       7.17423008       9.59150240      -0.00503418      -0.00125625       0.00282334      -3.73438430
Al       1.26073348       8.73543352      11.58859360       0.00265433       0.00954406      -0.00185212      -3.83772707
Al      -0.23077131       6.45184003      12.30634320       0.00181942      -0.00396339       0.00059123      -3.73820102
Al       1.50602706       8.29935225      14.26827293       0.00878930       0.00889985      -0.00434029      -3.84659636
Al      -0.20553879       9.69446252      -0.53780705       0.00946136      -0.00355926      -0.00422332      -4.06771892
Al       1.30064391      11.41578044       1.87549392       0.00401697       0.00015382       0.00102049      -4.09381014
Ni       0.65418235      10.19240612       3.97852664      -0.00581835      -0.00081102      -0.00955945      -6.02375436
Al       1.98856784      12.17054725       4.95070144       0.00004396       0.00301712       0.00458676      -4.04827130
Al       1.36921611       9.79384266       6.29167623      -0.00306442      -0.00165644      -0.00331634      -3.82834637
Al       2.00003328      12.38784330       7.78605794       0.00428551       0.00158021      -0.00495403      -4.12573397
Ni      -0.25329963      10.20870692      10.21338832       0.00196761      -0.00298859       0.00258909      -5.85032457
Al       1.28229228      12.16410027      10.42727950       0.00116621       0.00334780       0.00318625      -4.29411209
Al      -0.16458877      11.02129548      12.47600102      -0.00001528      -0.00309443      -0.00387928      -4.09687823
Al       1.15676403      12.30598149      14.69108774       0.00173900      -0.00468667       0.00747486      -4.07342154
Ni      -0.59055873      11.78803352       0.48178278       0.00188360       0.01114839      -0.00443168      -5.77023888
Al       0.52675701      13.93626525       0.93189127      -0.00104554      -0.00349820       0.00035946      -3.89584875
Al       0.09385134      13.80336992       3.68844946       0.00548639      -0.00839335      -0.00794417      -3.70364964
Al       2.26425190      14.95553265       4.94442658       0.01000014       0.00296672       0.00802904      -3.87845755
Al      -0.03980405      14.09470432       6.56723189       0.00724294       0.00173968       0.00995457      -3.89568979
Al       2.25544980      15.17831254       7.85203729      -0.00601199      -0.00580442      -0.00097277      -4.07332128
Ni       0.29569537      14.08086796       8.92073172      -0.00110054      -0.00177090      -0.00425336      -6.00343001
Al       1.40609614      15.06528388      10.97254596       0.00236356      -0.00034919      -0.00240770      -4.04735410
Ni       0.59445124      13.34247922      12.53284156      -0.00342362      -0.00407326      -0.00717181      -5.81313330
Al       0.88596562      15.32860344      13.90037886      -0.00484309       0.00276583       0.00296444      -3.86651736
Al       2.84868116      -0.52345912      -0.04295121      -0.00921295       0.00386439       0.00247432      -3.71616030
Al       4.35115566       1.84795683       1.09235685      -0.00205447      -0.00010023       0.00488144      -3.88531679
Al       3.24280281      -0.08561249       2.80213657      -0.00204493       0.00521380       0.00059718      -3.73387575
Al       4.55885559       2.16174260       3.91003147       0.00227191       0.00043198      -0.00327052      -3.64754415
Al       3.35903555       0.50745627       5.69168162       0.00237044       0.00230977       0.00159622      -3.73334539
Al       4.77137526       1.47766216       7.99551483       0.00244169       0.00351407       0.00141351      -3.70984614
Al       3.40991573      -0.29801373       9.66694891      -0.00741483       0.00113323       0.00745171      -3.69240475
Al       4.69347838       1.72582847      11.11238882      -0.00149254       0.00203790      -0.00114975      -3.68897724
Al       3.04683673      -0.29317462      12.41663869      -0.00262684      -0.00022105       0.00458954      -3.66012323
Al       3.96616260       1.73956281      13.99020938       0.00095856      -0.00695166       0.00019115      -3.88322520
Al       2.49282079       3.49627822      -0.61370424      -0.00216863       0.00232361      -0.00517720      -3.67191279
Al       5.57457305       4.40860867       1.03507432       0.00572355       0.00070694       0.00734170      -4.01228392
Al       2.93445625       4.00166943       2.24855463      -0.00356580       0.00756365       0.00170947      -3.90594715
Al       4.97228442       4.84181593       3.86964845       0.01021266      -0.00228210       0.00251946      -3.96948385
Al       3.51536441       3.36146684       6.21356275      -0.00936072       0.00733251       0.00131645      -3.60769653
Al       4.62830277       5.48519394       8.17571537       0.00287175       0.00152646       0.00108098      -3.66419554
Al       3.18481983       3.32340635       9.40505456      -0.00176147       0.00461238      -0.00097503      -3.89850914
Al       4.62865907       5.16892622      11.09230662       0.00408834      -0.00372120      -0.00154145      -3.67395341
Al       2.68425899       3.48422935      12.29414354       0.00119960       0.00338905      -0.00381214      -3.63441813
Al       4.71415941       4.93580585      14.06694186      -0.00003834      -0.00140966       0.00215790      -3.79481804
Al       3.43415458       6.08220005       0.21694565      -0.00007965      -0.00135117       0.00686368      -3.87083972
Al       4.70882155       8.15620573       1.60846122       0.00585541      -0.00293006      -0.00708902      -3.88496095
Ni       3.24877188       6.42049597       2.72045762      -0.00043625      -0.00761487      -0.00323320      -6.03800321
Al       4.69477451       7.54260765       4.31873772      -0.00302590       0.00934881       0.00854437      -3.85597712
Al       3.05694595       7.47059793       6.78647938      -0.00089332       0.00328012      -0.00045442      -3.66073370
Al       4.34406996       9.21610740       8.36011603      -0.00199845       0.00186495      -0.00149199      -3.91823173
Al       2.90875550       7.02479665       9.87133946      -0.00186052       0.00100187       0.00059209      -3.69621670
Al       3.98910249       9.13507419      11.20424377      -0.00586894      -0.00736558       0.00177270      -3.77105808
Al       2.62123497       6.30959278      12.68972549       0.00091473       0.00765705       0.00398531      -3.67580116
Al       4.17021629       8.49095223      14.14539300      -0.00875996      -0.00649475       0.00321649      -3.66101503
Al       3.50269811      10.37690568       0.18142998       0.00282078       0.00288297       0.00112526      -3.70245600
Al       4.97683225      11.94988068       1.80042335       0.00181081       0.00345141       0.00304978      -3.66558993
Al       3.22610423      10.27766789       3.21870163      -0.00849101       0.00407827      -0.00303347      -3.78670049
Al       4.75120599      12.15664605       4.66323319       0.00088847       0.00585191      -0.00489363      -3.88664085
Al       4.12276888       9.70636538       5.70336527       0.00351656      -0.00157763       0.00304688      -3.59134436
Al       4.76697605      11.95527564       7.61175383      -0.01218709      -0.00170259       0.00153071      -4.12330592
Ni       3.49857967      11.20409558       9.49216503       0.00140642      -0.00332257      -0.01304947      -5.95253748
Al       4.48221826      11.82068881      11.58265650      -0.00337938       0.01193411       0.01252028      -3.81563115
Al       2.68153371      10.59926969      13.21698664      -0.00357786      -0.00182312      -0.00198723      -3.64082015
Al       5.12367063      12.25758238      14.15606370      -0.00254291      -0.00049491      -0.00624472      -3.93198538
Al       3.46046272      13.41861920      -0.00681537      -0.00298001      -0.00102547       0.00008259      -3.62764275
Al       5.25712939      14.88228030       1.75651471       0.00497899      -0.00160808       0.00373757      -3.71876943
Al       2.79157838      13.78543355       2.56943240       0.00295506      -0.00196224      -0.00056833      -3.59812391
Al       5.16786201      14.92365301       4.76662121       0.00611912      -0.00045896       0.00253654      -3.92450345
Ni       3.65228824      13.62114984       6.30306389      -0.00349078       0.00626386       0.00185757      -5.89602458
Al       5.08522556      15.16280492       7.59614234      -0.00236265      -0.00223142       0.00433031      -3.94297105
Al       3.73194125      13.65345875       9.74838141      -0.00281825       0.00138077      -0.00154760      -3.87842733
Al       5.40909408      14.47699375      11.79794262      -0.00769685       0.00061940      -0.00463343      -3.87358993
Al       2.94958900      13.61152362      12.89311864       0.01104546      -0.00380454       0.00091169      -3.89049345
Al       5.26844889      15.32199959      14.44611449      -0.00263508      -0.00122944       0.00012366      -3.87659007
Al       6.40566235       0.21508825       0.19620658       0.00047445      -0.00127330      -0.00047012      -3.86451930
Al       7.36214083       2.41249986       1.61596341      -0.00310293       0.00663325       0.00316580      -4.03107363
Al       6.20692846       0.21445612       2.96570783       0.00394898       0.00529158       0.00203555      -3.70793104
Al       7.48158125       2.57729169       4.42301491       0.00082027      -0.00032914       0.00083832      -3.90145755
Al       6.16907723       0.51964853       5.76013024      -0.00117414      -0.00358981       0.00225818      -3.71427274
Al       7.59308745       1.68046852       7.92112295      -0.00801216      -0.00361916      -0.00098223      -3.72362113
Al       6.16225262      -0.36611374       9.51032802      -0.00286770      -0.00526262       0.00013744      -3.70330095
Al       7.60040080       1.69426793      10.86145739       0.00187244      -0.00145748       0.00396266      -3.74851704
Al       6.49477954       1.04363263      13.24508299       0.00252666      -0.00266179      -0.01104233      -3.71873069
Al       8.18743277       2.99706068      14.72776278       0.00671696       0.00316784      -0.00432445      -4.14506578
Ni       6.01418662       2.50942744      -0.61301488       0.00467774       0.00478089       0.00295338      -5.97898573
Al       8.37577618       5.25002776       0.93539149      -0.00011462       0.00078435       0.00035858      -4.31353068
Ni       7.13390761       4.48538070       2.90274284      -0.00613816       0.00246590      -0.00693566      -5.78873789
Al       7.40785454       5.58649996       5.11765410       0.00218191      -0.00608838       0.00401759      -3.86899352
Al       6.16087898       3.66121210       6.67316537      -0.00102632       0.00199176      -0.00103662      -3.61367762
Al       7.55294183       5.74387519       8.11279420      -0.00187952      -0.00041930      -0.00562629      -3.65089321
Al       6.18556706       3.57171741       9.47949849      -0.00418350       0.00153208       0.00594652      -3.71681404
Al       7.67481151       5.61516817      10.85584464      -0.00051447      -0.00182546       0.00217856      -3.62094569
Al       6.47965027       3.66650645      12.55686327      -0.00407843      -0.00119709       0.00200181      -3.82039869
Al       8.19330670       5.79013059      13.76383037       0.00838542      -0.00160906      -0.00199574      -4.03282130
Al       6.31907406       6.83157906      -0.27052697       0.00283989      -0.00111755       0.00077708      -3.61724317
Al       8.61408310       8.24233972       1.08203571       0.00353271      -0.00100541      -0.00109218      -3.82275236
Al       6.91308236       6.89361129       2.67682665       0.00404257       0.00150791      -0.00548231      -3.82897246
Al       7.84439485       8.39567414       4.80568707      -0.00309401       0.00751016       0.00025959      -3.64814961
Al       5.91834326       7.52747196       6.74380784      -0.00478654       0.00211295      -0.00343008      -3.72124326
Al       7.76813004       8.76376749       8.43152063       0.00244051       0.00324781       0.00244888      -3.85457289
Al       5.82185845       7.43575180       9.83252748      -0.00266645      -0.00184520       0.00547812      -3.62705767
Al       8.49002123       9.67215710      10.99425610      -0.00450806       0.00091600      -0.00046077      -3.84043670
Al       5.98741810       7.12430776      12.59070519       0.00132326       0.00025985      -0.00034474      -3.59638035
Al       8.31692752       8.72244618      13.93109391       0.00249787       0.00562359      -0.00027899      -3.90637523
Al       6.25655009       9.67469038      -0.00580135       0.00015383      -0.00261480       0.00048409      -3.65147305
Al       7.97192217      11.03482846       1.72130834       0.00068353      -0.00483781       0.00317009      -3.69023407
Al       6.01045068       9.89233196       3.45209653       0.00186838      -0.00145816       0.00242157      -3.71260560
Al       8.29787352      11.21231899       4.58604403       0.01019364      -0.00552453       0.00287704      -3.62612092
Al       6.61159703      10.27901949       6.47678057       0.00787627      -0.00265086      -0.00051392      -3.72218692
Al       8.39669449      11.64989456       8.37366265       0.00363687      -0.00128675       0.00020333      -3.93683058
Al       6.12087544      10.64155621       9.80504154       0.00597207       0.00081414      -0.00288657      -3.82235098
Al       7.45955978      12.32153852      11.60281082      -0.00024678      -0.00052567       0.00326854      -3.90921277
Al       6.19292422       9.92077664      12.70908465       0.00002075      -0.00264292       0.00878052      -3.64920330
Al       7.88551418      11.57074443      14.39965743       0.00226208       0.00476411      -0.00245246      -3.88497305
Al       6.94896315      13.21195171       0.37721910       0.00238158       0.00060381       0.00287929      -3.89365596
Al       8.30960759      15.12264842       1.97907812      -0.00180008      -0.00291559       0.00332874      -3.73854697
Al       6.91135488      13.17959184       3.31708111       0.00195812       0.00376174       0.00380902      -3.71756506
Al       8.14748613      15.18565935       4.81862460       0.00032340      -0.00597754      -0.00692537      -3.73003137
Al       6.93934326      13.07806890       6.31300374      -0.00498942      -0.00162417      -0.00086915      -3.71772552
Al       7.96101467      15.28204411       7.61252763       0.00487622      -0.00088931       0.00104818      -3.73184383
Al       6.54738076      13.49729441       9.25968576       0.00173797      -0.00202861       0.00110403      -3.65338778
Al       7.95647616      15.50388637      11.99140219      -0.00117527      -0.00637551      -0.00059164      -3.92413735
Ni       7.04936385      13.76326473      13.55392949       0.00610732      -0.00170099       0.00159909      -6.03954864
Al       8.21369595      15.47467995      14.78103714      -0.00470008       0.00380456       0.00336854      -3.92931837
Al       9.41436698       0.30346430       0.24798502       0.00439269       0.00161660      -0.00592826      -3.69312298
Al      10.38371795       2.60348141       1.38768285      -0.00155727       0.00026394      -0.00264966      -3.89394015
Al       9.15515701       0.56080313       3.03480716       0.00500958       0.00313479      -0.00540354      -3.70974636
Al      10.65431743       2.38466285       4.60094376       0.00377571       0.00292784      -0.00338839      -3.62721300
Al       9.07777332       0.57402957       5.85771474       0.00066921       0.00413489      -0.00146585      -3.70851004
Al      10.58935131       1.41078021       8.04173994      -0.00226623       0.00242084      -0.00178647      -3.79622293
Al       8.96087794      -0.13611347       9.40791220      -0.00214904      -0.00750410       0.00519463      -3.64321649
Al      10.46277561       1.65336070      10.84997165       0.00059383      -0.00064583      -0.00384281      -3.69843352
Al       9.22674293       0.75684033      13.09475387      -0.00096378      -0.00031822      -0.00232713      -3.73348749
Al      10.88333461       2.64663029      14.10270740      -0.00184612       0.01540138       0.00391512      -3.94518447
Ni      10.14214637       4.27002708      -0.40673962       0.00084697      -0.01157725      -0.01093073      -5.94334555
Al      11.09749984       5.51446503       1.46959779       0.00124993      -0.00997828       0.00460112      -4.17288661
Al       9.43525474       4.36485721       3.41142314      -0.00238556      -0.00123605      -0.00011659      -3.85616326
Al      11.30992622       5.31026608       5.10607299       0.00447986      -0.00291549      -0.00146306      -3.75213039
Al       9.22023910       3.78917601       6.54545514      -0.00355320      -0.00312068       0.00370215      -3.70932257
Al      11.41628599       5.41439854       7.86705798       0.00103742       0.00059499       0.00038601      -3.63081503
Al       9.14438686       3.65909836       9.28264049       0.00228819      -0.00274148       0.00555393      -3.67908132
Al      10.98415614       5.28331946      10.60654516       0.00086859       0.00096465      -0.00923330      -3.70862699
Al       9.19325636       3.67192226      12.09795674      -0.00424041      -0.00463115       0.00391128      -3.72211504
Al      10.99431053       5.42817148      13.34105739      -0.01103979      -0.00769462       0.00537890      -4.18979192
Ni       9.86326491       6.78964970      -0.41950788       0.00191300       0.00434116      -0.00466043      -6.01114213
Al      11.62353096       8.05583119       0.94074925      -0.00056980       0.00957337       0.00163972      -4.00766236
Al       9.82980302       7.02945706       3.41703453       0.00142463       0.00406773      -0.00180950      -3.62201142
Al      11.44642494       8.33079985       5.08845664      -0.00202839      -0.01154504       0.00036824      -3.68656921
Al       9.45632906       6.83155037       6.41921853       0.00286732       0.00105059      -0.00213041      -3.64746010
Al      11.98884284       9.20140692       7.62256601       0.00159575       0.00040913      -0.00360587      -3.97877842
Al      10.07481769       7.44501986       9.09604362       0.00507581      -0.01018137       0.00146347      -3.85227102
Al      11.46422080       9.28300301      10.81320227       0.00060177       0.00371197      -0.00232112      -3.91777849
Al       9.59656008       7.30836150      11.82771989      -0.00074982       0.00263188      -0.00078908      -3.56782615
Al      11.16756042       8.42716983      13.82573958       0.00102486       0.00135127       0.00328785      -4.08662516
Al      10.25243603      10.33022913       0.22440742      -0.00400625       0.00076839       0.00187270      -3.66444004
Al      11.61231005      11.83431587       2.14357900      -0.00888913       0.00522297       0.00463894      -3.70798898
Al       9.96850508       9.71557023       3.07187638      -0.00091618       0.00294197       0.00020412      -3.72775817
Al      11.61568150      11.24515931       4.95259051      -0.00163639       0.00039513       0.00068668      -3.91602886
Al       9.54954632       9.76936557       6.50809453       0.00529172       0.00011506       0.00929990      -3.87918437
Al      11.35988963      11.77928791       8.03006626      -0.00591701       0.00119275       0.00318217      -4.06971920
Ni       9.97476013       9.88681144       8.92650928      -0.00274020       0.00223872      -0.00657701      -6.02099395
Al      10.33488446      11.74683040      10.57208842       0.00044791       0.00253585       0.00206311      -3.84993631
Al      10.17543836      10.80224748      13.06036173       0.00242025       0.00366783       0.00143061      -3.67025518
Al      11.53354088      12.55805075      14.73425095       0.01082699      -0.00387034       0.00542268      -3.61255014
Al       9.69671136      13.09935025       0.65083172       0.00225326       0.00171044       0.00520822      -3.71799552
Al      11.25705496      15.11856827       2.00092851       0.00108512       0.00076414       0.00672652      -3.75350952
Al       9.77232166      13.22339645       3.49232369       0.00730556       0.00936204      -0.00574293      -3.69373941
Al      11.08093084      15.30264158       4.82479142      -0.00008120       0.00235528      -0.00072046      -3.72890556
Al       9.69230616      13.15734994       6.24663661       0.00350387      -0.00003515       0.00515895      -3.66996837
Al      10.80108793      15.22013078       7.65259522       0.00108680       0.00606906      -0.00124924      -3.68546629
Al       9.18668649      13.96203101       9.80824436       0.00351030       0.00547128      -0.00381691      -3.60418797
Al      10.82232056      15.49051410      11.73220957       0.00032141      -0.00194637      -0.00500868      -3.68715203
Al       9.50404508      13.50330018      13.13511891       0.00001395      -0.00202909       0.00225617      -3.90906829
Al      11.13581515      15.31549302      14.75555605       0.00105771       0.00421791       0.00027328      -3.73004985
Al      12.12523687       0.56649915       0.20697655       0.00859830      -0.00583834       0.00575996      -3.71063185
Al      14.23305727       1.89333410       1.51577822      -0.00022456       0.00414658       0.00278009      -3.72856510
Al      12.06773098       0.77129351       2.99902527       0.00379836      -0.00456505      -0.00201589      -3.74042308
Al      14.39895373       1.93413490       4.26423426       0.00220203       0.00331171       0.00064827      -3.68298721
Al      12.21022703       0.48335780       6.01594873       0.00302161      -0.00228821      -0.00492430      -3.83939457
Al      14.88679826       2.36326458       6.99281593       0.00179354      -0.01329069       0.00657043      -4.05130923
Ni      13.15253359       1.24820532       8.16241231       0.00134169      -0.00078443      -0.00198642      -5.96899086
Al      14.76143923       2.65196918       9.75637596       0.00615815       0.00169932       0.00067437      -3.98269004
Al      12.08101080       0.56603391      12.80783819       0.00114637      -0.00783101      -0.00349092      -3.67152095
Al      13.86029470       2.15661047      14.26161289       0.00087190       0.00243917      -0.00035682      -3.73649406
Al      12.68143988       3.78459309       0.13257607      -0.00000259       0.00194407      -0.00086871      -4.02821380
Al      14.22686631       6.14141961       0.93522118       0.00627061       0.00070047      -0.00450966      -4.10402650
Al      12.55802195       3.67180521       2.96489422      -0.00138471       0.00147599      -0.00816347      -3.71758747
Al      13.93581553       4.53392640       5.13257277       0.00166776       0.00974327      -0.00340100      -3.60698962
Al      12.26755556       3.13591858       6.64706751      -0.00420710       0.00498241      -0.00209311      -3.83742630
Al      14.74488599       5.19745273       7.98263514       0.00414959       0.00067052      -0.00079615      -3.94376093
Al      12.18087659       3.18527807       9.36055562      -0.00568011       0.00674748       0.00972930      -3.87880850
Al      13.89906751       5.12772707      10.64945975      -0.00397155       0.00547655       0.00424594      -3.70580113
Al      12.65311524       3.19859469      12.03207029      -0.00835245       0.00374860      -0.00028003      -3.68997240
Al      13.78640872       5.27757894      13.67650928      -0.00025719       0.00340590      -0.00196074      -3.93125474
Ni      12.34854506       6.20975489      -0.55686204       0.00011644       0.00163562      -0.00371467      -5.97884959
Al      15.22867617       8.67613742       2.41884619      -0.00323471       0.00413807      -0.00228448      -3.98341560
Al      12.91686362       6.71776034       3.36879758      -0.00373287      -0.00062268       0.00226679      -3.67550707
Al      14.41769216       9.42895202       5.12687412      -0.00391820       0.00269055      -0.00058962      -4.03151542
Al      13.42325487       6.97583682       6.33448659      -0.00682078       0.00142948      -0.00286151      -3.70285356
Al      14.65822608       9.56846760       7.99952329      -0.00084094       0.00381055       0.00379223      -4.10087579
Al      13.07482026       7.25334190       9.15108403       0.00490484      -0.00703289      -0.00112688      -3.65158808
Al      14.20900250       8.98179775      11.20102718       0.00491808       0.00213459      -0.00042665      -3.89675218
Al      12.57422825       7.07801394      11.92284034       0.00235540      -0.00913083      -0.00623497      -3.71224141
Al      13.89207859       8.09445752      14.28886777      -0.00127741       0.00010769      -0.00183991      -4.11711156
Al      13.18831179      10.43540203       0.38863953      -0.01619890       0.00530235      -0.00102570      -3.79846072
Al      14.52318875      11.51413949       2.56267038      -0.00083631      -0.00566354       0.01041375      -4.07998973
Al      12.66692441       9.46070316       2.93961087       0.00681368      -0.00339545      -0.00454129      -3.59910572
Al      15.02562405      12.05449350       5.22186861      -0.00547488      -0.00885248      -0.00048760      -4.04245144
Ni      13.33897314      11.15509781       6.70320152       0.00297336      -0.00416227      -0.00417341      -5.77171069
Al      14.79898260      12.34761776       8.33870816      -0.00727033      -0.00390693       0.00316980      -4.26357806
Al      13.26354304      11.47069949      10.46850816       0.00364649      -0.00379626       0.00334550      -3.82631373
Al      14.58985160      14.20797351      10.79347225      -0.00057828      -0.00273732      -0.00371628      -3.99656981
Al      12.94061314      10.54751658      13.18164654       0.00042169       0.00125931       0.00309824      -3.69827938
Al      14.39201660      13.44675679      13.78013313      -0.00688249      -0.00257720       0.00549504      -4.01353437
Al      13.36021281      13.55761677       0.76215296       0.00327122       0.00075579       0.00333790      -3.92405546
Al      14.19876977      15.78486502       2.01303454       0.00306786       0.00123381      -0.00157158      -3.76350975
Al      13.04013075      13.63718605       3.61551963      -0.00331365      -0.00414761      -0.00717295      -3.70096016
Al      14.20205204      15.86277939       4.75582927       0.00195376       0.00584520      -0.00046432      -3.64559591
Al      12.78322322      13.53717306       6.37173939       0.00256933       0.00461057      -0.00259878      -3.90729427
Al      13.74511779      15.37018732       8.16708707       0.01462297       0.00371231       0.00043833      -3.92863750
Al      12.01870936      13.93241955       9.71419911       0.00279882      -0.00516501       0.00552572      -3.62825000
Al      13.09054791      16.74581035      10.53006739      -0.00696995       0.00172654       0.00259560      -3.79913306
Al      12.17243453      13.15522444      12.25878553      -0.00065236      -0.00693663      -0.00704242      -3.59478116
Al      14.01794908      15.98198374      14.77420004      -0.00381083       0.00063099      -0.00647486      -3.59021032
