123
Lattice="11.496519823714722 0.00021940977091371015 -0.0011492830459248185 0.00021941956082158445 11.496553136680781 0.0006681620683553972 -0.0011493291534520427 0.0006681568865714043 11.492915357011396" Properties=species:S:1:pos:R:3:forces:R:3:energies:R:1 energy=-659.8916034313324 stress="0.00046744271379168856 -4.0957707298328394e-05 0.00024132998161683394 -4.0957707298328394e-05 0.00048692423011527386 -9.120303095890914e-05 0.00024132998161683394 -9.120303095890914e-05 0.0011387986954986857" free_energy=-659.8916034313324 pbc="T T T"
Ni      -0.02369389      -0.00319864       0.02909821       0.00651351       0.00301362      -0.00162057      -6.20431842
Al       1.46158960       1.40389307       1.44365317       0.01732092       0.00324178      -0.00523567      -4.40656463
Ni      -0.02247942      -0.00605227       2.84710062       0.00075108      -0.00031996       0.00732854      -6.20397153
Al       1.47709793       1.40552052       4.26999404      -0.00365551      -0.00093339      -0.00082478      -4.52437547
Ni       0.02878568      -0.00630622       5.71868083       0.00747144       0.00652633      -0.00039894      -6.24716378
Al       1.45047401       1.44021509       7.18831540      -0.00613365       0.00274510      -0.00165566      -4.62918036
Ni       0.03268425      -0.00101470       8.65190797      -0.00729884       0.00392288      -0.01624707      -6.24868549
Al       1.47144296       1.39976682      10.09467568       0.00263005       0.00448710       0.00681752      -4.51825804
Ni       0.03618462       2.87934199      -0.00394032       0.00411777      -0.00003916       0.00629958      -6.25974139
Al       1.45830869       4.35421744       1.41394195       0.00385157      -0.00855500      -0.01117226      -4.52642970
Ni       0.02251896       2.86346241       2.87497093       0.00635353      -0.00004087      -0.01685989      -6.25605727
Al       1.43916693       4.31083148       4.31279816       0.00778572      -0.00041540      -0.00632062      -4.62299117
Ni       0.02084027       2.85931306       5.73403285      -0.00719729      -0.00518359       0.00632516      -6.24240160
Al       1.45414804       4.29598124       7.18609083      -0.00326977       0.00313906       0.00249935      -4.63090639
Ni       0.02892716       2.87310816       8.64290298      -0.00557517      -0.00171356      -0.00021841      -6.24386260
Al       1.48116557       4.35170506      10.08719464       0.00409905       0.00078754       0.00093261      -4.52613660
Ni      -0.03871113       5.74909729      -0.00618591       0.00484152       0.00285133       0.00493464      -6.19999507
Al       1.46707040       7.14353392       1.40675911      -0.00034147       0.00993169      -0.01097389      -4.53026025
Ni       0.01705116       5.75175831       2.85785328      -0.00428688       0.00567384      -0.00186238      -6.25093752
Al       1.44527299       7.19506765       4.31413945      -0.00011231      -0.00161790       0.00014829      -4.62994863
Ni       0.01013358       5.75079754       5.75631039       0.00316624       0.00122592      -0.00144812      -6.24472510
Al       1.44485100       7.20710945       7.18348076       0.00676960      -0.00719174      -0.00286194      -4.63406762
Ni       0.03795784       5.74862374       8.63829437      -0.00063835      -0.00100900      -0.00094357      -6.24873350
Al       1.48030372       7.14520850      10.09423479      -0.00345175       0.00528191      -0.00007455      -4.53111398
Ni       0.04391310       8.61918954      -0.00168156       0.00193163      -0.00656177       0.00671539      -6.26020481
Al       1.47149438      10.08824581       1.43853982       0.01248584      -0.00235569      -0.00373327      -4.40937679
Ni       0.02901703       8.63240115       2.86925376      -0.00025483       0.00099590      -0.00964047      -6.25550405
Al       1.48359172      10.07710740       4.27309339      -0.00630025       0.00379056       0.00083473      -4.53001440
Ni       0.01925219       8.63818131       5.73160936       0.00027914       0.00210703       0.00171423      -6.24381655
Al       1.44501518      10.04990656       7.18520192      -0.00099476       0.00293384      -0.00389426      -4.62917255
Ni       0.02606708       8.62682107       8.64737788      -0.00123108      -0.00190292      -0.00190879      -6.24931861
Al       1.46900024      10.09931945      10.10344760       0.00639368      -0.01389627      -0.00034541      -4.52020568
Al       4.28613930       1.40410447       1.43828116      -0.00643004      -0.00185822      -0.00186616      -4.41652354
Al       4.27441221       1.39776827       4.25811471       0.00620776       0.00860019       0.00221843      -4.53166171
Ni       2.88555716      -0.01070330       5.77632401      -0.00518500      -0.00466975      -0.00032230      -6.20711542
Al       4.30215660       1.44276250       7.19002064       0.00713306       0.00779913      -0.00028059      -4.62938026
Ni       2.89355420      -0.02125950       8.59626674       0.00314035      -0.00279764       0.00270979      -6.21188644
Al       4.27544008       1.40780476      10.10124508       0.00254764       0.00458169      -0.00459663      -4.52640875
Ni       2.87059442       2.85979495       0.03309636      -0.00256466      -0.00493350      -0.00280677      -6.21272898
Al       4.28726709       4.35378058       1.39941981      -0.00338498       0.00194732       0.00223736      -4.53400320
Ni       2.87663004       2.91635179       2.83182888       0.01047562      -0.00415989       0.00276102      -6.21875853
Al       4.33768341       4.33830204       4.33765564      -0.00409032       0.00529578      -0.00511690      -4.53758077
Ni       2.89479459       2.85982442       5.71200489      -0.00059085       0.00499351       0.00576950      -6.25807043
Al       4.32775778       4.31845259       7.14960390       0.00178847      -0.00049258       0.00826951      -4.54846301
Ni       2.87785481       2.87347989       8.67082905       0.00504117       0.00635831      -0.01014145      -6.25781607
Al       4.26673337       4.34385746      10.10124533       0.00252190       0.00388321      -0.01324487      -4.53619742
Al       4.28195610       7.13931752       1.40210242       0.00391319       0.00583894       0.00183160      -4.53614699
Ni       2.89304024       5.74895642       2.92319354       0.00337390       0.00130013       0.00221702      -6.21888155
Al       4.33983444       7.15696897       4.33548269      -0.00359216      -0.00269876      -0.00304970      -4.54897808
Ni       2.85039532       5.75836750       5.75774002       0.00634624       0.00465962       0.00073291      -6.20716588
Al       4.37445028       7.20543135       7.18311936      -0.01225033      -0.00529920       0.00310703      -4.41695564
Ni       2.92341063       5.77406391       8.56042812       0.00413202       0.00260073       0.00158352      -6.21714199
Al       4.31135782       7.19116255      10.05831197      -0.00437776      -0.00615174       0.00204923      -4.46089611
Ni       2.89756484       8.63637150       0.00936208      -0.00338848       0.00414567      -0.00508258      -6.22284247
Al       4.27529592      10.10080588       1.44626964      -0.00091592      -0.00707469      -0.00240369      -4.41821679
Ni       2.88161889       8.57702913       2.82730329       0.00341827       0.00696251       0.00714375      -6.21712310
Al       4.27156290      10.09397656       4.25517732       0.00352525      -0.00727270       0.00065889      -4.53488549
Ni       2.92375146       8.63095726       5.74152010       0.00272618      -0.00558134       0.00539286      -6.26622090
Al       4.34335304      10.02463069       7.22698586      -0.00641306      -0.00277893      -0.00323393      -4.54716926
Ni       2.84658178       8.62558226       8.67288394       0.00815177      -0.00544388      -0.01007553      -6.21336343
Al       4.31256243      10.06785846      10.06803193      -0.00670647      -0.00756862      -0.00270246      -4.44460715
Ni       5.77199304      -0.01819950       0.00939673      -0.00174916       0.00332830       0.00208962      -6.21457302
Al       7.19030008       1.45541555       1.42939366      -0.00536661      -0.00250517       0.00400334      -4.62766859
Ni       5.77030037       0.00229504       2.83786274      -0.00588317      -0.00059748       0.00179653      -6.20377691
Al       7.18291135       1.42858264       4.30483200      -0.00202561       0.00591940       0.00604859      -4.62370605
Ni       5.71524936      -0.01501712       5.73287377      -0.00044485      -0.00094203       0.00360452      -6.26292220
Al       7.16321676       1.43313913       7.18451768       0.00726695       0.00265240      -0.00259163      -4.62516981
Ni       5.71800609       0.03835819       8.65499579       0.00470372      -0.00565290      -0.00309327      -6.20795812
Al       7.18118780       1.44787319      10.06013925      -0.00526664      -0.00118792      -0.00112232      -4.62763391
Ni       5.70438527       2.87588312       0.00018615       0.00273090      -0.00568898       0.00495969      -6.26260786
Al       7.18375353       4.30681397       1.42786816      -0.00686795      -0.00040434       0.00581077      -4.62933944
Ni       5.72305780       2.88038394       2.88064646      -0.00499856      -0.00376375      -0.00806374      -6.26473742
Al       7.14653422       4.33744620       4.33660518       0.00325803      -0.00010942       0.00636410      -4.52785265
Ni       5.72555180       2.82501707       5.72337503       0.00363498       0.00385473       0.00661103      -6.20444702
Al       7.13150621       4.32636374       7.15320049       0.01170597       0.00456278      -0.00488094      -4.53397700
Ni       5.71941357       2.88697331       8.62942931      -0.00375265       0.00281836      -0.00345506      -6.25799720
Al       7.18595834       4.30219119      10.05299303      -0.00317150       0.00598946      -0.00354637      -4.62572261
Ni       5.78645480       5.76880503      -0.02317549      -0.00212434       0.00233467       0.00138453      -6.21599784
Al       7.18421339       7.19451734       1.43704843      -0.00649523      -0.00606669      -0.00139539      -4.62800509
Ni       5.73158429       5.74462937       2.82101060      -0.00001923       0.00242807       0.00419896      -6.21296100
Al       7.14277241       7.15754387       4.33462379       0.00718995       0.00133717       0.00778364      -4.53969384
Al       7.09313900       7.18815135       7.17602304       0.01111080       0.00474110       0.00068300      -4.39998123
Ni       5.71741368       5.71431125       8.66693923      -0.00515878      -0.00317724       0.00383616      -6.14895630
Al       7.14608031       7.22808601      10.01467166      -0.00190074      -0.00581376       0.00742277      -4.53954630
Ni       5.70257125       8.62733253       0.03623035       0.00032508      -0.00108750       0.00176821      -6.22171152
Al       7.19368011      10.04020920       1.43892661      -0.00413636       0.00521011      -0.00093836      -4.62708882
Ni       5.71875186       8.61814219       2.88035427      -0.00466420      -0.00191034      -0.00490224      -6.26895396
Al       7.18558950      10.06648652       4.30040385      -0.00149557      -0.00952852       0.00731467      -4.62826404
Ni       5.72837288       8.67077225       5.70136536       0.00219861       0.00198826      -0.00118002      -6.14345552
Al       7.13785925      10.04626822       7.21015572       0.00842421      -0.00741205       0.00129075      -4.53688126
Al       7.14918635      10.02970820      10.02705554      -0.00175277      -0.00142756       0.00332723      -4.53250562
Ni       8.61962323      -0.00863661      -0.00674387      -0.01726776      -0.00071611      -0.00519840      -6.24825133
Al      10.04806540       1.45301885       1.43361333       0.01298355       0.00184681       0.00007385      -4.61546706
Ni       8.62277177      -0.00162859       2.86828726      -0.00095351      -0.00174389       0.00015313      -6.24478987
Al      10.05513685       1.43669828       4.31219051       0.00272485       0.00432473       0.00144409      -4.61524979
Ni       8.61715530      -0.00391212       5.76148705      -0.00520714      -0.00745643       0.00355278      -6.24284620
Al      10.07503923       1.43200169       7.18672963      -0.00584378      -0.00133250      -0.00159950      -4.62117706
Ni       8.60074953      -0.01676854       8.60909475      -0.00212688      -0.00231873       0.00775855      -6.24704243
Al      10.05790966       1.43647584      10.05214112       0.00234846       0.00655847      -0.00172964      -4.62086501
Ni       8.62811671       2.88275328      -0.00979027      -0.00309727      -0.00325804       0.00088220      -6.24019080
Al      10.05381369       4.31346004       1.44072419       0.01222624      -0.00140900      -0.00037831      -4.62173020
Ni       8.61754479       2.88902063       2.88384181      -0.00891816       0.00028116       0.00667043      -6.24485238
Al      10.06968070       4.31346950       4.31359255      -0.00886336      -0.00445352      -0.00354322      -4.61727614
Ni       8.60132991       2.88821145       5.75562513      -0.00046205       0.00547021      -0.00540861      -6.24649417
Al      10.07618188       4.30849174       7.19307542      -0.01027286       0.00123115      -0.00013896      -4.61801224
Ni       8.61385115       2.87569540       8.60306590      -0.00044674       0.00463779      -0.00174488      -6.24202325
Al      10.04862639       4.31985591      10.03490576       0.00292888      -0.00686946       0.00427309      -4.62217575
Ni       8.61432685       5.76094032      -0.01673546      -0.00301583       0.00016547       0.00303672      -6.24762031
Al      10.05267405       7.19400155       1.43620899       0.00873528      -0.00016978       0.00273049      -4.62765693
Ni       8.59921483       5.75209832       2.90154665       0.00107353      -0.00135512      -0.00260117      -6.24763245
Al      10.06687152       7.19026403       4.31554271      -0.00324773       0.00475133      -0.00189374      -4.62267918
Ni       8.64575435       5.75366119       5.76672350      -0.01099102       0.00577621      -0.00434789      -6.19978923
Al      10.08427092       7.19403262       7.18825553      -0.01689545      -0.00089976       0.00009254      -4.62313153
Ni       8.56396898       5.77296079       8.57219401       0.00375255       0.00149507       0.01158967      -6.25315648
Al      10.05539601       7.18560879      10.04041506       0.00638284       0.00106601       0.00173619      -4.62347474
Ni       8.59801042       8.61436919      -0.03251116       0.00217028       0.00276897       0.00318005      -6.24910595
Al      10.04460868      10.03267178       1.42989756       0.00715658       0.00254882       0.00405131      -4.62225472
Ni       8.61415170       8.60532938       2.88780482      -0.00125489       0.00103458       0.00526636      -6.24477474
Al      10.05120966      10.05064358       4.31442314      -0.00261684       0.00120193      -0.00322194      -4.62057562
Ni       8.57613585       8.60539111       5.77425413      -0.00895408      -0.00734700       0.00255360      -6.25448307
Al      10.07802709      10.06120545       7.18254974      -0.00422756      -0.00018740      -0.00043206      -4.62415475
Ni       8.64039223       8.62088726       8.60127591      -0.00225707      -0.00188616      -0.00174465      -6.20065412
Al      10.06210853      10.05661603      10.05715753      -0.00141149      -0.00474949      -0.00025925      -4.62229493
