152
Lattice="13.227220988059988 -0.2001782843693371 0.778970610442147 -0.20186103386892962 13.6993939810708 -0.2892053534616413 0.7735634645103305 -0.28862965996234957 13.52340389692479" Properties=species:S:1:pos:R:3:forces:R:3:energies:R:1 rep=5 n_sites=250 energy=-658.7164916992188 stress="-0.00023849842546042055 -5.261663773126202e-06 -0.0003489289083518088 -5.261663773126202e-06 0.0003502162580844015 0.00012274927576072514 -0.0003489289083518088 0.00012274927576072514 -0.0001314459805143997" free_energy=-658.7164916992188 pbc="T T T"
Al       0.86903199       1.85136392       2.74134439       0.00405983       0.00196376      -0.00001149      -3.84178019
Al       0.94945204       0.80405720       5.66687480      -0.00017577       0.00234089       0.00697111      -4.12410033
Al       2.36840172       0.83167136       8.18913264      -0.00136358      -0.00081086       0.00178152      -3.90026379
Al       2.31139839       1.09369489      10.92908468       0.00230515      -0.00150945       0.00395889      -3.71550405
Al       2.02507563       1.21914905      13.63180377      -0.00026164      -0.00260957      -0.00352075      -3.60406792
Al       1.32430233       4.57234648       2.05640936      -0.00615229       0.00405702       0.00121616      -3.84281015
Al       1.31986895       3.61553308       4.69693620      -0.00151157      -0.00092188      -0.00106971      -3.76842272
Al       1.51876760       3.33806198       7.35756521       0.00008011       0.00112750      -0.00245102      -4.05814284
Al       1.96178886       3.62618820       9.94495070       0.00324008      -0.00308284       0.01057220      -4.01544899
Al       2.16924250       3.65705918      12.61311626      -0.00351313       0.00799379       0.00288169      -4.02930379
Al       1.50800105       7.26436940       1.49996900       0.00713370       0.00066627       0.00034074      -4.03223431
Al       0.73996954       6.35573248       4.14198905      -0.00256026       0.00060800       0.00172184      -3.95742339
Al       1.61159541       6.06977523       6.88008695      -0.00687954      -0.00342514      -0.00048515      -4.08169544
Al       1.67321706       6.46517865       9.59067237       0.00417221      -0.00195141       0.00222129      -4.38187039
Al       1.93499547       6.64356758      12.38607655      -0.00678831      -0.00196944       0.00403421      -4.48042446
Ni      -0.09108773       8.59569733       0.18005115      -0.00650579       0.00135687      -0.00322670      -5.99471784
Al       1.45329949       9.97587240       1.45175586       0.00173157       0.00428855       0.00188622      -4.02169526
Al       0.91018029       9.12881315       4.17114651       0.00462040       0.00064747       0.00063451      -3.74834251
Al       1.51472828       9.10257234       6.84118696       0.00029153      -0.00271380       0.00750683      -3.98869133
Al       2.10025948       9.44661965       9.44318744       0.00763756      -0.00100152      -0.01696493      -4.29070526
Ni       0.66858636       8.16307949      10.96074764      -0.00132883      -0.01101759      -0.00183438      -6.03663647
Al       2.13895517       9.61683750      12.23406428      -0.00005937       0.00638014      -0.00564237      -4.44828579
Ni      -0.35641812      11.20244727      -0.12819812       0.00265269       0.00013018      -0.00348765      -5.96161532
Al       0.66691296      12.78005311       1.27152082       0.00470756      -0.00249721      -0.00283450      -4.24426889
Al       0.29606409      11.67757712       4.52149573       0.00315884      -0.00081325      -0.00196385      -3.84571195
Al       1.39265389      11.97064369       6.98705287      -0.00310192      -0.00813934       0.00373210      -3.78815651
Al       2.53700674      12.17315985       9.49987913      -0.00437775       0.00602192      -0.00224274      -4.06491697
Ni       0.64446147      10.95671771      10.76097945      -0.00582486       0.00154413       0.00409616      -5.96298844
Al       1.90821802      12.46393810      12.13574894       0.00465661       0.00006869      -0.00000528      -4.08985049
Al       3.26131887       0.68849406       1.90551626      -0.00126613       0.00349762       0.00228167      -4.17020714
Ni       1.60609615      -0.26781016       3.63545028      -0.00123736      -0.00512050      -0.00332313      -5.74142379
Al       3.73214026       0.21322145       4.64566566       0.00693852       0.00894041       0.00114735      -4.03275430
Al       4.99926003       0.81055005       7.03638058      -0.00102098      -0.00301538       0.00217725      -3.89490461
Al       4.83049469       0.89235982       9.78653262       0.00405149       0.00114438      -0.00184423      -3.80678165
Al       4.60730812       1.42251333      12.59031670      -0.00360221      -0.00117043       0.00574769      -4.08609706
Al       3.71304109       3.56302626       1.28815904      -0.00061062      -0.00382897      -0.00011357      -3.85040438
Al       3.80982992       2.95733255       3.93082663       0.00754507       0.00275697      -0.00524938      -3.82413888
Ni       2.98874502       1.99377796       6.07118900       0.00019810      -0.00067553       0.00024472      -5.77802747
Al       4.62597526       3.64901320       6.74126035      -0.00009921      -0.00737099       0.00438266      -4.02785498
Al       4.94392455       3.79719142       9.58288938      -0.00203000      -0.00435473       0.00224765      -4.22341537
Al       5.19648018       4.18704018      12.32595342      -0.00233692       0.00855189      -0.00476547      -4.27501380
Ni       2.68555138       5.53433078       0.17669285       0.00114269      -0.00766969      -0.01016890      -5.88210458
Al       4.26781209       6.48164562       1.65681950       0.00562093      -0.00139207       0.00597726      -3.86980051
Al       3.45596480       5.65929702       4.06873090      -0.00026825       0.00156030       0.00508136      -3.88601255
Al       4.41051296       6.35542888       6.53540654      -0.00132665      -0.00072547       0.00924853      -3.98522782
Ni       3.19537666       4.91355087       8.32000018      -0.00590235      -0.00241061      -0.00413660      -5.87854844
Al       4.49662375       6.58763696       9.30238730      -0.00878438       0.00900897       0.00933051      -4.27130109
Ni       3.36079523       5.23152852      11.04811899       0.00459816      -0.00352761      -0.00304054      -6.11001921
Al       4.75534286       6.92664374      12.47263104       0.00449061      -0.00799860       0.00027615      -4.39560246
Al       4.29746840       9.25544923       0.99796379       0.00114787       0.00042763       0.00072888      -3.68188405
Al       3.36986351       8.53372018       3.32171834      -0.00460514      -0.00462081       0.00054103      -3.94818884
Ni       2.54085247       7.55527564       5.28887591      -0.00251262       0.00034694      -0.00184174      -5.78186148
Al       4.25030034       9.09449969       6.07695776       0.00244036       0.00505519       0.00169133      -4.07127941
Al       4.74001506       9.30040269       9.00108899       0.00226016      -0.00742279       0.00384250      -4.35587502
Ni       3.33331315       7.96591644      10.82256177       0.00369567      -0.00383982      -0.01243918      -6.10071003
Al       4.76228562       9.62104044      11.92958650      -0.00157623      -0.00329635       0.00083917      -4.18783176
Al       3.28891117      11.73723072       0.32535793      -0.00158018      -0.00165325       0.00051815      -3.93365479
Al       2.85763558      11.49009275       3.17857543      -0.00300810      -0.00177887      -0.00213968      -3.89740330
Al       4.21575756      11.80642172       5.88408992       0.00234944      -0.00565663      -0.00046980      -3.83547354
Ni       3.26760333      10.65184355       7.70923794      -0.00947197      -0.00233036      -0.00820544      -5.75824940
Al       5.22590930      12.02366723       8.58441793       0.00157247       0.00419182       0.00186012      -4.05235058
Al       4.68417650      12.42753846      11.33509916      -0.00079799      -0.00523110      -0.00173703      -4.04174525
Ni       4.92486518      -0.03875521       0.28871592       0.00034693       0.00091876       0.00538614      -5.78998476
Al       5.92119946       1.77649144       1.75248903      -0.00359833      -0.00095525       0.00691821      -4.25864363
Al       6.16076300       1.85027964       4.60836610      -0.00465541      -0.01090360       0.00105408      -4.06755304
Al       7.71817424      -0.23130619       7.59334443      -0.00331791       0.00150108       0.00569716      -3.86349523
Al       7.82351265       0.85413269      10.08647205       0.00090315       0.00194287       0.00143835      -4.04376233
Al       7.43845748       0.93185953      12.70171219       0.00404194       0.00143424      -0.00222893      -3.94474387
Al       6.39932353       4.67243197       1.52852036      -0.00658628       0.00323923       0.00769312      -3.98441082
Al       6.05277007       4.68132651       4.39939166       0.00456278       0.00243536      -0.00354242      -3.86289495
Al       7.26992536       2.52155367       6.92792148       0.00120282       0.00145284       0.00451963      -3.78721333
Al       7.74947468       3.52292575       9.42206640      -0.00495415       0.01074219      -0.00025439      -3.93137127
Ni       6.25786249       2.42816438      11.06005666       0.00413514      -0.00434370      -0.00260167      -5.76316333
Al       7.92047461       3.64428725      12.38580385       0.00154184      -0.00104569      -0.00056650      -4.01636004
Al       6.56925486       7.65244340       1.10596372      -0.00915831      -0.00047749       0.00957766      -3.79449153
Al       5.87727037       7.47414075       3.88201873       0.00468525      -0.00044170      -0.00143135      -3.62705922
Al       7.42237990       5.31634020       6.71759768       0.00415611       0.00262722      -0.00251611      -3.88004953
Al       7.05037293       6.14436038       9.23732964       0.00656584      -0.00387037       0.00080644      -4.08765596
Al       7.31799590       6.31768339      11.98160890      -0.01311034      -0.00018935      -0.00560542      -4.26898235
Al       6.74782791      10.33690263       1.00582780       0.00216854       0.00009602       0.00070560      -3.88191193
Al       5.31815019      10.39077329       3.69676523       0.00197634      -0.00222045       0.00043744      -3.94528699
Al       6.72325036       8.03090787       6.47934590      -0.00165135       0.00228532       0.00094607      -3.94163156
Al       7.53105526       9.18468690       8.93271259      -0.00339944       0.01057509      -0.00838825      -4.39267749
Ni       6.01735979       7.98523547      10.60363339      -0.00760446      -0.00313829       0.00548777      -6.15280986
Al       7.63274265       9.22501527      11.83784585       0.01005188       0.00973691       0.00996822      -4.19891816
Al       5.41617018      12.72896790       2.06188267       0.00557420      -0.00354914       0.00513394      -4.37717175
Al       6.42489306      12.89788491       4.82588463      -0.00583014       0.00199717       0.00135872      -4.11035919
Al       6.94017137      10.81045573       6.64613766       0.00016531       0.00388820      -0.00626680      -3.62151980
Al       8.08635708      11.86614289       9.52645122      -0.00321123       0.00050899       0.00080262      -3.92588550
Ni       6.25242104      10.67111318      10.41026193      -0.00019272       0.00403929       0.00431801      -5.88469124
Al       7.10005345      11.82661201      12.44454136      -0.00630924      -0.01055252       0.00291565      -4.07513452
Al       8.87246965       1.75613223       1.58634445      -0.00756693      -0.00325482       0.00694567      -4.49609900
Ni       7.51690034       0.43440602       3.19136360       0.00064916       0.00077417       0.01028024      -6.05155313
Al       9.10197780       1.73569754       4.46861624       0.00174169      -0.00473143      -0.00124818      -4.14751029
Al      10.25222632       0.39033034       6.53858027      -0.00480138       0.00703594      -0.00536743      -3.86285281
Al      10.62822896       0.29474766       9.61473282      -0.00489736       0.00076270      -0.00000834      -3.91513574
Al      10.14207347       1.72988192      12.23627305      -0.00254118       0.00623941      -0.00789884      -4.05050790
Al       9.13496968       4.51966829       1.62987215      -0.00494960      -0.00444630       0.00328878      -4.35029989
Ni       7.54828689       3.09349369       3.05299069       0.00119502       0.00951525      -0.00417779      -5.96777219
Al       8.86410021       4.44000795       4.56140625       0.00164843      -0.00324118      -0.00408581      -4.00365412
Al       9.93663088       3.41306533       6.88022735      -0.00224713       0.00152403       0.00487085      -3.93926799
Ni       9.13352561       1.71493844       8.29525867       0.00159636      -0.00101771      -0.00137495      -5.92514551
Al      10.42016187       3.06295619       9.88649215      -0.00072658       0.00748222      -0.00049353      -3.87981820
Al      10.46215509       4.55507073      12.41701699       0.00259343      -0.00223587       0.00025362      -3.98967540
Ni       8.01352540       5.98120039       0.20413104       0.00662608      -0.01090563       0.01373932      -5.75992256
Al       9.24173808       7.43340513       1.75075638       0.00232338       0.00379705      -0.00135778      -4.02195245
Al       8.52500457       7.03886534       4.52628780      -0.00154190      -0.00095481      -0.00604976      -3.82327425
Al      10.23802081       6.04843984       6.61107010      -0.00842878       0.00911604       0.00142908      -3.92690927
Al       9.86571759       5.68653640       9.39289296      -0.00030944       0.00680664       0.00190713      -4.08116317
Al       9.89177878       7.44919937      12.40020663       0.00718838       0.00489980       0.00302996      -4.03093547
Al       9.27554550      10.35767832       2.11269151       0.00572549       0.00601046       0.00136971      -4.04510427
Al       7.87019261       9.69502257       4.30786848       0.00026336       0.00078446      -0.00094494      -4.07577652
Al       9.49232245       8.94268655       6.35318485      -0.00425405      -0.00152230      -0.00765564      -4.09171218
Ni       8.61420255       7.26302238       7.82296441       0.00444772       0.00002614      -0.00483693      -6.00461084
Al      10.31070404       8.59780822       9.04885128      -0.00864828      -0.00175348       0.00928167      -4.06733692
Ni       8.60068301       7.56348798      10.35173344       0.01525943       0.00499594      -0.01331233      -5.72859395
Al       9.78943634      10.24279032      12.91283635       0.00361609      -0.00447407      -0.00162407      -3.64154172
Al       8.32713579      12.79742943       1.08101761       0.00262772      -0.00679197       0.00390276      -4.32698429
Ni       7.31133632      11.60413017       2.96533189       0.00632169      -0.00158988      -0.00089966      -5.86849612
Al       9.17917432      12.73227813       3.97730002      -0.00359306       0.00082832       0.00196359      -4.01467890
Al       9.60272660      11.52006261       7.19350084       0.00270045      -0.01063878       0.00742127      -3.69782734
Al      10.77426491      11.28209384       9.66383438      -0.00122829       0.00713084       0.00636810      -3.60959518
Al       9.53993713      12.79799065      11.73191369      -0.00585209       0.00116709      -0.00366275      -3.92901790
Ni      10.36161699       0.35258842       0.31876785       0.00253857       0.00019222      -0.00563288      -5.90998852
Al      11.75845834       1.46990451       2.09247370       0.00695074      -0.00161058      -0.00092819      -4.21260059
Al      11.83316185       2.36351364       4.93486921       0.00161566      -0.00195672       0.00247818      -3.92411590
Al      12.28640332      -0.98703406       7.80625834      -0.00396465       0.00335413       0.00734749      -3.71472013
Al      13.16297198       1.72345706      10.19486668      -0.00264716       0.00491550      -0.00479554      -3.71604729
Al      13.01640610       1.04138262      12.80210544       0.00198749       0.00229941      -0.00281259      -4.04570490
Ni      10.70566522       2.92950326       0.45237222       0.00372088       0.00596740      -0.00111164      -5.98626274
Al      12.11272604       4.43774646       1.62360186      -0.00256452      -0.00017834      -0.00374405      -3.96487355
Ni      10.44281970       3.25234069       3.07440789      -0.00937176       0.00499628      -0.00257830      -5.98012429
Al      11.54598686       5.04769496       4.28695474       0.00440516      -0.00077362      -0.00799329      -3.88476288
Al      12.09143564       1.98113881       7.76606125      -0.00334305       0.00123381      -0.00288568      -3.79093432
Al      12.66920926       4.47336988       9.53953469      -0.00624073      -0.00760243      -0.00378386      -3.72025824
Al      12.94440712       3.76449495      12.28060809      -0.00091016      -0.00306113      -0.00401983      -3.81800389
Al      11.84432988       7.14059374       2.60373626      -0.00205612      -0.00156465      -0.00262814      -3.92222095
Al      11.72755304       7.82409544       5.22329581       0.00340490       0.00056165      -0.00351183      -3.85960627
Al      12.51713661       4.54647869       6.81341551       0.00034891       0.00220285      -0.00480274      -3.75985491
Al      12.02464222       6.78078734      10.74252559       0.01033513       0.00185783       0.00116724      -3.85626084
Al      12.42080937       6.46830781      13.40429135       0.00570002      -0.00681573       0.00054093      -3.96280938
Al      11.93917196       9.84779411       2.53717969       0.00949697       0.00521696      -0.00530230      -4.25610620
Ni      10.07246029       8.72158764       3.69894983       0.00733119      -0.00842247       0.00214712      -5.98341215
Al      10.91722645      10.77669381       4.87537341       0.00661185      -0.00199333      -0.00123177      -3.85639966
Al      12.45969030       7.12631366       7.96788675      -0.00207123       0.00158421       0.00198811      -3.70537400
Al      12.68266980       9.34168670       9.96320346       0.00073540      -0.00554886      -0.00164640      -4.03124428
Al      12.24341230       9.19619468      12.95331778      -0.00693309       0.00382878      -0.00622689      -4.24881738
Al      11.10818633      12.45234087       1.68720954      -0.00888283      -0.00568949      -0.00532696      -3.99589819
Al      12.01797273      13.38873178       4.13429251      -0.00785434       0.00174548      -0.00007866      -3.89459246
Al      12.15304363       9.92449628       7.24776464      -0.00068712       0.00540095      -0.00565220      -3.77136981
Al      13.15516845      12.68553476      10.08225025       0.00645645       0.00327826      -0.00377099      -3.94310510
Al      12.05213831      11.89451576      12.51925139       0.00639291       0.00038659       0.00547510      -4.24061638
