128
Lattice="12.172854624563339 -0.06878426939817907 -0.028671153033031166 -0.06847257700060333 11.813172333070714 0.02467079651748932 -0.029263658421643066 0.024703040743034563 11.690290641484557" Properties=species:S:1:pos:R:3:forces:R:3:energies:R:1 energy=-632.8642206877604 stress="-0.00026696305906314473 -0.0007587570286565331 -0.00039956463158102233 -0.0007587570286565331 -1.6553827863294853e-05 0.00033277758627463564 -0.00039956463158102233 0.00033277758627463564 0.00020391784014174122" free_energy=-632.8642206877604 pbc="T T T"
Al       0.08686272      -0.02924207      -0.26599606       0.00471775      -0.00279862      -0.00397450      -3.84000719
Al       1.31568084       1.55244895       1.52261387      -0.00649820      -0.00141609      -0.00880772      -4.02852754
Ni      -0.31444971       0.22869231       3.07976276      -0.00244193       0.00195737       0.00280610      -6.25268237
Al       1.56810300       1.32504092       4.44515079      -0.00025516      -0.00263345      -0.00204083      -4.31840225
Ni      -0.12354409       0.06364067       5.83030794       0.00208495       0.00008326      -0.00063013      -6.11412818
Al       1.48982691       1.40605471       7.26462879       0.00173385       0.00152236       0.00640942      -4.43147036
Ni      -0.04690155       0.00129838       8.77168222       0.00647666       0.00303087      -0.00252536      -6.24251233
Al       1.63453571       1.46875427       9.90455109      -0.00873307       0.00023223       0.00157163      -4.35386360
Ni      -0.05022621       2.65038174      -0.27217781       0.00059736       0.00320803      -0.00352589      -6.20278510
Al       1.38324669       4.28644536       1.16478247       0.00309131       0.00504969       0.00394911      -4.37034100
Al      -0.09880372       2.98980911       3.19948686       0.00162010      -0.01135975      -0.00737491      -3.88156276
Al       1.36646318       4.62815381       4.73128727      -0.00079232       0.00745463       0.00275265      -4.38856414
Ni      -0.08901684       2.84488343       5.93841923       0.00156412      -0.00290491      -0.00529459      -6.20479561
Al       1.31127715       4.28017447       7.42517496       0.00734363       0.00609728      -0.00085064      -4.47111151
Ni      -0.20664859       2.74008895       8.75483388       0.00915746       0.00150192       0.00286804      -6.19503223
Al       1.42104631       4.22744552      10.18659356      -0.00032869      -0.00019575       0.00630165      -4.44012917
Ni       0.12796452       6.01242878      -0.12309999      -0.00154930      -0.00075450      -0.00371995      -6.16343490
Al       1.40076527       7.60407740       1.25955971       0.00857501       0.00213618       0.00147520      -4.36109657
Al      -0.00764774       6.02885009       2.83794413      -0.00353856      -0.00074056      -0.00152343      -3.88180574
Al       1.42843979       7.45162154       4.63425366       0.00106764       0.00312261      -0.00154379      -4.41108347
Ni       0.05560894       6.12455186       6.12114902       0.00257753       0.00236339      -0.00272149      -6.15114608
Al       1.38498606       7.71370980       7.35804964       0.00085702       0.00114817      -0.00111716      -4.45224433
Ni       0.19018216       6.09954979       8.82560832      -0.00337592      -0.00236484       0.00024313      -6.23482219
Al       1.42733059       7.72068943      10.24518308      -0.00368992       0.00241383       0.00445817      -4.45697755
Ni       0.06299893       9.23649115      -0.14859356      -0.00450428      -0.00103211       0.00333888      -6.19554903
Al       1.22077650      10.54304796       1.73735174       0.00344087       0.00409305       0.00024098      -4.09281642
Ni      -0.07948977       8.71358458       3.06732461      -0.00003119      -0.00542415       0.00424835      -6.26771915
Al       1.11319110      10.41013195       4.45439223       0.00042455      -0.00298275      -0.00163435      -4.27139783
Ni      -0.22058934       8.90569061       5.93537146       0.00367851       0.00207133      -0.00373981      -6.15911461
Al       1.28461474      10.38623596       7.26499784      -0.00145721      -0.00045748       0.00266081      -4.40840267
Ni      -0.18339120       9.04625418       8.78023693       0.00011919       0.00151569       0.00126787      -6.16107853
Al       1.67018652      10.39011997       9.89029879      -0.00190972      -0.00044918       0.00150760      -4.39894475
Al       3.11699089      -0.01123990       0.14241938       0.00433995      -0.00074800       0.00454658      -3.77827541
Al       3.97580078       1.71557298       1.90678886      -0.00179731      -0.00463357       0.00015061      -3.92766982
Ni       3.46138459      -0.33457533       3.21097686       0.00203036       0.00147090       0.00273422      -6.24007203
Al       4.29489790       1.76792752       4.48873727      -0.00206176       0.00088264      -0.00059069      -4.09754864
Al       3.31597001      -0.36459378       5.75678381       0.00226981      -0.00210523      -0.00024826      -3.93764927
Al       4.62230459       1.69061940       7.20693557       0.00272003       0.00352576       0.00181005      -4.37040650
Ni       3.36282528      -0.21404125       8.30103857      -0.00137797      -0.00268813      -0.00070334      -6.12067296
Al       4.50108055       1.29130188       9.91063151       0.00412239       0.00123232       0.00476132      -4.29926297
Ni       3.08734315       2.60891707      -0.18169455       0.00020950       0.00411824      -0.00210890      -6.28021728
Al       4.04117165       4.42922926       1.46822525       0.00148575      -0.00146356       0.00033416      -4.20234712
Ni       2.46806845       3.23171599       3.12817197       0.00129306       0.00440230      -0.00230195      -6.16538791
Al       4.07434973       4.54081313       4.42545640      -0.00165819       0.00157626       0.00489215      -4.28168648
Ni       2.82208179       3.06446404       5.95214784      -0.00160802      -0.00238757      -0.00389805      -6.10592543
Al       4.55388729       4.42699808       7.27769337      -0.00382176      -0.00608197       0.00011997      -4.41229943
Ni       3.09967780       2.96142142       8.64702406      -0.00027009      -0.00324004      -0.00846421      -6.14752494
Al       4.29358013       4.37662642      10.24665195       0.00868826       0.00337692       0.00512005      -4.24853132
Ni       2.79602444       5.89981211      -0.09769057       0.00066553      -0.00382899      -0.00337589      -6.20509672
Al       4.14955785       7.40692349       1.42299595      -0.00511638       0.00378949       0.00418068      -4.24023676
Ni       2.59344534       5.87896316       2.79498417       0.00094260       0.00093301       0.00764496      -6.21251437
Al       4.21581442       7.24411297       4.40439824       0.00135915       0.00301838       0.00186566      -4.19465654
Ni       2.84205815       5.97168841       6.19084492      -0.00064961       0.00419878      -0.00406362      -6.23782017
Al       4.64800680       7.31365622       7.30001787       0.00054632       0.00236818      -0.00137464      -4.41076710
Al       2.81850458       6.01564899       8.76805178       0.00554974      -0.00001518       0.00716571      -3.86502685
Al       4.23348379       7.58102519      10.37987019      -0.00425841       0.00196852      -0.00147438      -4.40157574
Ni       2.80977300       9.29575372       0.14474559      -0.00216934      -0.00087777       0.00505368      -6.21763754
Al       4.78297438      10.12247898       1.40959689      -0.00472657      -0.00093513       0.00276580      -4.22423189
Al       2.82063213       9.03215397       3.04147195       0.00081228      -0.00283232      -0.01439549      -3.68646779
Al       4.94003657       9.93309037       4.32893376      -0.00048052       0.00372412      -0.00099682      -4.13086435
Ni       3.09066966       8.88955803       5.87292277       0.00092284      -0.00159282       0.00355312      -6.23006513
Al       4.88211588       9.96390221       7.28834986      -0.00370950      -0.00432771       0.00322320      -4.37811011
Ni       3.16973820       8.89437621       8.61057874       0.00334173      -0.00370796      -0.00175425      -6.15306340
Al       4.60602956      10.32613800      10.15467561      -0.00159519       0.00154220      -0.00437721      -4.30218054
Ni       6.42084136       0.06129739       0.29550881      -0.00062443       0.00442811       0.00098583      -6.09207714
Al       7.87854129       1.76910522       1.43552785       0.00450902       0.00138456      -0.00158153      -3.97704619
Al       6.04478705       0.26001189       2.81870497      -0.00500088       0.00087243       0.00079788      -3.84299750
Al       7.82706454       1.78119436       4.43281932      -0.00291452      -0.00280438      -0.00419001      -4.22283420
Al       6.23031508       0.04016971       5.70921564      -0.00115934      -0.00684450      -0.00086393      -3.73429523
Al       7.52561297       1.66641414       7.28884170       0.00870806      -0.00019298      -0.00148077      -4.24663791
Ni       6.09778973       0.01149370       8.41621341      -0.00213078       0.00732253       0.00583592      -6.14608574
Al       7.43114380       1.41316076      10.11980214       0.00526353       0.00764948       0.00039945      -4.32753649
Al       5.74195201       2.67718268       0.15009133      -0.00475607       0.00029017      -0.00311860      -3.83808614
Al       7.98029290       4.44150122       1.40594248       0.00096836      -0.00699678       0.00206849      -4.20043019
Al       6.05418035       3.17398472       2.94266170       0.00052947      -0.00504870      -0.00194402      -3.69690780
Al       8.03430142       4.46808115       4.32386058      -0.00671109      -0.00587517       0.00605310      -4.24431013
Ni       6.07226763       3.19079123       5.52120693      -0.00113507       0.00750950       0.00161609      -6.30314566
Al       7.38736779       4.44612203       7.40493458       0.00337858      -0.00077095       0.00292410      -4.29151080
Ni       5.92703821       3.06991884       8.91690975      -0.00451859      -0.00268068      -0.00494601      -6.17272330
Al       7.52639692       4.41398372      10.31183875      -0.00241225      -0.00070324      -0.00208145      -4.26686463
Al       5.91467008       5.90469047       0.04380527       0.00503226      -0.00573181      -0.00714569      -3.79792340
Al       7.96018167       7.24115362       1.39534332       0.00277042       0.00371665       0.00082481      -4.38788145
Al       5.99870538       5.83410896       2.79289829      -0.00054366      -0.00168146       0.00222334      -3.75108582
Al       7.97204548       7.21654025       4.21457057       0.00126056      -0.00099990      -0.00063487      -4.37726035
Al       6.15545194       5.82773927       5.56282932       0.00007657      -0.00344356      -0.00877540      -3.78675717
Al       7.55248713       7.27898589       7.50182801      -0.00096623      -0.00509655      -0.00324061      -4.50413964
Ni       5.94927466       5.82818346       9.03553292       0.00355687      -0.00271803      -0.00115157      -6.19746284
Al       7.76217468       7.33572565      10.25887246      -0.00164953      -0.00492550       0.00196026      -4.48765712
Ni       6.13101057       8.42096884       0.09522560       0.00300984      -0.00104814       0.00324057      -6.13351842
Al       7.45752665       9.91865785       1.57135212      -0.00370534       0.00763959       0.00663209      -4.29424309
Ni       6.07396152       8.29949894       2.84362451       0.00332332      -0.00084168      -0.00155655      -6.22173808
Al       7.65743302       9.91988560       4.35744555       0.00044750       0.00159942      -0.00094320      -4.26750681
Ni       6.24083771       8.35537858       5.62879602       0.00736920       0.00068625       0.00420199      -6.20195713
Al       7.52235303      10.04308054       7.31894622       0.00081993      -0.00121143       0.00682271      -4.42512040
Ni       5.96730008       8.52944225       9.02695302      -0.00276323      -0.00140940      -0.00135825      -6.04953577
Al       7.32110252      10.17696126      10.15844809       0.00470435       0.00127657       0.00527913      -4.43007881
Al       8.93925744      -0.23117074       0.04207065      -0.00267616       0.00785368      -0.00072646      -3.76370290
Al      10.63856121       1.49974398       1.32050806      -0.00044840      -0.00171842       0.00028293      -4.22746101
Al       9.10538372      -0.08781981       2.94106276      -0.00568326       0.00459280       0.00288466      -3.71446320
Al      10.45835909       1.45548719       4.64103438      -0.00601516      -0.00714920      -0.00664222      -4.35125011
Ni       8.83771232      -0.11453469       5.76050144       0.00471371       0.00308844      -0.00063497      -6.26481751
Al      10.52019622       1.24893529       7.28415861      -0.00668640      -0.00007444       0.00091477      -4.42782965
Ni       8.80015834      -0.10661672       8.65548172       0.00412594      -0.00240604      -0.00044245      -6.16554025
Al      10.43595128       1.26811795      10.07202950      -0.00371275       0.00280950      -0.00119037      -4.21458344
Ni       9.28814730       2.98209461      -0.28602359       0.00230463      -0.00094136      -0.00158175      -6.22067692
Al      10.79226851       4.32008547       1.14253451      -0.00436156      -0.00539501       0.00027864      -4.36212502
Ni       9.49855498       3.10330050       2.91222766      -0.00124671      -0.00019583       0.00270074      -6.25803651
Al      10.67556673       4.54887159       4.70342550      -0.00127695      -0.00155261       0.00191955      -4.39052145
Ni       9.18573133       3.13625025       6.13236916       0.00192142       0.00013399       0.00224936      -6.19704344
Al      10.83399324       4.56412496       7.37929083       0.00235428       0.00467114       0.00476759      -4.47100453
Al       9.20128313       3.08931659       8.75474637       0.00256539      -0.00139372      -0.00367863      -3.80886517
Al      10.89660347       4.51518196      10.15234953      -0.00285554      -0.00320363      -0.00614949      -4.45839808
Ni       9.31785674       5.77079162      -0.16233840       0.00443238      -0.00137416      -0.00041246      -6.14823166
Al      10.71885794       7.44803694       1.17041013      -0.00553764       0.00289846      -0.00137415      -4.45768188
Ni       9.56120318       5.80224756       2.75312622       0.00034957       0.00032736      -0.00001702      -6.24158223
Al      10.60814298       7.30921882       4.57428005      -0.00079844       0.00169032       0.00292160      -4.46374120
Ni       9.04317542       5.83794832       6.11862793       0.00031882       0.00511472       0.00359806      -6.19044520
Al      10.58453556       7.35718975       7.43220661       0.00514909      -0.00490845      -0.00097888      -4.56001508
Ni       9.10116593       5.76565996       8.82747697      -0.00535690       0.00232135      -0.00185941      -6.22425169
Al      10.65512946       7.41133761      10.17510526      -0.00468226       0.00313720      -0.00103705      -4.51645372
Ni       9.13526866       8.97618906       0.00082339      -0.00689836      -0.00628960       0.00713084      -6.23551679
Al      10.73571256      10.19803548       1.52900170      -0.00304053      -0.00358389      -0.00161630      -4.33547681
Ni       9.33551938       8.72851009       2.82219495      -0.00032384       0.00236964      -0.00464441      -6.16708167
Al      10.52175158      10.18927190       4.50888514      -0.00122841       0.00139554      -0.00819030      -4.41658521
Ni       9.03842914       8.65165607       5.96537960       0.00007971       0.00182309      -0.00078319      -6.15092322
Al      10.44223371      10.32138133       7.27349849       0.00118609       0.00173517      -0.00018738      -4.53955617
Ni       9.05184140       8.80966748       8.77048067      -0.00346170      -0.00563975      -0.00215421      -6.14279115
Al      10.41801049      10.28363277      10.04091369      -0.00396762       0.00236346       0.00292981      -4.35087083
