82
Lattice="10.985613047326183 -0.1850246956329679 0.15217785983130752 -0.18263515434416105 10.582078659415886 0.5199043721271013 0.15387796436458734 0.5081729215188112 11.130720794158387" Properties=species:S:1:pos:R:3:forces:R:3:energies:R:1 energy=-367.5566819826494 stress="-0.00022966093641857974 0.0001703141653054402 -0.0008145558453266825 0.0001703141653054402 1.601314829409029e-05 -2.1081444283425937e-05 -0.0008145558453266825 -2.1081444283425937e-05 -0.00014792307411391008" free_energy=-367.5566819826494 pbc="T T T"
Ni      -0.51394306       0.10891114       0.80746429      -0.01149932      -0.00177337      -0.00102145      -5.64324694
Al       0.69009602       1.52718358       2.23705442      -0.01355712      -0.00592693       0.00568714      -3.87306566
Al       1.65358090       1.07786824       4.67947230      -0.00387462      -0.00302142       0.00884552      -3.90229349
Al       1.02903549       1.41620181       7.27934191       0.00750847      -0.00012741      -0.00848773      -4.22406052
Al       0.94230040       1.32208676      10.12259964      -0.00250066       0.00581086      -0.01082885      -4.44732074
Al       1.66854058       4.04030678       2.00797775       0.00892588      -0.00375447      -0.00292915      -4.01796074
Al       0.97170077       3.82407948       4.65818023       0.00074434      -0.00991944       0.00159660      -4.07376771
Al       1.36952190       4.28733005       7.47472682      -0.00431531       0.00763129       0.00861646      -4.50187883
Ni      -0.20155345       2.94952447       8.76421530       0.00764154      -0.00255044       0.00927234      -6.00146981
Al       1.31470043       4.19014226      10.23996427       0.00354552      -0.01351738      -0.00639259      -4.50792709
Ni       0.00434268       5.21501145       0.47348132      -0.00447409       0.00020957       0.00302543      -5.96335244
Al       1.20000134       7.02978502       1.44767069       0.00659685      -0.00322996       0.00462748      -4.46226404
Al       1.43410520       6.49687636       4.05446510      -0.00687819      -0.00336425      -0.00049032      -4.01088695
Al       1.04224233       6.83288689       6.80244877       0.00137897       0.01057374       0.00053973      -4.28618086
Ni      -0.21136789       5.72117751       8.73087329       0.00274601       0.00727755      -0.01176577      -6.14349104
Al       1.50864448       7.09341282       9.85327829       0.00412995       0.01001552      -0.00283307      -4.60427204
Ni       0.25697599       8.71509441      -0.18871600       0.00237631       0.00692234      -0.00226472      -6.00652649
Al       1.58510295       9.80515235       1.54616279      -0.00101976      -0.00306321       0.00511136      -4.44466346
Al       1.17632630       9.18675047       4.29984635      -0.00503186       0.00016994      -0.00086258      -3.80920151
Al       2.13642826       9.40491181       6.83353873       0.00253296       0.00397023      -0.00401706      -3.79039965
Ni       0.32722721       8.51231008       8.36455916      -0.00243766       0.00039302       0.00002490      -5.95157949
Al       2.12048195       9.87603298       9.44054463      -0.00714724       0.00072774       0.00850035      -4.23533282
Al       3.46019101       1.37293781       2.24159620      -0.00328480      -0.00243934       0.00226248      -3.68020142
Al       4.41787626       1.40178081       4.87298096      -0.00256098       0.00809202      -0.00197566      -3.86897583
Al       3.92686599       1.10839997       7.54822082       0.00658239      -0.00116665      -0.00790930      -4.14057556
Al       3.84059539       1.51137027      10.47632773      -0.00214540      -0.00693196      -0.00133622      -3.92881426
Al       4.40885115       3.81011814       1.39042996       0.00320974       0.00522070       0.01283215      -4.05002818
Al       3.68538442       3.94647071       4.08994157      -0.00059183       0.00289197       0.00005882      -4.31455855
Ni       2.71199010       2.72983850       6.06658672      -0.00903524      -0.00527485      -0.01084948      -6.01703808
Al       4.25675466       4.07361925       7.19763196       0.00264778       0.00661680       0.01022134      -4.33804226
Ni       2.52870500       2.62173809       8.77480672      -0.00968269       0.01335563      -0.00277632      -5.98514474
Al       3.99407535       4.23546754       9.89322274      -0.01003611       0.00319483      -0.00422624      -4.12453782
Ni       2.63999673       5.26367514       0.25599240       0.00941433       0.00057758      -0.00055946      -5.96605659
Al       4.08186282       6.55194002       1.70732469       0.01129592      -0.00308160       0.00329884      -4.39133420
Al       4.20192041       6.75005333       4.45156984       0.00450210      -0.00540976      -0.00132240      -4.11899223
Ni       2.63883485       5.32882614       5.77055619       0.00647175      -0.00790307      -0.01243828      -5.87630741
Al       3.91681808       6.78965735       7.23147020       0.00498431       0.00091543      -0.00631618      -3.93502882
Al       4.28499551       7.01382762       9.97092036       0.01164601      -0.00168228      -0.00665997      -4.21167412
Ni       2.92769369       8.11108718       0.17044919       0.00336512       0.00020323       0.00814930      -6.07001272
Al       4.40602797       9.51229010       1.42277800       0.00139342      -0.00622042       0.00166582      -4.08028705
Ni       2.84911029       8.21533756       2.87820755      -0.00293602       0.00339171      -0.00157169      -5.86895179
Al       4.36879226       9.60001208       4.17826492       0.00605484      -0.00255858      -0.00113702      -3.85554228
Al       4.84607858       9.32724322       6.86891966      -0.00144388       0.00024838      -0.00003820      -3.64679992
Al       4.81366462       9.67920658       9.69404763       0.00498566       0.01104112       0.00157805      -3.85180709
Al       5.99904363       1.44369489       0.94101871      -0.00521742      -0.00119638      -0.00210462      -3.75063476
Al       7.06683285       1.21505761       3.88157618      -0.00030209      -0.00052684       0.00552338      -4.00379928
Al       6.48770172       1.20721459       6.65837624       0.00230448       0.00142958       0.00231206      -4.12113345
Al       6.38721660       1.61603314       9.34165319      -0.01051980      -0.00644665      -0.00360921      -3.67337787
Al       7.21092546       3.77213211       1.98620011       0.00932115      -0.00335104       0.00373675      -3.83407747
Al       6.30877476       3.66287854       4.74889856       0.00941230      -0.01141579       0.00381338      -4.12801077
Al       6.90640268       3.84513161       7.58376201      -0.01238461      -0.00402527      -0.00178320      -4.26331415
Al       6.73206174       4.21061531      10.40628344       0.00310106      -0.00080155      -0.00087855      -3.99723682
Al       6.85847938       6.75815446       1.67777064      -0.00442396      -0.01093042       0.00015876      -4.00866325
Ni       5.53985082       5.17273202       3.05274325      -0.00532537       0.00496072      -0.01191033      -5.74967545
Al       7.05541099       6.31643775       4.50134218      -0.00158088       0.00048089       0.00615229      -4.02004158
Al       6.72963983       6.94230283       7.11852665       0.00658825       0.00671867       0.00034705      -3.98588355
Ni       5.61551681       5.54959519       8.65166866      -0.01349824      -0.00195432       0.00653428      -5.88921423
Al       6.97608579       7.32652526       9.99709912      -0.00425756      -0.00578323      -0.00358707      -3.97850264
Al       6.76950006       9.63321500       2.55929528      -0.00102800      -0.00066467       0.00096816      -3.92778220
Al       7.08616411       8.96734404       5.20243510      -0.00463748      -0.01037456       0.00085740      -4.11104487
Al       7.40685566       9.46496647       8.03110119       0.00739071       0.00660257      -0.00551474      -3.92479109
Al       7.13287254       9.92414697      10.89256154       0.00853580       0.00438747       0.00529448      -3.67360051
Al       8.64596266       1.32993498       1.74623528      -0.00125155      -0.00532904      -0.00541705      -3.84432212
Al       9.96215887       1.78242278       4.53881762      -0.00610091       0.00514980       0.00632466      -4.15371033
Ni       8.50102108       0.23148574       5.59051843       0.00318241      -0.00043333      -0.00161939      -5.88433168
Al       9.24415491       1.41927122       7.56567118       0.00084329      -0.00834583       0.00575190      -4.33341159
Al       9.12995553       1.49390010      10.29173769       0.00583235       0.00148083       0.00401976      -3.94623728
Al       9.98217426       3.51793107       2.20954225      -0.00390924       0.00331480      -0.00279170      -3.80952384
Al       9.28896048       4.49506837       4.65046643      -0.00293514      -0.00266872      -0.00554037      -3.80441690
Ni       8.17230182       2.73242720       5.86199888      -0.00589803      -0.00669311      -0.01467778      -5.84752302
Al       9.53008050       4.18391061       7.34605007       0.00380098       0.00581674       0.00765147      -4.29810925
Al       9.45446304       4.22933708      10.49225750      -0.00324045       0.00538217      -0.00709692      -4.21755089
Al       9.60432556       6.10212568       2.39134965      -0.00618003      -0.00091985      -0.00031579      -4.12752081
Al       9.94169156       7.26390025       4.93284235      -0.00586275      -0.00067727       0.00546312      -3.88733968
Al       9.37989766       7.17867343       7.62626458       0.01156675      -0.00622483       0.00350566      -4.20402155
Ni       8.13346834       5.57733492       8.88315020       0.00639426       0.01596004       0.00842945      -6.01120777
Al       9.74127800       7.06106843      10.46531942      -0.00296625      -0.00898447      -0.00195072      -4.38064182
Al       9.11633852       8.53064033       1.17398117      -0.00212316      -0.00065280       0.01670373      -4.24458076
Ni       8.27934502       7.91482649       3.29788452       0.00400398       0.01047824      -0.01013076      -5.74872263
Al       9.54511630       9.86712062       3.88269184      -0.00372129      -0.00489844      -0.00177388      -4.23526478
Al      10.36023164       9.70625450       6.67783808      -0.00125476       0.00487780       0.00188505      -4.23281924
Al       9.65529730       9.70228144       9.57528666       0.00611380       0.00972366       0.00036488      -4.08278883
