103
Lattice="11.560198145397141 0.8269693814529904 -0.052950243763275257 0.7228241381753582 9.85591057090093 0.7590141634285623 -0.05228719173339054 0.8630576077008609 11.08176058171901" Properties=species:S:1:pos:R:3:forces:R:3:energies:R:1 energy=-564.5635928123766 stress="-0.001860963512424437 0.0001912261407853776 0.0005497048499293444 0.0001912261407853776 -0.00043533417125270804 -0.0013313302510905086 0.0005497048499293444 -0.0013313302510905086 0.0017231680642256423" free_energy=-564.5635928123766 pbc="T T T"
Ni       0.25059489      -0.23314893      -0.00185236      -0.00330651       0.01433132      -0.00960626      -5.96100955
Al       1.28465765       1.70279030       1.03936628      -0.02369771       0.00182908       0.01529465      -4.85152402
Ni      -1.47047211       1.23489206       4.02318423       0.00109622      -0.00099757       0.01062820      -5.89981133
Ni      -0.47157504       0.55411653       6.22935192      -0.00771634      -0.00205344      -0.01289745      -5.65699961
Ni       0.26697130       0.29892477       8.60022988      -0.00446248      -0.00319067       0.00612923      -5.64339079
Al       1.47330487       2.24880613       9.35549392      -0.00402739      -0.01556198      -0.01597838      -4.88319253
Ni       1.27532192       4.14843307       1.14501518      -0.01307234       0.00445939      -0.00314748      -5.73049111
Ni       0.05227018       2.71256208       2.82226024       0.00061595      -0.00984045       0.00000206      -5.87912127
Al       1.44957043       4.41645514       3.76998173      -0.00125253      -0.00167424       0.00714920      -4.80541605
Ni       0.01057965       3.13657243       5.46379782       0.00526585       0.00058435      -0.00959783      -5.87676385
Al       1.21175340       4.10630194       7.19663716      -0.00359399       0.00429663      -0.01422857      -4.77381066
Ni      -0.51258625       2.49908781       7.88770977      -0.00152198       0.00481152      -0.00303135      -5.64442942
Ni      -0.39283988       5.31695232      -0.44778397       0.00187281       0.01697704      -0.01221526      -5.77097995
Ni      -0.35974452       5.26603183       2.64117572      -0.01628583       0.02215002       0.00081272      -5.77346952
Ni      -1.49250922       4.53289297       6.91885017       0.00908038       0.00030538      -0.02511588      -5.90368725
Al       2.56588579       6.17963540       8.12437848      -0.01145692      -0.00714830      -0.00462581      -4.63593428
Ni       1.19828960       4.79379248       9.52427677      -0.00362564      -0.00666853       0.00872468      -5.86621911
Ni       0.91743423       6.73573213       1.02987111      -0.00341113       0.01567667       0.01001372      -5.79976296
Ni       1.03471542       7.05028131       3.72871232       0.00452660       0.01238507       0.01033133      -5.82626473
Al       1.84577188      11.20441339       5.24807094      -0.00299444      -0.01861215      -0.00627292      -4.89557518
Ni       2.33394982       5.78233774       5.58777196       0.00849943      -0.00631892      -0.00618218      -5.99915192
Al       1.99797651       8.83685354       7.71439222       0.00399781      -0.00533599       0.00336546      -4.87322962
Ni       1.20943707       7.49257064       9.47880001      -0.01976285      -0.02693662      -0.01328477      -5.75097967
Al       2.54686638       8.85847832      10.87192237       0.00047337       0.01545517       0.01658148      -4.91549793
Ni       2.88935280       0.16916694      -0.06670306       0.00621115      -0.00844224      -0.00469080      -6.04127463
Al       4.38321830       1.48269574       1.40543480       0.00381346      -0.00127024      -0.00063058      -4.85400070
Ni       4.39959622       1.63849532       4.20014057      -0.01298611       0.00032650       0.00812589      -5.77696928
Ni       1.60428291       1.62804120       6.88560598       0.00230791       0.01207516       0.01129518      -5.89802804
Al       4.45046041       1.95591602       6.82362178      -0.00578024      -0.00202845      -0.02064012      -4.88500357
Ni       3.07582310       0.48314335       8.36621036       0.00036273      -0.00593180       0.00131075      -6.00750083
Al       4.42394673       2.33941346       9.55437575       0.00233039       0.00540597       0.00720739      -4.90325919
Ni       2.95010773       2.76560996      -0.20759039       0.00577578       0.02251419      -0.00408929      -5.78261206
Al       4.07857260       4.14067118       1.31896565       0.00233057      -0.01025401       0.00261960      -4.83916464
Ni       2.70742490       2.67057105       2.77233418      -0.00800635       0.00675099      -0.00788361      -6.09376539
Al       4.19105860       4.43991289       3.95936413       0.00220309      -0.01749240      -0.00049694      -4.84303351
Ni       2.76734230       3.16990765       5.40892698      -0.01479003      -0.00074909       0.00517434      -5.92037372
Al       4.27090432       4.81556213       6.70549480      -0.00650006      -0.00424741       0.00190259      -4.80116469
Ni       5.83062344       3.61656175       8.01276866       0.00709516       0.00842524       0.00310932      -5.89821889
Al       6.96880637       5.12111139       9.51519702       0.00215044      -0.00518014      -0.01069174      -4.93294699
Ni       2.82101769       5.44457789      -0.23891381       0.01042385      -0.00391758       0.00324400      -5.78508661
Ni       2.77011376       5.82789486       2.33934288      -0.00622357       0.00268937      -0.00387267      -5.74317212
Al       3.77833593       7.19568555       4.05553082       0.00197902       0.00123918      -0.00536782      -4.88899740
Ni       3.93203750       7.46361933       6.58542965      -0.00519436      -0.00761453       0.01688141      -5.84870738
Ni       4.25948936       4.98264618       9.36173210       0.00682977      -0.01316840       0.00757336      -5.76097296
Al       5.23445097       6.70220448      10.82571446      -0.00123639      -0.00386585      -0.00859769      -4.94094404
Ni       2.52462099       8.31130133       2.22421717       0.01639746      -0.00066496      -0.00356052      -5.64972827
Al       3.58336794       9.93889208       3.67050896      -0.00000355       0.00212453       0.00016520      -4.90123913
Ni       1.06329775       9.88647297       3.39156443      -0.00108815       0.00979820       0.00302079      -5.96422631
Ni       2.19698771       8.66071709       5.26051215      -0.00292926      -0.01098276      -0.00358624      -5.87334162
Al       3.90463145       9.97079551       6.41075672       0.00005125       0.01305815       0.01269330      -4.77151421
Ni       3.93765616       7.81555264       9.13805109       0.00430378      -0.00876226       0.01314405      -5.97196891
Al       5.22709315       9.33689858      10.74505416       0.00603033      -0.00212886      -0.00570249      -4.76890602
Ni       5.83809020       0.14727716       0.12617111       0.00154001       0.00597829       0.00114928      -5.95445865
Al       7.44212998       1.58673781       1.19805822      -0.00148662      -0.00408883       0.00992017      -4.90264945
Ni       6.01098625       0.40668275       2.79436467       0.00612416      -0.02510403       0.01024626      -5.80844270
Al       7.59929218       2.15559690       4.21042491      -0.00404108       0.00901501      -0.00370470      -4.90164664
Ni       6.23056726       0.53692417       5.52746437       0.00585009       0.00397133       0.01019464      -6.01420824
Al       7.33438309       2.12326323       7.06166741       0.00569894       0.00325651      -0.00712565      -4.83111638
Ni       5.88503739       0.74541685       8.42057931      -0.00271320       0.00739489       0.00564864      -6.03892386
Ni       5.71459965       2.89645703      -0.00775749      -0.00791531      -0.00049929      -0.01299370      -5.90050726
Ni       5.86702330       3.02544971       2.65072048       0.00314840      -0.00255840       0.00548547      -6.05028085
Al       6.98030613       4.85644816       3.67109115       0.01147392       0.00600146      -0.00965866      -4.76742196
Ni       5.82527706       3.40380098       5.39909687       0.00704741      -0.00194507      -0.00209049      -6.12378142
Al       7.45731731       4.92930769       6.61809704       0.00200618       0.00542398      -0.00411450      -4.98907103
Ni       7.20614717       2.38269893       9.66135492       0.00178109       0.00569528       0.01078770      -5.89815971
Ni       6.95289915       4.74509408       1.03561629       0.00290229       0.00008271       0.00343255      -5.87638842
Ni       5.26987586       6.05049676       2.38422535      -0.00118636       0.00052336      -0.00666625      -5.90579383
Al       6.90216210       7.61159367       3.42946773       0.01047672       0.00010062       0.01101336      -4.96251050
Ni       5.71882654       6.15462418       5.21316306       0.00353445       0.00449437       0.00261120      -6.13835735
Al       7.05889716       7.76814544       6.49431634       0.00927054      -0.01945346       0.00499644      -4.88086699
Ni       5.72607573       6.37342579       7.91699743      -0.00335261       0.00904911       0.00502131      -5.78853990
Al       8.63824405       6.80973084      10.80753619       0.01722332       0.00198613      -0.00011902      -4.95625079
Ni       7.00469531       7.33470732       0.97893990       0.00103690      -0.01051399       0.00952626      -5.79684712
Ni       5.04404492       8.63084567       2.27409037       0.00178081      -0.00002238      -0.00605652      -5.76115071
Al       8.56749220       9.33884703       4.69837608      -0.01436221      -0.00073344      -0.01640777      -4.86344957
Ni       5.40575115       8.79514920       4.98449072       0.00940943      -0.00675048       0.02352776      -5.89965590
Al       8.52396932       9.24110973       8.16237178       0.01469984       0.00130987       0.00645876      -4.86178432
Ni       5.52679948       9.02095460       7.76454460       0.00129308       0.00325641       0.00335161      -5.58055090
Al       8.30035499       9.80265767      10.78042890       0.00062190      -0.00589807       0.00232484      -4.88045749
Ni       9.30037801       0.70060287      -0.36688988      -0.01740497       0.02363119      -0.01667050      -5.87694063
Al      10.21038240       2.10464871       1.36875800       0.00867899       0.00750784       0.00708067      -4.73919219
Ni       7.76094224      -0.81258933       1.45071012      -0.00654108       0.00972773       0.01518459      -5.79204609
Ni       8.83262824       0.70193468       5.72255657       0.02092035      -0.01248270       0.00045699      -5.74977218
Ni       9.29655007       1.33836952       8.18568485      -0.00730470       0.01121268      -0.00306578      -5.76332527
Ni       8.58622811       3.20623404      -0.15747048      -0.00268181       0.00151217      -0.00776487      -5.82870263
Ni       8.49781224       3.43864023       2.38757116       0.00160486      -0.00235509       0.00323754      -5.86832735
Al       9.77171351       4.60288549       4.04156584       0.00523954      -0.00523142       0.00029389      -5.00322235
Ni       9.23956122       3.14580516       6.03379668       0.01114282      -0.00259870      -0.01642302      -5.84636103
Ni       8.66957788       3.80861985       8.36549953      -0.00840782      -0.00280673       0.00553304      -5.76142981
Al      10.39759704       4.89300728       9.58618281       0.00163179       0.00443088      -0.00291842      -4.92761351
Ni      10.24289954       4.56202864       1.00450157       0.00544041      -0.00598794       0.00927344      -5.73828280
Ni       8.62683578       6.04662292       2.43234272      -0.00557367       0.00749314      -0.00402820      -5.77420995
Al      11.34413350       6.57474032       5.29530824      -0.00506712       0.00775394       0.00173438      -4.88403677
Ni       8.41036640       6.41196786       5.01014712      -0.00299198       0.00773874      -0.01122544      -5.93503279
Al      11.05801614       7.20188496       8.18706137       0.00313752      -0.00916207       0.00317055      -4.85874268
Ni       8.54704792       6.61069574       8.24213713       0.00426484      -0.00031560       0.01749783      -5.90575719
Ni       9.91017201       7.53800901       1.04096319      -0.01236307       0.01268031       0.00674048      -5.83413140
Al      11.09091743       9.21332223       2.22426656      -0.00058382      -0.00629238      -0.00219190      -4.95473006
Ni       9.99192296       7.78283122       3.74515582       0.01153325      -0.00867118       0.00345199      -5.74260225
Al      11.33218555       9.47226049       5.19585056      -0.00099066       0.00402676      -0.01269035      -4.86478694
Ni       9.65777882       7.97924918       6.39508271      -0.00507994       0.00469719      -0.00513349      -5.84203707
Ni       6.88723898       7.97168155       9.51439664      -0.00058108      -0.01404748      -0.01112807      -5.95081757
Al      11.02122379       9.52307439      10.37176427      -0.01098314      -0.00906247      -0.00767960      -4.82538698
