107
Lattice="10.91943607687908 0.13150843564897538 -0.09844689817472063 0.12944543504576464 11.001067889873754 0.10141342347462419 -0.09877239418909231 0.10143877318380609 11.147405280771782" Properties=species:S:1:pos:R:3:forces:R:3:energies:R:1 energy=-578.3106947824184 stress="0.00040695430528495374 0.0003886478777869238 0.00014816894140194355 0.0003886478777869238 -0.0008679838872301636 6.891049832244138e-05 0.00014816894140194355 6.891049832244138e-05 0.0011828998202778709" free_energy=-578.3106947824184 pbc="T T T"
Ni       0.00119183       0.07155112      -0.11753077      -0.00513637       0.00048486       0.00259797      -5.76028764
Ni       1.36966950      -1.21965949       1.30471973       0.00375617      -0.01236005       0.00329146      -5.61079482
Al       1.10160049       1.69589752       4.26910837       0.01111440      -0.00477948      -0.00446862      -4.54256473
Ni       0.05105407      -0.02344511       5.60670948      -0.00833924      -0.00047328      -0.01213650      -5.66576493
Ni       0.06612037      -0.00296545       8.23197192      -0.00195047      -0.00155880      -0.00306640      -6.15177089
Al       1.37229904       1.58293434       9.49260266       0.00382193      -0.00134319       0.00360261      -4.75521581
Ni       0.07127043       2.58982097       0.04633490      -0.00688782      -0.00798376      -0.00022197      -6.02677651
Al       1.45377473       3.69135899       1.79686524       0.00400277       0.00441257      -0.00754909      -4.79635737
Ni      -0.37915056       3.40385310       3.61244555      -0.00120908      -0.00169251      -0.00971707      -5.69586593
Al       1.91711003       4.45033558       4.44948852       0.00007676      -0.00279575       0.00245859      -4.73393965
Ni      -1.39256339       1.31900297       4.28006898      -0.00840594      -0.00111913      -0.00656406      -5.69053942
Ni      -0.11779596       3.02590057       8.35052899       0.00030969       0.00214858      -0.00004902      -5.96518671
Al       1.19648482       4.41186216       9.95850615      -0.00257499      -0.00188702       0.00264921      -4.72828722
Ni       0.61220261       5.84013764       0.50581296       0.00908297       0.00938580       0.00996068      -5.94959373
Ni       0.12742398       5.57684463       2.86515268      -0.00300852       0.00298680       0.00146717      -5.93931479
Al       1.33995304       7.08695169       4.46142834       0.01391452       0.00425321       0.00026252      -4.88979301
Ni      -0.33689359       5.45227126       5.16111543      -0.00011678       0.00091520       0.00891715      -5.86079812
Ni      -0.03559114       5.52468040       8.30725998      -0.01521288      -0.00776576       0.01063560      -5.82084581
Ni       0.06153919       8.29573040       0.03590359       0.00135712       0.01335102       0.00401404      -5.74451247
Ni       0.47046070       7.88355504       2.42761676       0.00282249       0.00337484      -0.00383157      -5.75467886
Al       0.75059836       9.93965861       3.64453284      -0.00522650       0.00075737      -0.00516328      -4.90561272
Ni       1.32414006       6.76964187       6.73165968       0.01548384       0.00178655       0.00135618      -5.65812679
Al       1.46705369       9.25170466       6.56015810      -0.00628469       0.00463326      -0.00098075      -4.92657250
Ni       0.20876995       8.24816872       8.51240662       0.00461244       0.00632162       0.00002059      -6.07477458
Al       1.64945800       9.64322557      10.05477371      -0.00405203       0.00388209      -0.00270422      -4.96671115
Ni       2.74244857       0.36799032       0.06762169       0.00711153      -0.00505063      -0.00203635      -5.86511966
Ni       2.64636723       0.18296415       2.81179007       0.00514782       0.00627046       0.00155334      -5.66745264
Al       3.95986180       1.78456941       3.95252813      -0.00465094      -0.00002142      -0.00017360      -4.72078562
Ni       2.59231634       0.18137812       5.42632944       0.00424769       0.00709828      -0.00367956      -5.98994042
Al       3.68339041       1.95699596       6.69379448       0.00832258      -0.00613796      -0.00917269      -4.83547702
Ni       2.63903422       0.02212377       8.09291505       0.00121373      -0.00373194       0.00155945      -6.11088804
Al       4.04037865       1.66662321       9.64892762      -0.00315539      -0.00141311       0.00010532      -4.82333278
Ni       2.76671293       2.87435018      -0.04481068      -0.00916194      -0.00664337      -0.00813109      -5.75531301
Al       4.23770164       4.26313395       1.89842959       0.00547567      -0.00012329       0.00616141      -4.83445817
Ni       4.18531294       1.78350789       1.52802153       0.00896143      -0.00126393       0.00356492      -5.65611742
Ni       1.26596446       1.75052943       6.83475919       0.00599428       0.00597098       0.00694955      -5.68590523
Ni       2.71635982       3.36885388       8.37665432      -0.00671911      -0.00229793      -0.00073731      -5.87088567
Al       4.53145898       4.93257041       9.20157443      -0.01235779      -0.01503608       0.00332430      -4.78619618
Ni       3.05834856       5.29677061       0.08190751       0.00125808      -0.00907069       0.01419945      -5.69630941
Ni       2.45623043       5.85665345       2.43507165      -0.00366863       0.00587091       0.00007502      -5.81417495
Al       4.17374531       6.27999041       4.08701413       0.00217077       0.00603144      -0.00086489      -4.70827853
Ni       1.21943479       4.23843709       6.65689620      -0.00954928      -0.00240379       0.00339695      -5.41672269
Ni       2.48200861       5.90318085       8.60041979      -0.00511516       0.01045403      -0.00604938      -5.65378656
Al       3.80739849       7.31061711      10.13521908      -0.00587587       0.01472616      -0.00360130      -4.55307331
Ni       2.37166838       7.64054535       0.68020073      -0.00615362      -0.00463334      -0.00281695      -5.55509099
Al       3.91521857       9.56839045       1.35178702      -0.00025510      -0.00685645       0.00308993      -4.83846868
Ni       2.78853417       8.24450796       3.03207194      -0.00340602       0.00013851       0.00354693      -5.80802101
Al       4.03038275       9.60983720       4.34265258       0.00379340       0.00715096       0.00629469      -4.73098202
Ni       3.30689116       7.70280664       5.76960536       0.00196285      -0.00136293       0.01840483      -5.82257198
Al       4.21029704       9.57050174       6.91780191       0.00140046      -0.00132827      -0.00020979      -4.59030541
Ni       2.71451239       8.35671882       8.31147692       0.00494654      -0.00358076       0.00301616      -5.74670265
Al       4.36905024       9.84828840       9.64185267      -0.00086145       0.00115892       0.00039980      -4.80442078
Ni       5.40898727       0.01716562       0.10677721       0.00062012       0.00259307       0.00105608      -5.99455356
Al       6.62852305       1.62565289       1.29115072      -0.00396480      -0.00094292      -0.00678201      -4.76830609
Ni       5.32201742      -0.02407370       2.74030433      -0.00320860       0.00536684       0.00544628      -6.14757447
Al       7.16367390       1.17180572       3.87953350       0.00426336       0.00543772      -0.00100544      -4.83686993
Ni       5.29183951       0.29852325       5.41745284       0.00279997       0.00184673       0.00426338      -6.25360430
Al       6.73612080       1.94079217       6.54361267      -0.00237647       0.00215734      -0.00703164      -4.74219970
Ni       5.32060261       0.40359520       7.96598577       0.00358880      -0.00043482       0.00156610      -6.07075153
Al       6.64715980       1.63338330       9.65190225       0.00590616      -0.01131739       0.00102269      -4.73803459
Ni       5.40430193       3.27086861      -0.19960608       0.00528681      -0.00180284       0.00388579      -5.93343871
Al       6.91957710       4.34109940       1.49085563      -0.00601106       0.00900845      -0.00846588      -4.60160268
Ni       5.83120202       2.96638063       3.12183513       0.00223767       0.00488593       0.00691410      -5.78648868
Ni       5.15960790       3.39458101       5.39169792       0.00003801       0.00409870      -0.00063218      -5.59229461
Al       6.18498552       5.16500921       6.66081244      -0.00277884       0.00123209      -0.00790448      -4.90676868
Ni       5.33805488       3.08903436       8.07391373      -0.00139514      -0.00925725      -0.00042964      -5.73712159
Ni       5.50547761       5.81263450       0.15840406       0.00914407      -0.00448214       0.00450755      -5.87203505
Al       6.93750717       6.88136833       1.93439628       0.00091190      -0.00527887      -0.00137811      -4.62084833
Ni       6.26318658       5.27431096       3.85442835       0.00195246       0.00535106      -0.00036250      -5.56513961
Ni       3.58895209       5.12825500       6.39556065      -0.01041277      -0.00449502      -0.00324312      -5.59647977
Ni       4.68574033       6.99229241       7.74153922      -0.00194465       0.00422408       0.00020620      -5.71756964
Al       6.48415435       7.27136440       9.42902911      -0.01227538      -0.00027378      -0.00393070      -4.78497668
Ni       5.69588168       8.34671060       0.27801658      -0.00649373      -0.00671247      -0.00030039      -5.92148217
Al       7.25351377       9.73480296       1.65236999      -0.00168422      -0.00156007       0.00370240      -4.83133727
Ni       5.33726719       8.26846957       2.86695577       0.00270296      -0.00081066       0.00818145      -5.71366004
Al       6.77155871       9.49855433       4.31545460      -0.00165723       0.00858629      -0.00592868      -4.70316075
Ni       5.79296300       7.55660958       5.48168353      -0.00644630       0.00490298      -0.00461830      -5.74736523
Al       6.70462823       9.48753301       7.22077743       0.00118227      -0.00320455      -0.00521903      -4.73239818
Ni       6.79035480       9.87916980       9.67280600       0.00666985       0.01030958      -0.00089207      -5.89476722
Ni       8.20943525       0.22354746      -0.04106681       0.00213419      -0.00769288      -0.00633187      -5.94941377
Al       9.74052690       1.21373432       1.71944047       0.00169689      -0.00163712       0.00450788      -4.89559651
Ni       9.08903296      -0.99226071       3.84434033       0.00139089      -0.00424632       0.01189263      -5.72335591
Ni       7.94146186       0.02234731       5.69081588      -0.00278776       0.00255507       0.00206047      -5.85626170
Al       9.56058834       1.70279371       6.65177703      -0.00347829      -0.00133389       0.00592693      -4.91728194
Ni       8.01750434       0.33822583       8.12814832       0.00074209      -0.00584105      -0.00934583      -6.15240527
Al       9.45487565       1.62953007       9.50041748      -0.00089134       0.00185185      -0.00167895      -4.74226141
Ni       8.26143449       2.84912046       0.00727317       0.00584891      -0.00857420      -0.00238948      -6.12376534
Al       9.73530461       4.33684730       1.24547334       0.01375443       0.00547551      -0.00024143      -4.85737477
Ni       8.31802085       2.88530265       2.62434373       0.00265977       0.00468039       0.01217162      -5.78615606
Ni       7.79646964       3.50123997       4.94559125      -0.01406301       0.00125393      -0.00919969      -5.74472204
Al       9.40539054       4.35545313       6.62915102       0.00350284      -0.00873225      -0.00021611      -4.74718353
Ni       7.99327179       3.13440278       8.19272088       0.00101733      -0.00428087       0.00159242      -5.99320257
Al       9.39588017       4.38413920       9.71552274      -0.00245509       0.00078965      -0.00083644      -4.61157795
Ni       7.99436646       5.70596097      -0.16546843      -0.00565092      -0.00284464       0.00433504      -6.07152841
Al       9.51134783       7.01914876       1.34700988       0.00109514      -0.00096886      -0.00531176      -4.79743662
Ni       8.60808937       5.38644818       3.11571841       0.00689392       0.00055482      -0.00403562      -5.95462332
Al       9.47253410       7.57067999       3.92231045      -0.00350872       0.00176231       0.00174958      -4.90191240
Ni       8.04973888       6.02897243       5.44524285       0.00414090       0.00352649       0.01111380      -5.64699549
Al       9.83025022       7.10412719       6.75275222      -0.00658681       0.00001423      -0.01201750      -4.76207954
Ni       8.14581532       5.81499043       8.19450966      -0.00789179       0.00067936      -0.00023977      -5.74451058
Al       9.74905366       6.95367874       9.80813756      -0.00114601      -0.00559222      -0.00623064      -4.71695387
Ni       8.18786576       8.26491949      -0.09227903      -0.00252094       0.00494938      -0.00208143      -5.90899274
Ni       9.74030141       9.70845811       1.57188588       0.00617670       0.00642364       0.00108057      -5.73152270
Ni       8.18060630       8.41647113       5.75359237       0.00762324      -0.00322882       0.00646893      -5.67042542
Al       9.68175202       9.77612504       6.92582826      -0.00426365      -0.01056921      -0.00953434      -4.72568511
Ni       8.39300652       8.32004674       8.35839750       0.01146075      -0.00076006      -0.00061101      -5.89695614
Al       9.49405722       9.88242082       9.74792991       0.00542473       0.00350790      -0.00817622      -4.91421766
