156
Lattice="13.501569963073068 -0.010268687548173332 -0.030349084363586652 -0.01082110453319869 13.58725624244483 0.07180990233304833 -0.030995957022665874 0.07234160550797221 13.617034390226932" Properties=species:S:1:pos:R:3:forces:R:3:energies:R:1 rep=5 n_sites=250 energy=-687.8702221747043 stress="0.00019216825468203373 0.000204538441508053 -0.0006139661179309033 0.000204538441508053 -4.1793114646348267e-05 -0.0004958083956724907 -0.0006139661179309033 -0.0004958083956724907 0.00013161448397229505" free_energy=-687.8702221747043 pbc="T T T"
Al       2.91704958       1.00389042       1.10879769      -0.00075017       0.00412466      -0.00563389      -3.64041041
Al       1.96750690       2.05942504       3.45074233      -0.00408692      -0.00164995       0.00441518      -4.20627287
Al       0.85241724       1.69724603       5.90911803      -0.00136875      -0.00520213       0.00640866      -3.86136313
Al       1.16402055       2.06755872      10.11858989       0.00482261      -0.00085164      -0.00063485      -3.85668258
Al       1.08727147       1.14709420      12.72063246      -0.00619023      -0.00041030       0.00385496      -3.89888664
Al       1.17976432       3.66319932       1.27663947       0.00078407       0.00277395      -0.00715472      -4.05387102
Al       2.07559931       4.21257361       5.30184372      -0.00049896       0.00216347       0.00064470      -4.03047702
Al       2.08089480       3.09170866       7.79603882       0.00017022       0.00373260      -0.00169985      -3.75977220
Al       1.27542411       4.76976558       9.65797452      -0.00099681      -0.00808925      -0.00309557      -3.85464040
Al       0.73117208       3.81109758      12.16955671      -0.00305519       0.00145881       0.00536753      -3.88193208
Al       0.86875410       6.95795155       0.77061220      -0.00157172       0.00040904      -0.00103666      -4.26064294
Al       0.92236756       5.78851647       3.37884597      -0.00240305       0.00214380       0.00207303      -4.30665195
Al       0.95002405       6.47667587       6.27750834       0.00442765      -0.00129431       0.00094339      -3.85625458
Al       1.37376052       7.35699686       8.87120852      -0.00214648      -0.00388896       0.00029734      -4.05932326
Al       1.06231071       6.66598836      11.73915580       0.00132601       0.00481022      -0.00058524      -4.02518954
Al       1.01838306       9.76716897       2.01819885       0.00002090      -0.00179832      -0.00251054      -4.31661797
Ni      -0.22507052       7.84015437       2.78509525      -0.00873549      -0.00188588       0.00250218      -6.03179421
Al       1.32823737       8.57807760       4.58909990       0.00041650       0.00174907       0.00537319      -4.04141047
Al       1.08528862       9.38868646       7.04655395      -0.00296958      -0.00146621      -0.00920066      -3.99435799
Al       1.26679424      10.19350262       9.93327481      -0.00749346       0.00702773      -0.00497446      -4.33768117
Al       1.24977630       9.31706427      12.66910368      -0.00442680       0.00419135      -0.00190677      -4.14351250
Ni      -0.03767234      10.94186845       0.19252798       0.01206147       0.00309939      -0.00439680      -5.79055560
Al       1.55312610      12.32120242       1.24841039      -0.00009635       0.00016158      -0.00329726      -3.89204430
Al       0.49676241      13.11679374       3.78596713      -0.00577166      -0.00328251       0.00002791      -3.87217598
Al       0.99043204      12.37082909       6.41644945       0.00523601       0.00975387      -0.01074108      -4.26105226
Ni      -0.07623443      11.14000346       8.17670372      -0.00296442      -0.00524625       0.01165361      -5.87628322
Al       1.16050385      12.98695890       9.23907718       0.00312997      -0.01147294      -0.00121223      -4.31014476
Al       1.09623382      12.07370983      11.96498793      -0.00512006       0.00304345       0.00458065      -4.08084559
Al       5.47093572       0.43778928       0.74659076      -0.00459969      -0.00340692       0.00381164      -3.66191664
Al       4.29875211       0.39176346       3.46069258      -0.00715979      -0.00153719      -0.00262200      -3.89596142
Ni       2.41636623       0.15450306       4.95299432       0.01271678      -0.01098215       0.01266720      -5.78098349
Al       3.80418525       1.62766496       6.35380257      -0.00093426      -0.00069126      -0.00133021      -4.07212918
Al       3.92658173       1.61412122       9.43157941      -0.00422991      -0.00332683       0.00576418      -4.21401737
Ni       2.50969681       0.26432997      10.99391713      -0.01095754       0.00147457       0.00235971      -5.76373083
Al       4.08523740       1.62391564      12.26194645      -0.00249750       0.00444187      -0.00061797      -4.06837432
Al       3.97429528       3.55102471       0.88004415       0.00105237       0.00249088       0.00393826      -4.16984446
Al       4.64537116       3.09920170       4.00625148      -0.00013142      -0.00509727       0.00185348      -4.05328936
Al       4.53737847       4.30981389       6.43144950       0.00594685       0.00271717       0.00090270      -4.04217245
Al       4.08481219       4.29169107       9.12213404      -0.00443386       0.00960635      -0.00313371      -4.39101273
Al       3.59733356       4.22143407      11.77033578       0.01917669      -0.00594883      -0.00308555      -4.30799565
Ni       2.27636369       5.17994985      -0.25486855      -0.00517520       0.00343717       0.01272931      -5.79372082
Al       3.73379067       6.29213996       1.30160178       0.00799331       0.00745360       0.00385192      -4.28182067
Ni       2.82691750       4.28004847       2.95555679       0.00516612       0.00189408      -0.00191366      -5.89346827
Al       3.72727384       6.23169812       3.99015535       0.00030525       0.00120718       0.00165763      -4.09538232
Al       3.89766492       7.20013828       6.45514296      -0.00113508       0.00044317       0.00001858      -4.13888732
Ni       2.66818310       5.50969007       7.64970489       0.01147882      -0.00958001       0.00058573      -6.09262619
Al       4.02724927       7.09539895       9.33635551      -0.00629495       0.00147456      -0.00842501      -4.42577428
Al       3.75458442       6.84879864      12.18303014       0.00317756       0.00599191      -0.01079572      -4.10990075
Al       3.47368299       9.08878735       1.00865917       0.00141957       0.00906796      -0.00006512      -3.75604727
Ni       2.29665685       7.77076026       2.61445850       0.00619787      -0.00308951      -0.00254254      -5.91587897
Al       4.06522506       9.05575621       3.75523448       0.00351381      -0.00357936      -0.00518924      -3.89883025
Al       3.83500101       9.86816501       6.41114894       0.00459219       0.00126356      -0.00627261      -4.14836321
Al       3.94615087       9.76695412       9.37267652       0.00190630      -0.00001019      -0.00272982      -4.42983887
Ni       2.49934037       8.37253728      10.76316632       0.00297329      -0.00675332       0.01049426      -5.77585377
Al       4.00560679       9.64239781      12.11475410      -0.00570359       0.00373515       0.00246447      -4.02853306
Al       4.17824711      11.71260727       1.63635148       0.00282751      -0.00457976       0.00149473      -3.61678018
Al       2.82140096      11.54081098       3.99450170       0.00043920       0.00774185      -0.00247078      -3.87006507
Al       3.82499307      12.59254767       6.55502785      -0.01252472       0.00484929      -0.01014646      -4.38043282
Ni       2.44225676      11.20376403       8.00174254      -0.00425249       0.00216908       0.00191677      -6.05541063
Al       3.88287233      12.52959458       9.55955757      -0.00604573       0.00028037      -0.00313658      -4.43409003
Al       3.92414710      12.45093737      12.48191770       0.00594709       0.00702609      -0.00322864      -4.06582832
Al       8.00524807       0.57148585       1.45187920      -0.00629200      -0.00718832       0.00387939      -3.88136989
Al       6.87272744       1.17740231       4.04024527      -0.00441139      -0.00788185      -0.00134249      -4.03311777
Al       6.45144693       2.16319246       6.71943815      -0.00626415      -0.00387528       0.00013001      -4.11978312
Ni       5.31811232       0.33765395       7.89281730       0.00772372      -0.00782063      -0.01056966      -5.88382177
Al       6.85966804       1.56791881       9.44781736       0.00474043      -0.00055061       0.00351275      -4.13281422
Al       6.95263261       1.73713172      12.25662190       0.00005019      -0.00311845      -0.00569727      -4.09210999
Al       6.76159982       3.13297522       1.27921905      -0.00336109       0.00136548       0.00313476      -4.01060839
Al       7.36512354       4.30628294       3.68850596       0.00761936      -0.00729365      -0.00632832      -4.29419579
Al       7.36301388       4.82303602       6.45637563       0.00297092      -0.00050014      -0.00410001      -4.05667611
Al       6.77445949       4.27846860       9.13696855       0.00745433       0.00104622      -0.00448605      -4.11083401
Ni       5.43421780       3.03966165      10.79719259      -0.00073770       0.00634955       0.00515657      -5.89205809
Al       6.86471713       4.41989265      12.22218587      -0.00728054       0.00084024       0.00007864      -3.95784827
Al       6.61275544       5.96501523       0.84203516       0.00343639       0.00296885      -0.00086432      -4.13349653
Ni       5.30624214       4.83989706       2.49849461      -0.00171395       0.00839932      -0.00038946      -5.88840420
Al       6.35463041       6.78653571       3.56313142       0.00444851       0.00556856      -0.00162803      -3.83677795
Al       6.81862901       7.43177417       6.23270113       0.00344822       0.00451010      -0.00108579      -4.05092908
Ni       5.53974864       5.95743762       7.82063516      -0.00267117      -0.00657774       0.00188728      -6.03318222
Al       6.97665485       7.12354517       9.34190024      -0.00098091       0.00242471      -0.00019359      -4.31902156
Ni       5.37379189       5.57830751      10.65405584      -0.00229196      -0.00894243       0.00493006      -5.97050546
Al       6.34810647       7.23441175      12.03273396       0.00502464       0.00152450       0.01446680      -4.28815302
Al       6.07863968       8.83030594       1.47058841       0.00144981      -0.00478690       0.00069305      -3.88559698
Al       6.80760060       9.35895510       3.98127715       0.00082916       0.00140438       0.00321908      -3.58527436
Al       6.89489354      10.17807838       6.53217583       0.00067774       0.00416742       0.00229212      -4.03427266
Ni       5.44887983       8.57766698       7.81314218       0.00417189      -0.00444050      -0.00294112      -6.04037315
Al       6.80470224       9.77149315       9.43312557      -0.00100591      -0.00510984       0.00554968      -4.53898429
Al       6.71771810       9.92563569      12.59628247       0.00734506      -0.00352963      -0.00197850      -4.38505056
Al       6.86487489      11.60495772       1.48727489      -0.00336797       0.00466379      -0.00334219      -3.68888975
Al       5.74597858      11.78214759       4.03320395      -0.00466122      -0.00381035       0.00136140      -3.61906816
Al       6.69126183      12.87863107       6.37402973      -0.00446427      -0.00449090       0.00661643      -3.95767046
Ni       5.23135868      11.23112544       7.93022763       0.00421781      -0.00669168       0.00611029      -6.13254848
Al       6.71225078      12.52595016       9.39590176      -0.01179814       0.01175801      -0.00750141      -4.48060209
Ni       5.40650710      11.16996573      10.97298005      -0.00082222       0.00029995      -0.00269472      -5.95749594
Al       6.74474112      12.61340113      12.49474015      -0.00090831       0.00539724       0.00026708      -4.20644524
Al      10.60795286       1.40772614       1.77014261       0.00522796      -0.00592547       0.00407806      -3.85767864
Al       9.68572347       0.98387423       4.57614102      -0.00516617      -0.00589208      -0.00129632      -4.08865306
Al       9.14290000       1.49023209       7.33502346      -0.00137315      -0.00368463       0.00548213      -3.98919420
Al       9.80665195       1.66462866      10.19819741       0.00646079      -0.00282772      -0.00219071      -4.17658610
Ni       8.25797956       0.09855310      10.90619821      -0.00175920       0.01366200      -0.00008108      -5.89396066
Al       9.59495783       0.92727416      12.85548755      -0.00327496       0.00621342      -0.00003103      -3.88178595
Al       9.55237308       4.09250656       1.32782548      -0.00205439       0.00141029      -0.00066014      -3.85223044
Ni       8.60256903       2.42304195       2.85419476       0.00084033      -0.00531656       0.00782700      -5.89200867
Al      10.17976644       3.91903373       4.01611931       0.00032783      -0.00140360      -0.00099698      -4.01717320
Ni       8.33414320       2.82406748       5.36500960      -0.00607771       0.00303335      -0.00358287      -5.91500194
Al      10.06348186       4.07985925       6.67227321      -0.00651731       0.00225100       0.00441404      -4.24926097
Al       9.29258885       4.29180681       9.67626662      -0.00758736      -0.00387058      -0.00464418      -4.10688267
Al       9.52643350       3.68504041      12.31207307      -0.00003181       0.00040158      -0.00561225      -3.80268220
Al       9.03034875       6.71999384       1.81014687      -0.00651953       0.00298126      -0.00110324      -3.95693340
Al       9.02739075       6.78323581       4.50602831       0.00240370      -0.00498481       0.00594123      -4.05593873
Al       9.40024876       6.63620499       7.21170746       0.00299883      -0.00412848       0.00181691      -3.93492174
Al       9.77330522       7.22359855       9.82536667      -0.00275693       0.00260728       0.00031197      -4.27812277
Al       9.09442898       6.51869443      12.50296535      -0.01203278       0.01344482       0.01071649      -4.34497483
Ni       7.87735296       8.02096606       0.10445546       0.00587059      -0.00196920      -0.01166305      -5.88568335
Al       8.84224882       9.44675401       1.84971654       0.00168369      -0.00279576      -0.00199228      -4.31415743
Al       9.35265742       9.76164832       4.67135182       0.00366284      -0.00241753       0.00317880      -4.27676696
Al       9.32750010       9.38169091       7.40723231      -0.00097575       0.00057910      -0.00361944      -3.79800391
Al       9.82275682       9.94358251       9.98581191       0.00608503      -0.00863273      -0.00065119      -4.01399274
Ni       8.14742059       8.50557203      11.09348746       0.00014132       0.00457786      -0.00442924      -6.00710197
Al       9.53107455       9.55991690      12.77620258      -0.00837318       0.00431572       0.00512399      -4.07565532
Al       9.69701201      12.09785162       0.98479746      -0.00060661       0.00019382      -0.00351390      -3.91859710
Al       8.55422101      12.17858981       3.64222401       0.00219796      -0.00822821       0.00810131      -3.89626455
Al       9.25931834      12.14186644       6.47118764      -0.00006085      -0.00313937       0.00894012      -3.62521897
Al       9.47141122      12.58494745       9.14932745      -0.00002121       0.00004809      -0.00495557      -3.97905047
Ni       8.01145810      11.15314998      10.95539947      -0.00615410      -0.00591074      -0.00696564      -6.02879296
Al       9.96244353      12.12447931      11.87013031       0.00555140       0.00944785       0.00482239      -4.03516671
Al      13.47717536       1.16587323       1.54696528      -0.00759399       0.00110748      -0.00745462      -3.78445158
Al      12.26952865       1.55783345       3.92239775      -0.00248447      -0.00165392      -0.00837453      -3.71799734
Al      11.80044459       1.69207169       6.53664285       0.00693363       0.00304981      -0.00339113      -3.83880407
Al      12.33549981       1.04855295       9.19566909       0.00345290      -0.00294704      -0.00359404      -3.79266455
Al      12.01663388       2.16624566      13.03047420      -0.00391510       0.00160615       0.00207803      -3.61939746
Al      12.19507825       3.67582375       2.14264535       0.00730109      -0.00321151      -0.00645979      -3.67377699
Al      12.78500860       4.03853407       4.93027133       0.00480268      -0.00336057       0.00296729      -3.63835304
Al      12.87018173       4.13781268       7.66531989       0.00284140       0.00472134       0.00234847      -4.07759445
Ni      10.92975510       2.83091267       8.46883855       0.00184282      -0.00669374       0.01528853      -5.85322894
Al      12.08760212       3.69017708      10.39386440       0.00096003       0.00524911       0.00059654      -4.30684985
Al      11.86268522       4.81792374      13.22882027       0.00142464       0.00344168      -0.00275798      -3.87953699
Al      11.70810398       6.43193987       1.64717505       0.00330952       0.00096159      -0.00267548      -4.03774090
Al      12.00812424       6.62115740       4.49186325       0.00406748       0.00311811       0.00053032      -4.21611476
Al      12.13841538       7.13346331       7.33097636      -0.00031300       0.01138592       0.00494487      -4.05890246
Ni      11.00751171       5.38292236       8.59487310       0.00699827       0.00035918       0.00636038      -5.97454136
Al      12.57479637       6.53810965       9.95831590      -0.00270459       0.00267274       0.00958159      -4.09903932
Ni      10.78628440       5.56416444      11.21572540       0.01466927      -0.01011738      -0.00631920      -5.87366831
Al      11.94822177       7.44400166      12.49498622      -0.00060207      -0.00226205      -0.00791033      -3.78164008
Al      11.82777450       9.34592703       1.25637187      -0.00411052      -0.00323364       0.00065823      -4.35839489
Ni      10.60233216       8.11667968       3.09830858       0.00521668       0.00231725      -0.00338524      -6.08402939
Al      12.22375556       9.55261538       4.11009432       0.00351584      -0.00322065       0.00514020      -4.24929042
Ni      10.67148612       8.16023564       5.73334785       0.00420019      -0.00153240      -0.00141050      -5.87606451
Al      11.86207240      10.08981030       6.65753100       0.00126864       0.00362445      -0.00801838      -4.15228226
Al      12.29965141       9.22116776       9.27792151      -0.00969773       0.00349070       0.00211767      -3.87523945
Al      12.06135508      10.11743141      12.02534199      -0.00287558      -0.00176321      -0.00064395      -3.83922554
Al      12.30563425      12.08669450       1.96029502       0.00284553       0.00542651      -0.00175461      -4.08742690
Ni      10.51230807      10.80864415       2.85836897      -0.00223012      -0.00524560       0.00326427      -5.86761238
Al      11.36068995      12.33974537       4.59337768      -0.00115939      -0.00119284      -0.00203729      -3.89212178
Al      11.75139346      12.69886124       7.37323851      -0.00830860      -0.00447985      -0.00250339      -3.78859485
Al      12.12042533      11.98274527      10.05001573      -0.00011428       0.00008857      -0.00367890      -3.86700795
Al      12.22188306      13.02835897      12.99556649       0.00327006       0.00388684       0.00671850      -3.93239960
