94
Lattice="11.308740730078327 0.0023770867380416747 0.006029295345253671 0.002377612437384601 11.223537525417878 0.01296003943725532 0.006052520320300458 0.01296086838940728 11.225697270698054" Properties=species:S:1:pos:R:3:forces:R:3:energies:R:1 energy=-455.7018499629603 stress="-0.0010894163213452264 -0.00011055736570552595 -0.0004763588324029149 -0.00011055736570552595 0.00022910392243081238 -0.0004948553551682404 -0.0004763588324029149 -0.0004948553551682404 0.00017939966302345185" free_energy=-455.7018499629603 pbc="T T T"
Ni      -0.00923982       0.13039969      -0.02160929       0.00262483      -0.01614949       0.00904758      -6.02056241
Al       1.51704185       1.38381220       1.40695599      -0.00128077       0.00411160      -0.00080844      -3.89565325
Al       1.47362389       1.39611298       4.09093088      -0.00298611       0.00945459      -0.00721142      -3.87035235
Ni       0.00939085       0.05957882       5.60629498       0.00178546       0.00267195      -0.00543555      -6.15678642
Al       1.56539733       1.39640136       6.98234586      -0.00830501       0.00769837       0.00354415      -3.88678470
Al       1.43038028       1.43033903       9.70303947       0.00965422      -0.00651772      -0.00583172      -3.90247595
Ni       0.03903911       2.74873082       0.03641095      -0.00446122      -0.00025566      -0.00230863      -6.09435055
Al       1.40056129       4.13348482       1.48294756      -0.00084106      -0.00101546      -0.00162854      -4.37884040
Al       1.51592490       4.21128041       4.25828402       0.01395313      -0.00123641      -0.00569417      -4.24927521
Ni       0.11438627       2.74161411       5.56371419      -0.01877697       0.00274882       0.00091449      -6.06685317
Al       1.47661612       4.12221468       7.09090083       0.00746748       0.00765956       0.00647868      -4.11226014
Al       1.50929767       4.13783804       9.80489348      -0.00858727       0.00456728       0.00726636      -4.24017033
Ni       0.08493582       5.47490671      -0.05348098      -0.01152688       0.01084841       0.00550603      -6.09573438
Al       1.36045602       7.06499256       1.42101248      -0.01268673       0.00408347       0.00703290      -4.29309150
Al       1.45490598       7.00186549       4.22428451       0.01305258      -0.00359393      -0.00835618      -4.33398285
Ni       0.02624325       5.56315901       5.70315437       0.00683689      -0.00512405       0.00113574      -6.15450245
Al       1.45748209       7.02220133       7.07121021      -0.00222115       0.00204317       0.00693159      -4.49401529
Ni       0.01686595       5.58263764       8.40683250       0.00834648       0.01005274      -0.00194507      -6.13853119
Al       1.43185071       6.98525197       9.78484758      -0.00707262       0.00923465      -0.00500361      -4.52401170
Al       1.42226855       9.84981935       1.40369212       0.00370829       0.00060754      -0.00184987      -3.92394124
Al       1.51362224       9.91582363       4.15268140       0.00489970       0.00794576      -0.00374425      -4.09185931
Ni       0.15539535       8.50806011       5.57831300      -0.01078436       0.00591917       0.00683934      -6.13315155
Al       1.40293166       9.92922965       7.11319602       0.00244430       0.00066735      -0.00174697      -4.31913652
Al       1.35808048       9.88689829       9.85608086       0.00504220      -0.00513286       0.00028498      -4.18716231
Al       4.18207316       1.30911348       1.49751995      -0.00067054       0.00624889      -0.00244969      -4.14129148
Al       4.16355354       1.41275140       4.31727646      -0.00268719       0.00579009       0.00748769      -3.68789540
Al       4.28699001       1.55758349       7.02212927       0.00748688      -0.00085587       0.01602079      -3.70258635
Al       4.14316904       1.50954395       9.83374488      -0.00161383      -0.00304410      -0.00298832      -4.13011623
Al       4.18572824       4.16185112       1.50154368       0.00002938      -0.00218957       0.01101142      -4.56554673
Al       4.26739367       4.24435784       4.24156451       0.00736457      -0.00453392       0.00103669      -4.12834364
Al       4.19178810       4.27406518       7.04391810      -0.00557197       0.00072755       0.01200856      -3.68852390
Al       4.17437366       4.18004625       9.79685756       0.00345069      -0.00161161      -0.00333031      -4.09150389
Ni       2.83772309       5.63732988       0.09717395      -0.00138118       0.00111407       0.00505241      -6.22562213
Al       4.27238118       7.07043146       1.45484902       0.00417045       0.01174092       0.01125502      -4.30051673
Ni       2.79211879       5.61130982       2.78656670      -0.00111966      -0.00381383       0.01430207      -5.91820733
Al       4.16370627       6.98807661       4.21339081      -0.00566990      -0.00940627      -0.00291387      -4.37486191
Al       4.25055019       7.03443825       7.11991391       0.00060870      -0.00500958      -0.01037940      -4.32497311
Al       4.28027179       7.01692046       9.81396138       0.00286444      -0.00126373      -0.00744880      -4.35096155
Ni       2.81084364       8.41823721      -0.05896139       0.00508530      -0.00003806      -0.00494299      -6.02390664
Al       4.23988658       9.81782899       1.36089043      -0.00919679      -0.00360825       0.01313736      -3.92422614
Al       4.24909534       9.90809247       4.11726902       0.00418184       0.01357216       0.01339035      -3.93098250
Ni       2.86456765       8.52035967       5.69415818      -0.00070604      -0.00048314      -0.00437651      -6.16197186
Al       4.26846191       9.95513853       7.04234703       0.00016452      -0.00871506       0.01133028      -4.39557987
Ni       2.82428072       8.50125839       8.47301251      -0.00270639       0.00312549       0.00837808      -6.06617359
Al       4.23027942       9.88847581       9.83288850       0.00080007      -0.00282005      -0.00479961      -4.45829610
Ni       5.63751048       0.09945056      -0.07243268      -0.00180530      -0.00124878       0.00546180      -6.08061972
Al       7.07691952       1.39101965       1.47670936       0.00235094       0.00023992       0.00444336      -4.53571225
Al       6.99255402       1.37432040       4.23978462      -0.00898297       0.00020853       0.00072794      -4.26131008
Al       7.11861877       1.37378520       7.02875868      -0.00405458       0.00061046       0.00193789      -4.17357571
Ni       5.59706035       0.09361774       8.45864717      -0.00030110      -0.00721950      -0.00341135      -5.90153773
Al       7.10784820       1.49521133       9.85035236       0.00727638       0.00361064      -0.00833114      -4.44283885
Ni       5.60027375       2.80138713       0.12423335       0.00347627      -0.00065274      -0.00883673      -6.16929895
Al       7.06356653       4.22967722       1.48835722       0.00425515      -0.00025203       0.01323089      -4.32465105
Ni       5.60137596       2.73925985       2.85389143      -0.00510218       0.00096492       0.00002269      -5.89963140
Al       7.01877372       4.18361883       4.19253653      -0.00210445      -0.00605882      -0.01410918      -4.34096143
Al       6.97553807       4.15677248       6.99374159       0.00692255      -0.00220690       0.00030911      -4.37518435
Al       7.04200146       4.21097421       9.86203051       0.00662022       0.00425167       0.00300946      -4.44506992
Ni       5.55465555       5.51380354      -0.00685090       0.00688669       0.01510762       0.00424714      -6.02353237
Al       7.02717188       6.94737337       1.34375740      -0.00833031      -0.00785126      -0.01236228      -4.31887023
Al       7.02298178       7.07394563       4.16799158      -0.01121362      -0.00622975       0.00318157      -4.51097076
Ni       5.67954235       5.68197015       5.66434332      -0.00794889       0.00329223      -0.00614977      -5.99924548
Al       7.09749212       7.11866327       7.00376730       0.00464407      -0.00437095      -0.00240894      -4.53140446
Al       7.03271471       6.94513873       9.85612743      -0.00166542      -0.00237035       0.00069976      -4.30441083
Al       6.95135241       9.79338021       1.41396540      -0.00488089       0.00528024      -0.00577921      -4.46798762
Al       7.05801679       9.73975101       4.25452391      -0.00517296      -0.00770117      -0.00015712      -4.34797883
Ni       5.52165259       8.41429048       5.58033575       0.01178377       0.00088838      -0.00452898      -6.01648070
Al       7.04152370       9.84093514       7.02913723      -0.00954008      -0.00534848      -0.00511530      -4.22934511
Al       7.07285109       9.87959075       9.78576626      -0.00257990       0.00100826       0.00168217      -4.56262003
Ni       8.49553937      -0.03324762       0.10321630       0.00396017      -0.00786724       0.00721108      -6.19330485
Al       9.90310754       1.42911962       1.49293052      -0.00125251      -0.00070327       0.00261487      -4.31725946
Ni       8.48090354      -0.08188608       2.85061621      -0.00404634       0.00769532      -0.00045639      -6.14948215
Al       9.90001248       1.45976478       4.16352121      -0.00542542      -0.01148189      -0.00519510      -4.29873345
Ni       8.51432025       0.02048496       5.52199112       0.00055256       0.00573456      -0.00784135      -5.99941605
Al       9.89649399       1.42867802       7.04472116      -0.01183575       0.01052343       0.01076213      -4.36347271
Al       9.81134648       1.45412905       9.82495231       0.00114399       0.00249297      -0.01129773      -4.35052278
Al       9.84756379       4.18826085       1.41436912       0.00070639       0.00241277      -0.00072418      -4.17901544
Al       9.94662031       4.18356879       4.17915192      -0.00180624      -0.00010274      -0.00518971      -4.30647726
Al       9.89603819       4.11688565       6.95902098      -0.00252607      -0.01366335       0.00084812      -4.55053641
Ni       8.44682481       2.88534238       8.41207685       0.00156970      -0.01101046      -0.00484842      -5.89721319
Al       9.92495108       4.14277670       9.81815750       0.00870726      -0.00747328       0.00867897      -4.51037584
Al       9.94953554       6.94050247       1.34141090       0.01245875      -0.00311887      -0.00315298      -4.29437342
Ni       8.51051706       5.65501121       2.87594354       0.00296755      -0.00109027      -0.00018619      -6.00562966
Al       9.93591808       7.07608913       4.24805681       0.00138900       0.00215772      -0.00696154      -4.47804592
Ni       8.44189026       5.58537147       5.56977766       0.00008237      -0.00519757       0.00545846      -6.23900964
Al       9.92296664       7.09254984       7.01153322      -0.00104956       0.00542034      -0.00171935      -4.54754596
Ni       8.50435236       5.56267085       8.35174423      -0.01046768       0.00076746       0.00071334      -6.18145499
Al       9.91273609       6.96617969       9.88148238      -0.00456265       0.00257371      -0.00291300      -4.49473462
Ni       8.48068377       8.45475348      -0.01356520       0.00761978      -0.00527098      -0.00372966      -6.15768892
Al      10.01680703       9.79219816       1.40719567       0.00321777       0.00025693      -0.01372734      -4.44449689
Ni       8.49804716       8.37685383       2.68412055       0.00317604       0.00861809       0.00867143      -6.14719549
Al       9.96659575       9.76566128       4.17638018       0.00719326       0.00206733      -0.00820000      -4.49101095
Al       9.84277619       9.79338133       7.01992157      -0.00101167      -0.00959710      -0.00210036      -4.34599703
Ni       8.48054978       8.37397041       8.53359743       0.01095587       0.00022379      -0.01287984      -6.00318892
Al       9.94691850       9.87344817       9.79524135       0.00258127      -0.00453449      -0.00579767      -4.33685783
