128
Lattice="11.93937601673977 -0.028014247879520785 0.18202526461547033 -0.024406808426233818 12.471415272190065 0.07506862940296144 0.17500157756291726 0.07855693627479227 12.872249297770447" Properties=species:S:1:pos:R:3:forces:R:3:energies:R:1 energy=-585.9371243721488 stress="0.00012685386291291895 -0.0003745957662384714 0.0001316775562891357 -0.0003745957662384714 -0.00012671032435726125 0.0004995605346054043 0.0001316775562891357 0.0004995605346054043 -0.00018269300799979686" free_energy=-585.9371243721488 pbc="T T T"
Ni       0.14785280      -0.04270401      -0.98395543       0.00400014      -0.00499407      -0.00526255      -5.80145522
Al       2.05059457       0.58389942       2.73050963      -0.00136872       0.00157354       0.00551884      -4.22874314
Ni      -0.04846407       1.33107008       3.69602318       0.00066830       0.00924536      -0.00330066      -5.89376965
Al       1.81297341       2.68864812       4.47088015       0.00617377       0.00098047      -0.00669015      -4.31563064
Al       0.79569709       0.18164217       5.64956119      -0.00048701       0.00215384       0.00248393      -4.22916126
Al       1.65659031       1.53525244       8.04482674      -0.00203272      -0.01036869       0.00802085      -4.19850588
Al       0.11571849      -0.29874352       9.46225398      -0.00718165      -0.00000845       0.00112764      -3.94107552
Al       1.15277785       2.17627218      11.23158247      -0.00162391      -0.00474363      -0.00658744      -4.24105354
Al       0.36926455       3.98731690       0.54318810       0.00406905       0.00305887      -0.00061590      -3.68102278
Al       2.02354096       4.67517329       2.60306289      -0.00318744      -0.00940407      -0.00349283      -3.97480772
Al      -0.58763727       3.56321270       3.10304806       0.00373726      -0.00446475       0.00286127      -3.95089512
Al       1.34655231       5.22719556       5.68624774       0.00155481       0.00474759       0.00330267      -4.42315803
Ni       0.24502192       2.48645190       6.18049258      -0.00268912       0.00506478      -0.00985477      -5.89127287
Al       0.70396924       4.19294863       7.98112919      -0.00896529       0.00831142       0.00227586      -4.41854917
Ni      -0.47101777       3.22816097       9.79187859       0.00280787      -0.00397882       0.00179863      -5.83132507
Al       0.97680882       4.90680683      10.75140371      -0.00062486      -0.00393966      -0.00393278      -4.20549404
Al      -0.37788099       6.43872695      -0.31643100      -0.00054510      -0.00453014       0.00060699      -3.96640264
Al       1.67256182       7.35716303       1.58324399       0.00287813       0.00461069       0.00168923      -4.49548468
Al      -0.11415476       6.42529579       3.50723170       0.00063131      -0.00071048      -0.00030024      -4.02631600
Al       1.19320143       7.95327477       5.66220555      -0.00259648      -0.00225005      -0.00341129      -4.45663212
Ni      -0.31642846       6.31272194       7.17449712      -0.00076253      -0.00048119      -0.01088906      -6.01669662
Al       1.74905615       7.27521090       8.29332062       0.00388484      -0.00540784       0.00757183      -4.34110087
Al      -0.64968452       6.89860877       9.52057853       0.00293530      -0.00232881       0.00357194      -3.79007265
Al       1.86435486       7.79823330      11.09560027      -0.01201182       0.01169752      -0.00082149      -4.42086905
Ni       0.34571567       8.71099449       0.00500380       0.00404155       0.00003302       0.00924105      -5.99031191
Al       1.68661793      10.17474233       1.60127086      -0.00035110      -0.00052963       0.00205028      -4.33873513
Ni       0.70685658       8.80560432       3.47952423       0.00137482       0.00919904       0.00267329      -6.04823090
Al       2.35681279      10.48685280       4.29163021      -0.01005436       0.00068911       0.00533739      -4.40155692
Ni       0.29239100      10.21964741       5.60246120       0.00671730       0.00183062      -0.01351892      -5.91270703
Al       1.35749881      10.67789693       7.62969889      -0.00019469       0.00135786       0.00883311      -4.10615159
Al       0.18583693       9.38642153       9.70989402      -0.00033256      -0.01017352       0.00214649      -3.79689823
Al       1.69501656      10.52517957      11.58287950      -0.01345784      -0.01152437       0.00499413      -4.25230849
Al       2.50899001       0.12983038      -0.12041965       0.00038684      -0.00521836      -0.00366489      -3.76867879
Al       4.62923164       0.69242396       1.81622762      -0.00432996      -0.00160242       0.00216835      -4.02505125
Ni       3.94565942       0.06858046       4.05358344      -0.00683326       0.00435083      -0.00762022      -5.68782109
Al       4.29028686       1.92441144       5.52144788      -0.00012731      -0.00131952       0.00087286      -4.37171572
Al       3.51823229      -0.59341015       6.35780779      -0.00256744       0.00403111       0.00116951      -3.77522354
Al       4.57936589       2.46325476       8.26167426       0.00181887      -0.00514442       0.00603646      -4.33466412
Al       3.00289134      -0.48125233       9.38313864       0.00192683      -0.00079723       0.00482556      -3.78984567
Al       3.79243673       1.92286215      10.91913598       0.00288228       0.00454243      -0.00137978      -3.95674794
Al       2.74475657       2.62843791       0.82987044       0.00332229      -0.00412051      -0.00590775      -3.79780453
Al       4.67962884       4.48153083       1.95606217       0.00111082       0.00200019      -0.00080382      -4.06304910
Ni       3.72758376       2.58350293       3.10616365      -0.00201849      -0.00367165      -0.00492171      -6.05779556
Al       3.83369880       4.81794311       4.85978801      -0.00176999      -0.00113129      -0.00189214      -4.45270261
Ni       2.66290281       3.28571848       6.71603587       0.00271442       0.00117361      -0.00845167      -6.01555856
Al       3.63351233       5.04896809       7.90075767      -0.00030697       0.00463321      -0.00208332      -4.46570769
Ni       2.50882703       3.44231125       9.45808751       0.00589879       0.00107102       0.00139666      -6.01023606
Al       4.76274805       4.50556654      10.45370160       0.01333403       0.00102303       0.00100564      -4.51524639
Al       2.79787797       5.23922369      -0.24427351       0.00037796       0.00215623      -0.00500627      -3.98655463
Al       4.54986235       7.19783601       1.27563631      -0.00031749       0.00151758       0.00213432      -4.39521544
Ni       2.28109616       6.67695761       3.92766771      -0.00612037       0.00583997       0.00922973      -5.89477153
Al       4.47302634       7.69057771       4.49553516       0.00004580      -0.00567414      -0.00602417      -4.40162010
Ni       3.30208969       6.85969804       6.33682437      -0.00078857       0.00214057       0.00890064      -6.04387590
Al       4.40486048       7.56326358       8.79459550      -0.00356581      -0.00354112       0.00152288      -4.35279416
Ni       2.97762155       5.96180165      10.08132376      -0.00364154       0.00041720      -0.00835509      -5.88751812
Al       4.51250589       7.33916527      11.44827812       0.00295830       0.00086498       0.00752158      -4.24687712
Ni       2.94971610       8.79861834       0.06338734      -0.01224119      -0.00440916      -0.00173028      -6.02322412
Al       4.62393101      10.19862499       1.18703840       0.00209449      -0.00153219       0.00157428      -4.09986786
Ni       3.37547569       8.83246400       2.70165499       0.00494253      -0.00033981      -0.00560005      -5.95575652
Al       4.97602100      10.38900737       3.91988175       0.00393403      -0.00951699       0.00488542      -4.16564112
Al       3.51950226       9.17474704       6.88285684      -0.00469510       0.00358421      -0.01141765      -3.98363081
Al       5.16548172      10.28360740       8.74650920      -0.00057631      -0.00202466       0.00640775      -4.00324037
Ni       2.71640355       9.57425986       9.31115113      -0.00895061      -0.00344010      -0.00129126      -6.19271805
Al       4.43607710      10.15865958      11.30664459       0.00102768      -0.00230524       0.00467539      -4.20157926
Al       5.74114495      -0.19278292      -0.36980645       0.00135766       0.00168380      -0.00244791      -3.62558087
Al       7.15347576       1.85861778       1.75524727       0.00476775      -0.00769092       0.00396713      -3.66231334
Al       6.38499737       0.33036223       3.97168301      -0.00239435       0.00557021      -0.00123909      -3.80655819
Al       7.16199129       2.09376330       5.95211729       0.00543696       0.00475323       0.00097226      -4.15929333
Al       5.95846794       0.02944831       7.07405725      -0.00074787       0.00473924       0.00301939      -3.70921303
Al       7.83348834       1.27433221       8.89483866       0.00746507      -0.01248138      -0.00690219      -4.47975991
Al       5.49826997       0.27005603       9.79108193       0.00121265      -0.00037128      -0.00099981      -3.80500438
Al       7.90939700       1.78019128      11.86459694      -0.00835928      -0.00494588       0.00159261      -3.98180704
Al       5.42103555       2.83513483      -0.18384051       0.00469905       0.00429133       0.00191159      -4.01967183
Al       7.38147200       4.72414829       1.04848576       0.00257295      -0.00219252      -0.00839660      -4.09447012
Al       5.97940519       3.34820801       3.93021282       0.00766297       0.00859145      -0.00555989      -3.94582215
Al       7.73368480       4.72939665       5.78044686      -0.00345213       0.00025496       0.00419597      -4.02144229
Ni       5.47864265       3.87520149       6.44526194       0.00896269       0.00640699      -0.00253622      -6.10270723
Al       6.92899394       4.14668607       8.50467492      -0.00144643      -0.00233561       0.00215882      -4.39587071
Ni       6.23117364       2.53126898      10.29390723      -0.00358042       0.00338354      -0.00303213      -6.14737646
Al       7.44939200       4.60474121      11.16099420      -0.00386528       0.00357473      -0.00666498      -4.40616058
Ni       5.25433062       5.28192572      -0.16798232       0.01094094       0.00652911      -0.00504378      -6.02117360
Al       8.13144593       7.68806541       1.60442121      -0.00153782      -0.00242298       0.00475890      -4.17915195
Al       6.55784105       6.03466805       3.37528967      -0.00082212       0.00303335      -0.00164942      -3.79696237
Al       7.49020883       8.19466196       4.70623211      -0.00112952      -0.00383071       0.00571316      -4.05275255
Al       5.73691692       6.36287974       6.64680994      -0.00285483      -0.00093456       0.00914864      -4.03856439
Al       7.16879832       8.14189401       8.18615120       0.00322634       0.00298573       0.00103297      -4.25267551
Ni       6.34795509       6.37471928       9.71492850      -0.00334782       0.00324228      -0.00138923      -5.89005630
Al       6.99584970       7.11977236      12.14194872      -0.00822473       0.00400356      -0.00318978      -4.22467469
Al       6.87997412       9.67029393      -0.21739082      -0.00340426      -0.00427203       0.00694653      -3.98218722
Al       7.32891865      10.33403226       2.50598908      -0.00125752      -0.00122580       0.00744884      -4.21218950
Ni       5.97116564       8.42170507       2.79832161       0.00283109      -0.00157804       0.00410818      -5.92555726
Al       8.43978341      11.29585546       5.06717875      -0.00052269      -0.00215926       0.00425601      -4.13571522
Al       6.09549670       9.87070183       6.27785286      -0.00185062       0.00895117      -0.00490533      -3.67927888
Al       7.85394743      10.95357553       7.91558099       0.00744338       0.00760857      -0.00302695      -4.17615511
Ni       6.33789950       8.82762093      10.41998903       0.00054005      -0.00366878       0.00303793      -5.99689257
Al       7.49035725      11.14974777      10.51653828      -0.00282849       0.00454803       0.00000631      -3.87696381
Al       8.47705248      -0.29449069       0.68741151      -0.00547367      -0.00335215      -0.00242127      -4.03254381
Al      11.97866776       1.27947033       1.26558061      -0.00135255       0.00244098       0.00777267      -4.07789659
Al       9.64598066       0.78413305       2.97400592       0.00398872       0.00030228       0.00937384      -3.99171446
Al      10.04247194       1.82806969       5.41508920       0.00667975      -0.00461051      -0.00703285      -4.37262558
Ni       8.69421005       0.50018168       6.85583822      -0.00956903      -0.00494743       0.00923303      -5.89066381
Al      10.60140351       1.65449065       8.20286653      -0.00031517      -0.00502444       0.00221789      -4.48434595
Ni       9.57018535      -0.49065700       9.25414189      -0.00705366       0.00282601      -0.00172470      -6.11321996
Al      10.38770398       1.31931682      11.06702918      -0.00098735      -0.00667205      -0.00327688      -4.28525364
Al       9.60382236       2.61910216       0.98238473      -0.00266364       0.00473333      -0.00440542      -3.67505331
Al       9.99686057       5.25480099       1.70227201      -0.00404471       0.00736052      -0.00861832      -3.88458504
Al       8.58455204       3.57268085       3.36153387       0.00390456      -0.00029651      -0.00333587      -3.71615772
Al      10.57541949       4.49213702       5.95579050       0.00228644       0.00226191       0.00577877      -4.22832238
Ni       8.88104171       3.08388349       7.26778256      -0.00040015       0.00589506      -0.00552362      -5.98956512
Al       9.95741894       4.76467471       8.65108719      -0.00374237       0.00052842      -0.00121908      -4.28237562
Ni       8.90130705       3.03738540       9.96594519       0.00318721       0.00680243       0.00626012      -6.02018842
Al      10.19055682       4.29064245      11.63904564       0.00691105      -0.00159967      -0.00185249      -4.32207218
Ni       8.97037859       6.12073029      -0.29205166       0.00850061      -0.00649380      -0.00353867      -6.00297924
Al      10.72286338       8.55036313       2.08633881      -0.00777789       0.00054100      -0.00375248      -4.32036630
Al       9.21324897       6.18542412       4.03516130      -0.00180428      -0.00347088       0.00417079      -3.56067958
Al      10.27622732       9.19578758       4.66623828       0.00501323       0.00974893       0.00461747      -4.35026035
Al       9.25094414       6.83986076       6.72946478       0.00538920       0.00245835       0.00204711      -3.93306008
Al      11.10762784       8.66081134       7.35499636       0.00071654      -0.00579987       0.00101051      -4.10795658
Al       8.69409442       6.87133118      10.12166435      -0.00470320      -0.00438994      -0.00408471      -4.00686422
Al      10.09589588       8.39908535      11.99222938       0.00056403       0.00073568      -0.00956468      -4.16710091
Ni       9.07773301       9.87388166       0.71255880      -0.00416124      -0.01045262       0.00041473      -5.85125485
Al      11.21123978      10.98404532       0.97661923      -0.00240417       0.00615290       0.00453382      -4.25774907
Ni       9.56643656      10.87988995       2.89117235       0.01549492       0.00114691       0.00400482      -5.80548585
Al      11.75976027      11.33932189       3.67185209       0.00183237      -0.00238914      -0.00234407      -4.33980424
Ni       8.70194321       9.16025970       6.57226155       0.00348704       0.00345079      -0.00239233      -6.09082013
Al      10.49016089      11.29420239       7.14709898      -0.00565866       0.00330014      -0.00150272      -4.36137321
Al       9.50258636       9.41452528       9.34238516       0.00673398      -0.00465443       0.00033842      -3.90353485
Al      10.16233087      11.07504077      11.50908949       0.00299590       0.00115337       0.00191996      -4.19812073
