250
Lattice="16.190011585666337 -0.09647470777317665 0.03782632701726017 -0.09987995488475368 15.978655767982607 -0.3583888766605569 0.03698806436074402 -0.34931438127261966 15.528432427529333" Properties=species:S:1:pos:R:3:forces:R:3:energies:R:1 rep=5 n_sites=250 energy=-1058.0540771484375 stress="-2.3031197997624986e-06 -0.0007829749374650419 0.00016106826660688967 -0.0007829749374650419 5.566539766732603e-05 0.0005664484342560172 0.00016106826660688967 0.0005664484342560172 0.00031677051447331905" free_energy=-1058.0540771484375 pbc="T T T"
Al       0.36497897      -0.37051171       0.28843480       0.00964779      -0.00990190       0.00093263      -3.87727660
Al       2.74689623       0.70735360       1.06024311      -0.00089334       0.00013167      -0.00264885      -3.85449380
Al       0.37578764       0.34429238       2.94557624       0.00583971      -0.00275387      -0.00307828      -3.85784143
Al       1.54897843       2.61627794       3.32176342       0.00396961      -0.00701001      -0.00126386      -3.83476174
Al      -0.35422726       0.45796507       7.59874574       0.00673937       0.00496453      -0.00155142      -3.64038181
Al       2.20567070       1.40492446       8.18957912       0.00139165      -0.00404525      -0.00004727      -3.84744149
Al      -0.57996786      -1.15673990       9.74918146       0.00166871      -0.00156733      -0.00321671      -3.93331456
Al       1.44500973       1.27159871      10.98244234      -0.00179030       0.00039757       0.00501010      -4.25826710
Ni       0.19375268      -0.58620334      11.91485691      -0.00854675       0.01044479       0.00575334      -5.76285064
Al       1.93313352       0.16292780      13.57103918       0.00126044       0.00745252      -0.00690114      -4.27412516
Al       0.50349359       2.46761070       0.46226245       0.00017733       0.00241145       0.00199661      -3.90998811
Al       2.33343731       4.63031948       1.45495255      -0.00364664       0.00228982      -0.00028889      -3.90885556
Ni       0.12437918       4.18989849       2.22472862      -0.00302760      -0.00106856       0.00042231      -5.99947625
Al       1.26158056       5.01321188       4.53363180      -0.00494731       0.00159006       0.00447029      -3.85951328
Al      -0.14183700       2.85110233       6.18215195      -0.00099551       0.00100546       0.00160293      -3.73020232
Al       1.17201121       4.95641714       7.40097132      -0.00302570       0.00297315      -0.00185011      -3.73116016
Al       0.13347230       2.83520088       8.97700095       0.00138999       0.00142986       0.00363570      -3.89546812
Al       2.30006460       3.91307298      10.82877017       0.00008836       0.00281170       0.00063087      -4.07345235
Ni      -0.02762582       3.39015314      11.29069721       0.00873686       0.00205986      -0.00298984      -6.01361024
Al       1.23478431       2.96012872      13.40116267      -0.00436452       0.00676434      -0.00163138      -4.05727762
Al      -0.27859965       5.25621459      -0.04776891       0.00350446      -0.00313438       0.00383398      -3.86971623
Al       2.37506504       7.51422718       0.78741804       0.00432689       0.00589378       0.00311877      -3.68152654
Al       0.59482828       6.57255989       2.44941215       0.00186865      -0.00766078      -0.00195351      -3.83646727
Al       1.49440671       7.93988648       4.72621872      -0.00268662      -0.00067444       0.00109198      -3.76225162
Al      -0.61921757       6.48709590       5.84211077      -0.00094238       0.00242228       0.00145428      -3.64652050
Al       1.17631360       7.77193404       7.66898178      -0.00430262      -0.00357564       0.01281350      -3.73332763
Al      -0.11352738       5.54848045       9.96174944       0.00221121       0.00475806       0.00118039      -4.02225822
Al       1.19222745       7.79266088      10.87226112      -0.00383981       0.00166821       0.00183554      -3.80546057
Al       0.18940860       5.47078539      12.71434925       0.00097723      -0.00260037       0.00660443      -3.83415735
Al       1.61530538       7.82456039      13.66346141       0.00670177       0.00278486      -0.00048527      -3.91338688
Al       0.11222945      10.30446931      -0.76917556      -0.00031582       0.00031733       0.00779831      -4.22134453
Al       1.55529969      11.56319051       1.76393334       0.00395206      -0.00904644       0.00355935      -3.83000004
Al       0.19585047       9.01261600       1.61002557      -0.00972103       0.00813963      -0.00113353      -3.85823262
Al       0.38226087      10.42718362       3.91727909       0.00269660       0.00334612      -0.00503223      -3.73828208
Al      -0.65779667       9.20785414       6.03790759      -0.00352275      -0.00360230      -0.00384821      -3.64979601
Al       1.95744401      10.17634021       6.62245145       0.00165723       0.00041276       0.00972950      -3.97057819
Al      -0.37331299       9.91942713       8.64751422      -0.00087715      -0.00181614      -0.00001672      -3.70905232
Al       0.26632164      11.24855830      10.97559668      -0.00191008       0.00170180       0.00403267      -4.21238494
Ni       0.04790380       9.27368493      12.42297579      -0.00023335      -0.00713450      -0.00928344      -5.88116509
Al       2.18456769      10.55631875      12.72400508      -0.00085047       0.00204511      -0.01066753      -4.15299183
Al       0.83627138      12.87823114      -0.44182391      -0.00860205       0.00063571      -0.01123443      -4.06231213
Al       1.82407306      14.23662012       1.87030827      -0.00290421       0.00634801       0.00304922      -4.02557409
Ni       0.26057168      12.86797088       3.44594634      -0.00409500      -0.00785545       0.00149710      -6.01994789
Al       2.21177567      13.92534351       4.65810355       0.00032024      -0.00647324       0.00247367      -4.04592764
Al       0.29008746      12.36977207       5.92805422       0.01148796       0.00512934       0.00615492      -4.09031606
Al       1.75001437      14.72062801       7.43727456       0.00420150      -0.00417097       0.00107951      -4.01953691
Al      -1.68138006      12.24761199       9.32787089      -0.00269290       0.00196912       0.00712496      -3.70398259
Al       1.93652417      14.45197508      10.17450658       0.00822227       0.00074945      -0.00217778      -4.15971678
Ni      -0.52258523      11.75528908      13.21558901       0.00361352       0.01532212       0.00160471      -6.01083386
Al       1.20105173      13.45460467      12.60063120      -0.00321551      -0.00702938       0.00620967      -4.20012838
Ni       2.53889034      -1.30544153      -0.46654308       0.00251395      -0.00555559      -0.00127395      -5.98741597
Al       5.43609034       1.91728729       1.27045833      -0.00400686       0.00041961       0.00244769      -4.11064249
Al       3.26035671       0.55765076       3.75270943       0.00104925      -0.00299833      -0.00739454      -3.64067221
Al       5.77435082       1.42045659       4.26888232       0.00099017       0.00115351      -0.00768638      -3.87430447
Al       1.49718147       0.61527507       5.67013715      -0.00307554      -0.00633156      -0.00386702      -3.50970864
Al       4.75535975       1.27413722       7.44516391       0.00529957       0.00564299      -0.00158454      -4.20063728
Ni       3.78880335      -0.25818739       9.15623501      -0.00169395       0.00349692       0.00763715      -5.98698026
Al       4.23428660       2.05780820      10.13775791       0.00558179       0.00426304      -0.00048542      -4.18067312
Al       4.14433156      -0.12565443      11.62207038      -0.00020650       0.00266761      -0.00078505      -4.13030130
Al       4.95720037      -0.85397072      14.96559320      -0.00286945       0.00400166       0.00037490      -4.15859777
Al       3.41249756       2.76600116      -0.51615054      -0.00527796       0.00073542       0.00527933      -3.98407358
Al       4.97829658       4.88933816       1.03513563      -0.00968346      -0.00142189      -0.00581685      -4.03982615
Al       4.06098997       3.50848912       3.34688929      -0.00095507       0.00359859       0.00018515      -3.58211064
Al       5.22754240       3.94774164       5.77620330       0.00066939       0.00557074       0.00618778      -3.91016322
Al       2.65933152       3.05510388       5.86061701      -0.00071288       0.00257163      -0.00147971      -3.70093131
Al       5.68858666       5.81636798       7.92848176      -0.00349328      -0.00493790      -0.00126922      -3.99800414
Al       3.62327577       3.93294301       8.25656234      -0.00489151      -0.00627926      -0.00676779      -3.92091614
Al       5.31236047       4.88070179      10.55504211       0.00450141       0.00018914      -0.00152519      -3.90917546
Ni       3.22798917       1.93726482      12.46382069       0.00523560       0.00427805      -0.00199412      -5.97824574
Al       4.16302418       4.03387895      12.96621158       0.00387223       0.00626695      -0.00406636      -3.98395509
Al       2.18840575       5.61151650      -1.09706478       0.00560572       0.00315460       0.00453714      -3.60794413
Al       4.83849290       8.18687542       1.52896521      -0.00336415      -0.00099291      -0.00320470      -3.88342029
Al       3.55720019       6.45798529       3.38106703       0.00417344       0.00276746       0.00421004      -3.66647172
Al       5.93989359       6.74619867       5.27380344       0.00344089      -0.00632740      -0.00510260      -3.82404077
Al       3.36399719       6.16335990       6.25611267      -0.00147235       0.00253845      -0.00307505      -3.73768377
Al       4.09336348       8.50933528       7.89517347      -0.00315686      -0.00035414       0.00500086      -3.64463413
Al       2.88485730       6.34037800       9.21446163      -0.00262959       0.00115967      -0.00393097      -3.71629012
Al       5.09078654       7.68856344      10.31461809      -0.00512620       0.00254735      -0.00342058      -3.69795942
Al       3.19226697       6.28280697      11.92483543       0.00546408       0.00224367       0.00684684      -3.64372671
Al       4.56437819       6.46461354      14.36471972       0.00560316      -0.00462321      -0.00592481      -3.87693900
Al       2.91337657      10.01231965      -0.06285325       0.00478385       0.00641873       0.00124208      -3.75227547
Al       5.39407384      10.83245575       1.22772033       0.00560307      -0.00189461      -0.00331714      -3.76472270
Al       3.06755937       9.70229616       2.93583622       0.00041330      -0.00419462       0.00236822      -3.70119047
Al       3.98081647      11.53914470       5.09512409       0.00220941      -0.00672853       0.00618899      -3.83573449
Al       4.04473344       8.71883927       5.24543040       0.00477585       0.00164364       0.00189040      -3.57982898
Al       4.02401774      11.43995539       8.22849659       0.00513616      -0.00222394      -0.00361739      -3.93108976
Al       2.36152584       9.80079406       9.59096022      -0.00220600       0.00066671      -0.00279501      -3.76718020
Al       4.61161127      10.76186521      11.00775780       0.00348410       0.00285657      -0.00228175      -3.95977294
Al       4.18543460       8.60401724      12.75341577       0.00179860      -0.01065088      -0.00670342      -3.65806282
Al       4.86422967      10.86830925      13.94851974      -0.00049690       0.00289072      -0.00110302      -3.68104053
Al       3.67490210      12.87769143       0.13855590       0.00215833       0.00004232      -0.00989050      -3.91419286
Al       4.73461096      15.16097932       1.82130120       0.00265205      -0.00637867      -0.00022103      -3.89205968
Al       4.02651824      12.64125346       2.71324331      -0.00370474      -0.00050847       0.00326291      -3.58728659
Al       5.00853834      14.49791099       4.50478143      -0.00032520       0.00301456      -0.00308298      -3.61688983
Ni       2.53051561      12.56934882       6.67494726      -0.01560034      -0.00426790       0.00173960      -5.74352300
Al       4.46713847      14.05172229       7.14192189       0.00243983      -0.00001747      -0.00137006      -4.08633167
Al       1.23992913      12.24964580       8.68135643      -0.00141597       0.00580609      -0.00576048      -4.12612653
Al       4.60240748      13.54574068      10.22449665       0.00102463      -0.00352073      -0.00731084      -4.06476051
Ni       2.61686458      12.12337912      10.83815467      -0.00221222       0.00039967       0.00454815      -6.10893118
Al       3.83996292      13.20937409      12.85921793       0.00636333      -0.00298497       0.00030437      -4.22798067
Ni       6.88171406      -0.14013058       1.13796792       0.00218336      -0.00619427      -0.00392131      -6.01169610
Al       8.15159844       1.79172461       2.23733056       0.00160048       0.00966343       0.00106148      -4.01818877
Al       7.46121370      -0.80468654       3.49688550       0.00165060      -0.00266380      -0.00745156      -3.88879347
Al       8.49313174       2.20338250       4.96089731      -0.01081493       0.00172300       0.00341818      -3.94663823
Al       7.07546726      -0.17630707       6.21208567      -0.00220620       0.00031456      -0.00355910      -3.81848466
Al       8.03148520       1.68769895       8.30360871      -0.00000069       0.00180912       0.00078728      -4.43694568
Al       6.18854433      -0.42406809       9.25145924       0.00500944       0.00157807       0.00022338      -4.14712662
Al       6.86815558       2.05711695      10.74693539       0.00167701       0.00153889       0.00067594      -4.11639750
Ni       5.93887656      -1.34904511      12.76938320      -0.00038914      -0.00256316      -0.00374076      -5.97083461
Al       7.70674737       1.44187420      15.17825054       0.00177102       0.00422877       0.00142234      -4.26716185
Ni       5.78406187       3.37613974      -0.73489257       0.00416917       0.00875791       0.00055462      -5.82175523
Al       7.59879563       4.65516676       0.19114830       0.00333509       0.00121839       0.01474608      -4.31658745
Al       6.71041514       3.87713310       3.22922471      -0.00219938      -0.00118417       0.00404540      -3.58981001
Al       8.53768803       5.21512809       4.71960191       0.00390812      -0.00333662      -0.00241894      -3.89147693
Ni       6.63245298       2.14177514       6.42016323       0.00360169      -0.00778322       0.00103366      -5.57116699
Al       7.86768570       4.04905923       7.16952314      -0.00536937       0.00056326      -0.00326744      -4.36191356
Ni       5.98535851       3.37561619       8.76469746       0.00323018      -0.00636305      -0.00035912      -6.15529633
Al       8.11205270       4.31051963       9.90755179       0.00092199       0.00598732       0.00508663      -4.19160116
Al       5.58554566       1.35289577      13.16180969       0.00639181       0.00034188      -0.00317860      -4.27238864
Al       6.66332157       4.59869316      13.09292792      -0.00200387       0.00049621      -0.00243166      -3.91296595
Ni       6.37725283       6.82673296       0.33395210       0.00666573       0.00527781      -0.00850476      -5.82974041
Al       8.27616314       8.16728596       1.02573260      -0.00460173      -0.00607955      -0.00927618      -4.06956691
Al       6.71952619       6.57506858       2.71914295       0.00513981      -0.00000438      -0.00410762      -3.88062215
Al       8.87489343       8.42503339       3.64136598       0.00318071       0.00145540       0.00212483      -4.03468740
Ni       7.80988571       6.40284357       6.73080475      -0.00299365       0.00039311       0.00568330      -5.79663986
Al       7.95978270       8.76055926       6.24193790       0.00349045      -0.00116336       0.00239889      -3.98492575
Al       7.68400390       7.35892722       8.88894097      -0.00394665       0.00484163       0.00083397      -3.90565020
Al       9.12658719       8.72891948      10.64514358      -0.01228276      -0.00747445      -0.00835937      -4.06403345
Al       7.29667360       6.66228219      11.51550707      -0.00623494       0.00277887       0.00396253      -3.83992255
Al       8.05817469       6.70230976      14.06361683       0.01148511      -0.00241809       0.01363730      -4.04449797
Al       6.11942784       8.98393726      -0.82574423      -0.00213535      -0.00395626       0.00087361      -3.88227689
Al       8.04164670      10.90030716       2.10812452       0.00324929      -0.00028713      -0.00181448      -3.87186116
Al       6.21588876       9.34872044       3.74329961      -0.00333915       0.00246691      -0.00207599      -3.64206612
Al       8.98983139      11.35988234       4.82284218      -0.00545573       0.00109546      -0.00158455      -4.22653073
Al       6.07902855      10.57408361       6.40710708       0.00449513       0.00165227       0.00113418      -3.64160073
Al       8.61636632      10.96883959       7.76829805      -0.00139776       0.00194660      -0.00376491      -4.04472321
Al       6.36503609       9.76796485       9.05808801       0.00369841       0.00131797      -0.00039497      -3.62930250
Al       8.28384616      11.30481858      10.53356555      -0.00420043       0.00267139      -0.00648070      -3.89591253
Al       6.76854450       9.44909709      12.05522647      -0.00101664      -0.00094692      -0.00493619      -3.71826231
Al       9.15196209       9.37985894      13.41134505      -0.00880605       0.00072336      -0.00037475      -3.88973212
Al       7.39421213      11.38201742      -0.72249739      -0.00064093       0.00169596      -0.00273531      -3.60542381
Al       6.69916047      13.32113605       1.14577052       0.01357467       0.00415868      -0.00600780      -3.86135626
Al       6.43450516      12.17280248       3.81472519       0.00370472       0.00292100      -0.00673520      -3.63757622
Al       9.42858159      14.32954272       4.83720901      -0.01073148      -0.00454165      -0.00564718      -3.82314312
Al       7.23911152      13.09436173       6.16893021       0.00946575       0.00551453       0.00345586      -3.83686459
Al       8.63706617      14.78563022       7.79628347       0.00082120      -0.01140764      -0.00531179      -4.20194554
Al       6.45777205      12.44848134       8.64372796      -0.00172225      -0.00086874      -0.00058069      -3.67662013
Al       7.53377284      13.96885065      10.57719827       0.00520059       0.00105122      -0.00723444      -4.03810316
Al       6.58202690      12.31221001      12.48899545       0.00208350       0.00021857       0.00045759      -3.86811215
Al       7.47186816      14.31417544      14.24911734      -0.00525633      -0.00011037       0.00140993      -4.09985209
Al       9.25883612      -0.79072983       1.30416979      -0.00958335       0.00289808      -0.00622892      -3.83569264
Al      10.79587861       1.44444109       0.96917154      -0.00364654       0.00182730      -0.00096276      -3.87050557
Al      10.03272804       0.36459829       3.60080221      -0.00001958       0.00038280       0.00631999      -3.63679647
Al      12.35700575       1.58761081       3.75927802      -0.00072393      -0.00095655      -0.00479322      -4.10573244
Al      10.89295978       0.90954962       6.11255958      -0.00082801      -0.00416482      -0.00114732      -3.61436796
Al      10.54760796       0.77636781       8.94989163       0.00225763       0.00149590      -0.00799677      -4.14740765
Ni       8.42523178       0.14230906      10.10720887      -0.00894272       0.00459510       0.00534846      -6.01183021
Al       9.64228454       2.09020562      11.18568252      -0.00456143       0.00266129      -0.00236784      -4.38072401
Al       7.97026332       0.14575320      12.54809631       0.00222988       0.00563820      -0.00023901      -4.18397439
Al      10.02221810       2.42630760      14.13283173       0.00021961       0.00027367       0.00161253      -4.02440041
Ni       9.60017941       3.57917517       0.90828330      -0.00526188       0.00247763       0.00192242      -5.94313681
Al      11.77135405       4.76298362       1.37766603      -0.00019428      -0.00591132      -0.00241479      -4.16095942
Al      10.32712702       3.26747971       3.24107820      -0.00357260      -0.00008421      -0.00428975      -4.11232412
Al      11.48335278       5.51589142       4.43526157      -0.00142702       0.00537205       0.00828964      -4.10681933
Al      10.48022409       3.66210735       6.21920133       0.00580988      -0.01041799      -0.00049043      -3.92056185
Al      12.34671137       2.81631688       7.95740076      -0.00541234      -0.00072868       0.00579789      -4.00103015
Ni      10.00600532       3.24312496       8.59230070       0.00027379      -0.00416139      -0.00294317      -6.05903900
Al      11.36144758       4.63038754      10.11579881       0.00925256      -0.00375235       0.00290239      -4.35710156
Ni       7.85309400       2.50781556      12.96716281       0.00302215       0.00049168      -0.01251276      -5.94805306
Al       9.28605304       4.61636623      12.38388134       0.00084798       0.00205919      -0.00117104      -4.03023314
Al      10.32229911       5.55901958      -0.65714566       0.00218503      -0.00541727       0.00102070      -4.01962686
Al      11.08063558       7.61173236       1.41499147       0.00347848       0.00080217      -0.00239002      -4.22452587
Al       9.19754801       5.65612029       2.19270395       0.00735487      -0.00451785       0.00493003      -3.82680130
Al      11.81161422       8.50119736       3.80277299      -0.00387958       0.00428157       0.00191964      -4.17786920
Al      10.09926839       7.08193007       5.91252183       0.00533143      -0.00793511       0.00148386      -3.95022416
Al      10.39469928       8.69486842       8.02978308       0.00241780       0.00325751       0.00429418      -4.11773467
Al       9.76690028       5.71753386       8.18771177       0.00290453       0.00501290      -0.00397900      -4.18198889
Al      11.79674044       7.29797184      10.11532403       0.00015736      -0.00226265       0.00252900      -4.20298028
Ni       9.49683476       6.30490438      10.53393571       0.00149820      -0.00101177       0.00295637      -6.03948414
Al      12.31968555       8.59530501      14.57750179       0.00620467       0.00208008      -0.00490168      -4.32568765
Ni      10.05538395       8.03814247      -0.66236595      -0.00746061       0.00021628       0.00294679      -5.77139682
Al      10.05863571      10.25822117       0.40045020      -0.00109890       0.00317612      -0.00402720      -4.09821784
Ni      10.26270441      10.24929729       2.90192157      -0.00197052      -0.00106332       0.00214997      -5.99659789
Al      11.77854404      11.31637200       4.37070925      -0.00214039       0.01014052       0.00793976      -4.37545335
Ni      10.33487797       9.41519695       5.45670042       0.00047910      -0.00621560       0.00303413      -6.15852952
Al      11.26324384      11.09059862       7.15688941      -0.00017776      -0.00698772       0.00095848      -4.26786816
Ni      10.45929502      10.54752219       9.54718683      -0.00757659       0.00392794      -0.00356624      -6.00008661
Al      11.34758266       9.64181624      11.68282051       0.00184065       0.00151320       0.00635906      -3.92402548
Al      10.75632910       6.97134278      12.64145494      -0.00559212      -0.00058223       0.00112144      -4.30960459
Al      11.32931976      11.39404369      13.63359839       0.00532770       0.00007495      -0.00629790      -3.64743519
Al       9.49186883      12.93609398      -0.33516312       0.00248655       0.00207880       0.00219743      -3.60238075
Al      12.13966255      15.22792073       1.89428371      -0.00161448      -0.00082485      -0.00287406      -4.00202012
Al      10.28098000      12.79158858       2.39339007      -0.00167388       0.00386226      -0.00096252      -3.95555198
Al      12.44166345      14.56312756       4.44205454      -0.00616223      -0.01216003       0.01176383      -4.23501945
Ni       9.73557051      12.92861188       6.71988408      -0.00661071      -0.00038821       0.00735703      -5.92917538
Al      11.45368815      14.63450892       7.18294093       0.00539189      -0.00397032       0.00371800      -4.05751657
Al      10.18680049      12.92193408       9.16277945      -0.00588837       0.00829563       0.00207636      -4.00343633
Al      10.14411210      15.05552263      10.94422753       0.00303835      -0.00634681       0.00674137      -3.89209992
Al       9.40970769      12.91448015      12.50365406      -0.00190776      -0.00059522      -0.00811718      -3.67997241
Al      10.00492380      15.39762575      13.78178767      -0.00292228      -0.00210563      -0.00157987      -3.69647694
Al      12.54176895      -0.24060205      -0.40443793      -0.00102530      -0.00086948       0.00065140      -3.59761631
Al      14.34199173       0.81755950       1.26713465      -0.00930816      -0.00696166       0.00656143      -3.92338061
Ni      14.19224442       0.09662799       3.62900502       0.00076160      -0.00615163       0.00078897      -6.00940084
Al      14.94225705       2.47956079       3.68959908       0.00588907       0.00718987      -0.00475749      -4.23275810
Al      13.73947129       0.87028033       6.05800450      -0.00098207      -0.00157845      -0.00098628      -3.86598456
Al      13.43413196       0.62462017       9.00663501       0.00008014      -0.00469324      -0.00751374      -3.85539514
Al      12.72531992      -1.60798045      10.24441838      -0.00007293      -0.00142784       0.00292861      -3.58366334
Al      14.92748153       1.12166923      11.23671555       0.01075870      -0.00209351       0.00531479      -4.01846731
Al      12.32286478       0.69424061      12.22626326      -0.00494634       0.00039348       0.00701992      -3.87306970
Al      14.97191359       0.21013668      13.84055018       0.00297229      -0.00204588      -0.00007309      -3.85423899
Al      12.77811598       2.37855250      -0.77339187      -0.00151211       0.00433306      -0.00244989      -3.63837063
Al      14.14281046       3.54206035       1.24921898      -0.00153640      -0.00283287       0.00795266      -4.04240882
Ni      12.79644735       3.89223711       3.32730290       0.00836146       0.00360731      -0.00808470      -5.82620049
Al      14.63835116       5.29507734       3.60535687      -0.00574207       0.00114392       0.00579160      -4.17339712
Al      13.30079520       3.72196729       5.65518802       0.00035756      -0.00285321      -0.00044239      -3.92720801
Al      14.63356876       4.60499594       7.75720442       0.00500593       0.00114872       0.00102079      -3.84713417
Ni      11.92529876       2.25653719      10.30246540       0.00259659       0.00093094       0.00401873      -5.92628181
Al      13.94063739       3.56054158      10.35756843      -0.00688667       0.00188765      -0.00114830      -4.36513865
Al      11.97246536       3.43465241      12.56018007      -0.00381293       0.00553988      -0.00331482      -3.82946372
Al      14.74052068       3.12103362      13.28854206      -0.00037494      -0.00094959       0.00120440      -3.89349926
Al      13.24182500       5.22253425      -0.88883152       0.00505511      -0.00289475       0.00062027      -3.59227204
Al      14.13991414       7.12538244       0.94964558      -0.00051846      -0.00569214      -0.00872555      -4.02442771
Ni      12.76599007       6.55765190       2.78611220      -0.01140919       0.00144273       0.00314890      -5.62365067
Al      14.59097363       8.03479085       3.71903133      -0.00070809       0.00345957       0.00789505      -3.88940698
Al      12.31389792       6.04555977       7.32659794      -0.00565448      -0.00368036      -0.00338206      -3.81195045
Al      14.45951596       7.54862804       8.08025018       0.00399162       0.00188419      -0.00261794      -3.89070666
Ni      13.64717449       5.85879858       9.57786327       0.00108376       0.00081194       0.00069068      -6.00844151
Al      14.72376859       7.95012774      10.70615118       0.00674078       0.00281149       0.00943965      -4.19803214
Al      13.50170551       5.72241079      12.06422858       0.00313678      -0.00015193      -0.00084281      -4.04233015
Al      14.81794553       7.64774515      13.87190705      -0.00482897       0.00441921       0.00014308      -4.15497911
Ni      14.31646293       9.44823025       0.45778046       0.00395737       0.00733665       0.00321169      -5.75976270
Al      14.89990919      11.41985495       1.85765010      -0.00708235      -0.01367238      -0.00080247      -4.16529286
Al      12.41799457      10.52081300       1.68623090       0.00403030       0.00759354      -0.00147721      -4.18622720
Al      14.25960517      12.32656714       4.41399275      -0.00770105      -0.00044844       0.00513877      -4.23740083
Al      12.65991178       8.71076239       6.34889048      -0.00117412      -0.00057580      -0.00749057      -3.84873486
Al      14.01308703      11.15038205       6.94265613      -0.00491661       0.00114776       0.00381723      -3.86100090
Al      12.86063961       9.83302547       9.10870402      -0.00054303      -0.00042686      -0.00785036      -3.89857382
Al      14.01333667      10.28322787      12.03072426      -0.00102407      -0.00191014      -0.00112697      -4.32237321
Ni      12.96154431       8.01772873      12.28470501      -0.00166161      -0.00802568       0.00071729      -5.77541763
Al      13.79458694      10.99604852      14.67819924      -0.00196207      -0.00022057       0.00605926      -3.96955431
Al      12.15959868      13.16700312       0.21312126      -0.00241906      -0.00218933       0.00017062      -3.85479742
Al      14.84936418      14.08479680       2.01377859       0.00767832       0.01242198       0.00035423      -4.23047471
Ni      12.74859518      12.81912841       2.53614567      -0.00087212       0.00043080       0.00091885      -5.99969614
Al      15.57038092      14.80419034       4.79497922       0.00231781      -0.00074528       0.00222650      -4.03211039
Ni      12.49091941      12.81486019       6.07247984      -0.00279191       0.00673628      -0.00980051      -5.61574262
Al      14.22339919      14.00546854       7.17469418       0.00079069      -0.00017141       0.00437090      -3.95900881
Al      12.11238919      11.96137409      10.79278583      -0.00145872      -0.00503984       0.00518614      -3.80690205
Al      14.67658854      13.42508099      11.80026619      -0.01031923      -0.00826074       0.01031922      -4.06055582
Al      12.06079809      13.91928703      12.63884283      -0.00075014      -0.00170546       0.00313044      -3.67240489
Al      14.53177418      13.56232132      14.51517093       0.00434238      -0.00484878       0.00032224      -3.83741319
