128
Lattice="11.608147386020473 -0.003788755445278686 0.01726798748583015 -0.0037899391473938423 11.524412775991397 -0.002869980039051778 0.017676303159195966 -0.001998948666494375 12.048169912420411" Properties=species:S:1:pos:R:3:forces:R:3:energies:R:1 energy=-656.6028545894485 stress="-0.00032552560998898663 1.6857944000442744e-05 -3.9286882794553085e-05 1.6857944000442744e-05 0.00029637003229443434 0.0004987619655584819 -3.9286882794553085e-05 0.0004987619655584819 0.00017444129727667106" free_energy=-656.6028545894485 pbc="T T T"
Al       0.23478636       0.00013591       0.09872708      -0.00049065       0.00222227       0.00238326      -3.72560668
Al       1.69493423       1.35812532       1.81297277      -0.00645068      -0.00267529      -0.00684796      -4.40187506
Ni      -0.08322862      -0.04175675       2.93209176       0.00250266      -0.00183711       0.00175021      -6.29271458
Al       1.48535360       1.40661405       4.47178885      -0.00702759       0.00306298       0.00725229      -4.45237498
Ni      -0.06754913       0.15471290       6.00488067      -0.00135553       0.00002443      -0.00169565      -6.25452086
Al       1.51803028       1.41620556       7.55133320      -0.00396422       0.00214460      -0.00353883      -4.47345301
Ni      -0.01202296      -0.00688905       8.97717326       0.00150736       0.00257617       0.00200755      -6.19670214
Al       1.62326121       1.41302954      10.29902365      -0.00026906      -0.00015264       0.00342538      -4.44108626
Al       0.16365169       2.74349679       0.13226495      -0.00274405      -0.00534380       0.00233271      -3.67745666
Al       1.60447700       4.39609094       1.58683217      -0.00436606       0.00295850      -0.00265026      -4.47756593
Ni      -0.02548386       2.83552905       2.82463677      -0.00087172      -0.00688044      -0.00111897      -6.29195590
Al       1.43787988       4.37263087       4.37101058      -0.00468547       0.00060829       0.00409664      -4.45629675
Al      -0.07621007       2.93151044       6.02834049      -0.00522886       0.00179135      -0.00746418      -3.63619369
Al       1.42756407       4.37094876       7.57259592       0.00417201      -0.00122057       0.00156578      -4.30228159
Ni       0.03919409       2.87308457       9.06438317      -0.00375082      -0.00207782       0.00102500      -6.26511162
Al       1.50960343       4.26512672      10.59134691       0.00489041       0.00377585      -0.00102256      -4.29163649
Ni       0.14667774       5.82456515       0.03595990       0.00049056      -0.00100624       0.00089893      -6.26896984
Al       1.62512501       7.17367497       1.65587772       0.00067030       0.00718026      -0.00779041      -4.45990492
Ni      -0.03429748       5.78567266       2.84234775       0.00202908       0.00380056      -0.00130761      -6.15225907
Al       1.44647617       7.16002239       4.38308009      -0.00649350       0.00198170       0.00514418      -4.45585793
Ni      -0.08885960       5.74291686       5.92402535      -0.00041533      -0.00054643      -0.00187375      -6.35938838
Al       1.46040378       7.11024409       7.61505831       0.00709315      -0.00147550       0.00366838      -4.26032784
Ni       0.03229786       5.67432253       9.22600240       0.00906107       0.00467659       0.00034986      -6.18434796
Al       1.47705086       7.27116108      10.45804305       0.00180705       0.00680369       0.00728722      -4.28017255
Al       0.19730175       8.70504540       0.13851581       0.00772768      -0.00464907      -0.00428982      -3.66773762
Al       1.68666608      10.09891116       1.80470743      -0.00025437      -0.00388427       0.00135846      -4.40807237
Ni      -0.08188631       8.71952864       2.87838205       0.00339848      -0.00047048       0.00120564      -6.26632585
Al       1.43938899      10.11845463       4.53641931      -0.00130716       0.00168017      -0.00035101      -4.46484619
Al      -0.06887031       8.49310208       6.09277779      -0.00617528       0.00732043      -0.00250978      -3.62073870
Al       1.49218346      10.14758354       7.48777036       0.00030456       0.00151731      -0.00767226      -4.45747267
Ni      -0.05391705       8.71387062       8.90584603       0.00264857      -0.00400487      -0.00106979      -6.32729168
Al       1.57828801      10.07050123      10.28624807      -0.00686301       0.00429719       0.00496669      -4.41641002
Ni       2.80330119      -0.01370813      -0.03389359       0.00293109      -0.00142908       0.00181652      -6.27094009
Al       4.34992463       1.36850347       1.57662073       0.00532502       0.00209136      -0.00123792      -4.52548004
Ni       3.09151089      -0.07548507       3.26481635       0.00366620      -0.00772266       0.00393693      -6.13981426
Al       4.39278499       1.47170553       4.55508100      -0.00196126       0.00550541       0.00243580      -4.49379625
Ni       2.91362172       0.02170236       5.99543764       0.00003726       0.00145345      -0.00383541      -6.17185526
Al       4.32077574       1.43989194       7.50303748       0.00526229      -0.00405944      -0.00185956      -4.48567523
Ni       3.01846132      -0.05713021       8.89028968       0.00789766       0.00313953      -0.00092692      -6.15852663
Al       4.34741965       1.41103844      10.50842695       0.00141950       0.00079140       0.00181573      -4.52820469
Ni       2.80968914       2.72427301       0.05809167      -0.00375042       0.00197238       0.00395048      -6.26406448
Al       4.32038513       4.31444641       1.48405924       0.00384552       0.00117967      -0.00281588      -4.55374929
Ni       3.00824642       2.93123183       3.11364253       0.00243688      -0.00061572      -0.00276043      -6.16817621
Al       4.38277553       4.37704618       4.53603794       0.00134057      -0.00056112      -0.00254883      -4.48814287
Ni       2.78575828       2.95242454       5.98557456      -0.00596005       0.00084532      -0.00052556      -6.26387526
Al       4.34877880       4.37267015       7.37949793       0.00559873      -0.00463219      -0.00171039      -4.26033799
Ni       2.98672508       2.98193986       8.94513096       0.00025180       0.00224655       0.00003694      -6.25192573
Al       4.38885708       4.16041827      10.73870916       0.00402333      -0.00082501       0.00468613      -4.47848591
Ni       2.89354558       5.83270618      -0.07819961      -0.00005486      -0.00148166      -0.00190486      -6.24190824
Al       4.33721941       7.26066629       1.52575574       0.00408229       0.00212887      -0.00319993      -4.55479804
Ni       3.03074236       5.77923760       3.08886015       0.00448619      -0.00071214       0.00461937      -6.17216839
Al       4.43971731       7.18193814       4.59842964      -0.00525132      -0.00126001      -0.00297514      -4.55399304
Ni       2.76888914       5.76350764       5.96081354      -0.00073322      -0.00699471       0.00276432      -6.16538585
Al       4.39936984       7.18426394       7.37405270      -0.00600966      -0.00025574       0.00191659      -4.45968514
Al       3.08920225       5.73656450       9.14711684      -0.00761735      -0.00137648      -0.00281985      -3.65876716
Al       4.38174857       7.37240032      10.65345846       0.00076548       0.00068402      -0.00364927      -4.45376460
Ni       2.79104615       8.73459521       0.00731729      -0.00355296       0.00357676      -0.00164881      -6.27771555
Al       4.35269289      10.10618561       1.52840029       0.00261192       0.00004908       0.00108497      -4.53025690
Ni       3.04783348       8.64879035       3.19700272       0.00114563       0.00021593       0.00099510      -6.16127187
Al       4.46453755      10.02636779       4.69215309       0.00459496      -0.00423903       0.00142314      -4.55039929
Ni       2.76893399       8.55941058       6.01058544       0.00067201       0.00229943       0.00261396      -6.23691967
Al       4.40575651      10.05664339       7.40213295      -0.00029389      -0.00092341       0.00397979      -4.54197576
Ni       2.98886677       8.61131711       8.89088484      -0.00156730       0.00072599      -0.00216752      -6.22851492
Al       4.33429291      10.09813156      10.52321249      -0.00052762      -0.00200102      -0.00385032      -4.51857964
Ni       5.71596577       0.02281846      -0.01022474       0.00077924       0.00033002       0.00556225      -6.18206961
Al       7.16728608       1.42894067       1.44298289       0.00233575      -0.00098662       0.00656759      -4.48948924
Ni       5.87012047      -0.05696051       3.10551747       0.00405006       0.00312551       0.00345120      -6.27240951
Al       7.27785692       1.55410069       4.42766026      -0.00212489       0.00224243       0.00065283      -4.22570893
Ni       5.93200907       0.17989212       6.04251408      -0.00303104       0.00242397      -0.00191027      -6.25034323
Al       7.37253150       1.40510271       7.72665018      -0.00246900      -0.00087237       0.00172656      -4.46420233
Ni       5.76248734      -0.01947301       8.97196181      -0.00112151       0.00464635      -0.00110685      -6.17721695
Al       7.17065834       1.43443221      10.54127635      -0.00322619       0.00208684      -0.00198293      -4.54914346
Ni       5.73742634       2.77335095       0.07888511       0.00219535       0.00348858       0.00292692      -6.16352940
Al       7.19446269       4.33438598       1.40885683      -0.00595589      -0.00096402      -0.00448297      -4.55672071
Ni       5.76855210       2.88873733       2.93692521      -0.00181134      -0.00060402       0.00459328      -6.22629878
Al       7.26685036       4.32808729       4.23581888       0.00498815      -0.00153795      -0.00339809      -4.38695523
Al       6.03442209       2.95651163       6.11913146      -0.00636158       0.00441350      -0.00042527      -3.67310889
Al       7.31530081       4.37217307       7.86576574       0.00357716      -0.00129049      -0.00400499      -4.35112421
Ni       5.71799143       2.91332144       8.98129987       0.00059240      -0.00121401       0.00334297      -6.24108907
Al       7.17584828       4.28820383      10.65041389      -0.00312565       0.00181496      -0.00117695      -4.53765490
Ni       5.70175846       5.79488210       0.02481033       0.00279677      -0.00063655      -0.00322821      -6.19854127
Al       7.20866164       7.24080162       1.47587101       0.00295034       0.00126739      -0.00323358      -4.55493751
Ni       5.76083039       5.77836979       2.94069287       0.00366573      -0.00179491       0.00236840      -6.18896549
Al       7.23332429       7.21877662       4.37927992       0.00354874      -0.00458520      -0.00007939      -4.46715168
Ni       6.02655452       5.68909937       5.99167795       0.00688662      -0.00380059      -0.00206998      -6.34493813
Al       7.19908356       7.08500195       7.68095273       0.00313497      -0.00594013       0.00127302      -4.37827539
Ni       5.63974013       5.72397336       9.15763886       0.00173809      -0.00216577       0.00032673      -6.25909919
Al       7.10829509       7.16367820      10.60300260       0.00157901       0.00207723      -0.00144080      -4.48332452
Ni       5.74000572       8.68410897       0.03585090      -0.00283568      -0.00265183      -0.00531319      -6.16629582
Al       7.15248957      10.03193106       1.36389062       0.00401648       0.00154168       0.00288986      -4.45857670
Ni       5.82449807       8.69765709       3.01200438      -0.00153305       0.00049630      -0.00010247      -6.17879009
Al       7.21999175       9.96544410       4.73598228      -0.00925484      -0.00501021       0.00523546      -4.45988696
Ni       5.97559721       8.47503810       6.12863555       0.00191910      -0.00065513      -0.00186979      -6.09585378
Al       7.24459524      10.15672187       7.46332582      -0.00279786       0.00040478      -0.00387722      -4.46472649
Ni       5.77728991       8.64576920       8.95185603       0.00197408      -0.00629169      -0.00184122      -6.23230570
Al       7.08859085      10.13850825      10.57741412      -0.00506138      -0.00160185      -0.00186563      -4.48432557
Ni       8.63591173      -0.02385579      -0.07911664      -0.00175440      -0.00444084       0.00356650      -6.25654784
Al      10.01649009       1.38261692       1.50500219      -0.00727881      -0.00764616      -0.00056053      -4.26984683
Al       8.54930656      -0.14437338       3.06006954       0.00432674      -0.00272996      -0.01126077      -3.58831234
Al      10.13288681       1.48908164       4.39840834      -0.00216547      -0.00512659       0.00139458      -4.28313369
Ni       8.70486144       0.16638533       5.92578894       0.00230502      -0.00192294       0.00053329      -6.19229888
Al      10.06621239       1.44258444       7.67551478       0.00237553       0.00502989      -0.00122383      -4.42554408
Ni       8.69861100      -0.08902692       9.16616674      -0.00464688       0.00131338       0.00177253      -6.25250313
Al      10.13350491       1.41012488      10.52102082      -0.00157508      -0.00472502       0.00086230      -4.41148980
Ni       8.66242529       2.81643252      -0.01454920       0.00108503       0.00708881      -0.00121983      -6.23447994
Al      10.08848162       4.38863160       1.41361669       0.00540197       0.00237846      -0.00686451      -4.46565007
Ni       8.67951528       2.90507510       2.81881325      -0.00174866      -0.00230965      -0.00357842      -6.22033408
Al      10.15951693       4.30009326       4.22818936       0.00121464       0.00337031       0.00217279      -4.36718808
Ni       8.72460439       2.98337054       6.05439527       0.00181546       0.00121121       0.00039812      -6.36576950
Al      10.13422166       4.29728927       7.81597875       0.00427610       0.00001433      -0.00223527      -4.32726353
Ni       8.70206419       2.88952395       9.24702556       0.00206478      -0.00136197       0.00375339      -6.15104624
Al      10.16606047       4.31143095      10.67661460       0.00520724       0.00056096       0.00463065      -4.46659272
Ni       8.61558853       5.82963499      -0.03273750      -0.00037969      -0.00227295       0.00392395      -6.17272236
Al      10.04998181       7.20592138       1.46627928       0.00040725      -0.00058836      -0.00088694      -4.44894211
Ni       8.66974800       5.77353786       2.86812270      -0.00138974       0.00204593       0.00395251      -6.22678501
Al      10.13188427       7.19716644       4.27858119      -0.00241909       0.00071724       0.00697439      -4.38114260
Al       8.73493711       5.66545642       5.98539469      -0.00188798       0.00036057      -0.00151077      -3.79089951
Al      10.20539093       6.99963545       7.74799435      -0.00429975       0.00263595      -0.00119229      -4.30113610
Ni       8.73760028       5.76068004       9.29023909      -0.00509500       0.00452296      -0.00139162      -6.25400721
Al      10.26028464       7.15025698      10.65589856      -0.00281805       0.00400925       0.00250638      -4.41741657
Ni       8.64095432       8.64818040      -0.15806842      -0.00248681       0.00394402      -0.00326945      -6.29792880
Al      10.02029886      10.04303715       1.43912177      -0.01363321       0.00986537       0.00873693      -4.21439660
Ni       8.64477933       8.73890806       3.01277108      -0.00232361      -0.00045620      -0.00483137      -6.25514457
Al      10.16488481      10.06617594       4.59243866       0.00057753      -0.00531361       0.00328306      -4.24847998
Ni       8.77849975       8.44929715       6.11970989       0.00256938      -0.00406722       0.00399160      -6.32919892
Al      10.09682310      10.24659836       7.46389531       0.00727292      -0.00466187      -0.00199873      -4.38096097
Al       8.70789476       8.67361909       9.10995308       0.00021944       0.00029940      -0.00100170      -3.71658053
Al      10.24690832      10.14426007      10.58994913       0.00206106      -0.00151440      -0.00408871      -4.22994317
