169
Lattice="13.797234622384856 -0.03364619484059235 -0.010313089352910459 -0.033589398280656574 13.850904711335515 -0.04004698786829895 -0.010364229268351675 -0.04008526676017222 13.824872147320372" Properties=species:S:1:pos:R:3:forces:R:3:energies:R:1 rep=5 n_sites=250 energy=-781.6229322107041 stress="-0.00017868630523439432 0.0004805926427184527 0.00048621152953413346 0.0004805926427184527 0.00022519594149663367 0.00033948041290928946 0.00048621152953413346 0.00033948041290928946 -8.214129993790695e-05" free_energy=-781.6229322107041 pbc="T T T"
Al       1.07094834       1.34786527       1.42329486      -0.00220216       0.00082188       0.00039235      -4.14967003
Al       1.35132659       1.37654961       4.24333064      -0.00592708       0.00663018       0.00802999      -4.18839107
Ni      -0.08563361       0.01839934       5.60124743       0.00031177       0.00462877       0.00113130      -5.96476784
Al       1.33405879       1.55658059       6.97174461       0.00029790       0.00265884       0.00032462      -4.38570119
Ni       0.10533475      -0.08711558       8.34210446       0.00086732      -0.00475110       0.00198319      -6.07322820
Al       1.42176316       1.39742164       9.87223804      -0.00121950       0.00097511      -0.00323117      -4.35124053
Al       1.69627868       1.85535346      12.63370107      -0.00854846       0.00065963      -0.00024223      -4.16474982
Al       1.11065658       4.05636417       1.22174762       0.00841078      -0.00017468       0.00358867      -3.95354780
Al       1.03547660       4.21296199       4.20670115       0.00044571       0.00543829      -0.00317058      -4.00324027
Al       1.76599732       4.41239775       6.87811764       0.00327499       0.00981335      -0.00568506      -4.04389157
Al       1.31079375       4.08690327       9.64426752       0.00714293       0.00086044      -0.01078693      -4.19164651
Ni       0.03912421       2.87464565      11.27554718      -0.00202786      -0.00324154       0.00739912      -5.88462625
Al       1.40119094       4.65119455      12.37925168      -0.00628761       0.00593464       0.00177886      -3.78345815
Al       1.16995941       6.78318014       1.17728422       0.00528760       0.00844513       0.00285117      -4.18196631
Al       1.74832122       7.10182198       4.08633503       0.00099011      -0.00200636      -0.00142392      -4.33634489
Al       1.28237678       7.09360397       6.83171890       0.00555443      -0.00389265       0.00246935      -3.99519375
Ni       0.12537990       5.70572209       8.33409476       0.00481901       0.00164255       0.00388259      -5.74766848
Al       1.90414437       6.80105254       9.59405162       0.00058795       0.00119294       0.00032695      -3.89025482
Al       1.11089688       7.37286734      12.08775710       0.00824395       0.00112153       0.00529544      -3.91317552
Al       1.27452781       9.52852915       1.32288829      -0.00424302       0.00072564       0.00445758      -4.16466114
Ni      -0.11689112       8.08812549       2.79473541       0.00278341       0.00623087       0.00099635      -5.89864477
Al       1.27432201       9.80170720       3.96120757       0.00242285      -0.00116289       0.00012926      -4.35410773
Ni      -0.09135300       8.36665703       5.34934721      -0.00731637       0.00180946      -0.00155695      -5.97384899
Al       1.31800093       9.71812941       6.91812219      -0.00377198       0.00709915      -0.00244611      -4.23323872
Al       1.01519399       9.45320651       9.81419317      -0.00523759       0.00908765      -0.00620178      -3.84830407
Al       1.65597084      10.10217827      12.40172848      -0.00490851       0.00166199      -0.00448224      -4.06311727
Ni      -0.12532257      11.01307263       0.01716980       0.00150111       0.00203578       0.00572004      -5.75007368
Al       1.26708850      12.34250239       1.37732459      -0.00355352      -0.00300767      -0.00639218      -4.30736108
Al       1.35102915      12.51327286       4.12126975      -0.00152378       0.00414386       0.00715192      -4.30004789
Ni      -0.15898494      11.10260908       5.49469391      -0.01083113       0.00821408      -0.00365327      -6.26060009
Al       1.45612146      12.47334785       6.87231726      -0.00006686       0.00255258      -0.00322261      -4.53680485
Ni      -0.07087708      11.08301586       8.33547601      -0.00002830      -0.00150146       0.00249605      -5.97764358
Al       1.51659362      12.32527863       9.74854494      -0.00511084      -0.00044076      -0.00104352      -4.08734666
Al       0.89005305      12.76328520      12.41950854      -0.01283944      -0.00132112      -0.00305703      -3.96942911
Ni       2.62208165      -0.00783164       0.00019603       0.00414656       0.00841504       0.00415847      -5.88476831
Al       4.05738316       1.44022939       1.26760076       0.00470276       0.00133780       0.00173380      -4.58459648
Ni       2.73136522      -0.00339882       2.63629749      -0.00075305      -0.00035891      -0.00504514      -6.06402851
Al       4.09921626       1.30097082       4.21357720       0.00459376      -0.00795129       0.00028125      -4.23736206
Al       4.20936697       1.49490895       6.83430527       0.00164518       0.00141548       0.00173149      -4.07467128
Ni       2.84447711       0.17795086       8.38540630      -0.00214473       0.00664302      -0.00307553      -6.15306286
Al       4.30217452       1.63180440       9.80628735       0.00037770      -0.00460718      -0.00620754      -4.11919384
Al       4.32997240       1.02717944      12.43824390       0.00299948      -0.00096645       0.00325907      -3.98356553
Al       4.04814046       4.14614296       1.31898845       0.00804542      -0.01379855       0.00062067      -4.54501043
Ni       2.59743027       2.81376953       2.80935693       0.00629683       0.01006053      -0.00314690      -6.11047031
Al       3.93432774       4.15199146       4.35882628      -0.00046102       0.00281894      -0.00005418      -4.17989357
Al       4.54538909       4.27728193       7.10411324       0.00757168      -0.00016730       0.00810108      -3.81933543
Ni       2.89460668       2.85271587       8.31797354       0.00152518       0.00195836       0.00849958      -5.91381162
Al       3.95041611       4.55575603       9.75802074      -0.00165670      -0.00754627       0.00467586      -3.78049208
Al       4.02687427       3.85470947      12.31065063      -0.00740835       0.00197778       0.00991181      -4.03481841
Al       3.89338832       6.78060073       1.08503900       0.00201950       0.00960785      -0.00611406      -4.13286114
Ni       2.55902559       5.37712527       2.68710787      -0.00406865      -0.00373345      -0.00108236      -5.89427231
Al       4.55159965       6.74008681       3.64197563      -0.00127140       0.00437315       0.00162050      -3.75581475
Al       3.82250675       6.72852690       6.19133947       0.00560382      -0.00089928      -0.00093339      -3.62393008
Al       4.49378693       7.04412497       8.83570374       0.00435369      -0.00414638       0.00149501      -3.90091059
Al       3.92896052       6.67181897      12.02950611      -0.00294139       0.00186439       0.00689830      -4.21403374
Ni       2.64587578       8.27757229      -0.16373850      -0.00047954      -0.00906199       0.00537456      -5.73361176
Al       4.24969352       9.56467082       1.37295889       0.00084349      -0.00343719      -0.00252173      -3.96618636
Al       4.06976461       9.32478626       4.12478493       0.00501647       0.00556155      -0.00704430      -3.95136875
Al       4.01895292       9.43007578       6.96939081       0.00492213      -0.00315487      -0.00163086      -4.10531462
Al       3.71748217       9.65986571       9.69390712       0.00888501      -0.00136366      -0.00963156      -4.19159878
Al       4.30246483       9.33660948      12.46740173       0.01153330       0.00485274      -0.00993916      -4.41241375
Al       4.22400553      12.46593638       1.16964882      -0.00405789      -0.00075932      -0.00024670      -4.33851772
Al       4.12384806      12.28629664       3.93328980      -0.00632880      -0.00244794      -0.00440869      -4.41512512
Ni       2.82849598      10.96161400       5.44191612       0.00172579       0.01087525       0.00026760      -6.03458348
Al       4.08430168      12.52445924       6.80319956      -0.00045261       0.00152304      -0.00320871      -4.48558302
Al       4.12700030      12.61195861       9.79978732       0.00657767      -0.00449749      -0.00675568      -4.31377073
Al       3.69799592      12.08514189      12.39512634      -0.00062371      -0.00194889      -0.00703608      -4.25516202
Al       6.92607561       1.27809914       1.22991777       0.00173545      -0.00959569       0.01525439      -4.55700190
Ni       5.57702913      -0.00270749       2.76221659       0.00119293       0.00976901       0.00126786      -6.11803952
Al       7.00127494       1.54542427       4.02881705      -0.00838085      -0.00801434      -0.01342816      -4.34945561
Al       6.91398655       1.20985123       6.69843741      -0.00687648      -0.00637722       0.01086824      -4.27423682
Ni       5.54066421       0.01558194       8.29343332       0.00584165       0.00585423      -0.00252165      -6.13919764
Al       6.97426835       1.57951947       9.57409771      -0.00333355       0.00167002      -0.00407652      -4.09007944
Al       7.02055230       1.47350015      12.28919342       0.00375468      -0.00778695      -0.00986316      -4.19416191
Ni       5.60118608       2.80993361      -0.04955366      -0.01055135       0.00732669       0.00470106      -6.05691521
Al       6.90153284       4.14943860       1.50531936      -0.00639211       0.00203537       0.00574251      -4.59409676
Ni       5.37159165       2.75458664       2.78516662      -0.00233741      -0.00301937      -0.00759950      -6.02432313
Al       6.66189312       4.29750656       4.18543226      -0.00404510      -0.00099930      -0.00075958      -4.40474705
Al       7.24724837       4.00661038       7.14923210       0.00064912       0.00487595       0.00753372      -3.93682150
Al       6.68353183       4.25870776       9.67113625       0.00122292      -0.00573119       0.00618583      -3.71265455
Al       6.94966013       4.17076798      12.31313193       0.00254259       0.01003268      -0.00768002      -4.41056240
Ni       5.43930621       5.44982399      -0.16774306       0.00162220      -0.00442241       0.00040292      -5.97172859
Al       6.59264695       6.95090677       1.48542767       0.00263253      -0.00063360       0.00369170      -4.20594688
Al       7.24543308       7.20490541       4.20638268      -0.00161018      -0.00174437       0.00013827      -4.02411286
Al       6.48958701       6.53627229       6.72611755       0.00356804      -0.00341449       0.00785919      -3.83989457
Al       7.17363590       6.98969629       9.37168852       0.00163772      -0.00092199       0.00209794      -3.96211073
Al       6.71941296       6.92569099      12.27458582      -0.00121816      -0.00187095       0.00434476      -4.38180059
Al       7.26777701       9.52712118       1.01779806      -0.00094787      -0.00282288       0.00187599      -3.72530204
Al       6.81035568       9.80618177       3.73003716       0.00234235      -0.00303135       0.00382447      -3.93953994
Al       6.84032262       9.25277124       6.67101949      -0.00333875      -0.00154781      -0.00182672      -4.09369689
Al       6.83236184       9.62533848       9.35596594       0.00048402       0.00291715       0.00426275      -4.06138717
Ni       5.45826296       8.22762000      10.73180551      -0.00313836       0.00253172      -0.00175915      -5.86920873
Al       7.14088971       9.68140325      12.12719009       0.00375503      -0.00125660      -0.00482895      -4.14658460
Ni       5.63664313      10.97000735      -0.14701124      -0.00710204      -0.01050007      -0.00464208      -5.87768079
Al       6.95164855      12.21616964       1.42152040      -0.00219694       0.00387764      -0.00188805      -4.25120564
Al       6.82815019      12.60249376       4.34833128       0.00340747       0.00026908      -0.00652929      -4.45510327
Ni       5.43749054      10.87655464       5.52789355      -0.00029094      -0.00825797       0.00064138      -6.13150942
Al       6.90983748      12.20458646       7.02656245      -0.00253353      -0.00457997      -0.00381869      -4.47359731
Ni       5.30332882      11.04036099       8.32150023       0.00268874      -0.00508706      -0.00418086      -6.04667947
Al       6.89765689      12.35820512       9.73736365      -0.00755404      -0.01167284      -0.00111443      -4.50199145
Ni       5.38068301      10.90830914      10.97773417      -0.00322933      -0.00245793       0.00101988      -6.14959916
Al       6.53837647      12.66101833      12.35315117      -0.00060638       0.00178161      -0.00916444      -4.20664021
Al       9.70008544       1.67480967       1.66952478      -0.00494884      -0.00091676       0.00010058      -4.05234465
Ni       8.26529139      -0.08827697       2.72334274      -0.00210184       0.00482874      -0.00516411      -5.87749202
Al       9.70610645       1.00200882       4.38884807       0.00130940       0.00500384      -0.00640528      -4.03542968
Al       9.58851521       1.53751005       7.08250895       0.00753690      -0.00310189       0.00791589      -4.14054517
Ni       8.22517136      -0.04220444       8.37027584       0.00019632      -0.00065645      -0.00806129      -6.01003280
Al       9.77531231       1.40512199       9.73200022       0.00153833       0.00913802      -0.00144104      -4.49720083
Ni       8.33339126      -0.00198643      10.98753028      -0.00669307      -0.00367084       0.00667709      -5.98580456
Al       9.76250848       1.34617224      12.62984891       0.00011123       0.00346467       0.00665170      -4.38218964
Ni       8.34400784       2.88008648       0.02273803       0.00641241      -0.00509927      -0.00150943      -5.96824520
Al       9.89159911       4.43999408       1.25625624       0.00145599       0.00232096      -0.00178802      -4.17799266
Al       9.52144235       3.79984986       3.78536359       0.00072928      -0.00378356       0.00596085      -4.17718014
Ni       8.34110679       2.80574373       5.51355468       0.00633518       0.01731623      -0.00759342      -5.87091556
Al      10.12016067       4.25685140       6.57633544       0.00408650      -0.00282848      -0.00024035      -4.34559077
Al       9.65406794       4.21734945       9.52587019      -0.00639293      -0.00201914      -0.00741728      -4.39917950
Al       9.67325015       4.14226262      12.36204665      -0.00856478       0.00033972       0.00032998      -4.47805988
Ni       8.16714096       5.68738233       0.08362945      -0.00254982      -0.00195638       0.00065445      -6.13573143
Al       9.53006543       7.34475711       1.39667941       0.00046161      -0.00851845       0.00069453      -4.03903624
Ni       8.33437106       5.67914084       2.72647392       0.00225169       0.00207317       0.00622596      -6.04217031
Al      10.11755258       6.50404930       4.14558419      -0.00022087       0.00231429       0.00145064      -4.02302916
Ni       8.33674646       5.38154677       5.41115900       0.00517733       0.00092161      -0.00577441      -5.99002971
Al       9.34463459       7.07346015       6.83767142       0.00036061      -0.00049635      -0.00733997      -3.79412491
Al       9.90781576       7.06733439       9.45281532      -0.00587566      -0.00003395       0.00304956      -4.10928627
Ni       8.36527740       5.60587927      10.91368194      -0.00082337       0.00013963       0.00141214      -5.94520797
Al       9.46495145       7.08447480      12.45128950       0.00555797       0.00017234      -0.00098135      -4.34314765
Al       9.90132255      10.00984822       1.80462221      -0.00271070      -0.00061247       0.00360298      -3.56142102
Al       9.49105454       9.12595436       4.45394579       0.00198445       0.00086138       0.00158303      -4.02323842
Al       9.50037945       9.82228936       7.34323085      -0.00018247       0.00198771       0.00057135      -3.97263352
Al       9.29332737       9.68423422      10.12530654      -0.00314509      -0.00054518      -0.00548619      -4.02937662
Al       9.90282160       9.65988692      12.95640775       0.00084486      -0.00530162       0.00206407      -4.01377069
Al       9.78759163      12.76921687       1.11428068       0.00619490      -0.00684236       0.00659402      -3.89762295
Al       9.45253203      11.97393747       3.71815567      -0.00390682       0.00723241      -0.00865207      -4.31641519
Ni       8.18902743      10.88927242       5.47534608      -0.00343492      -0.00747765      -0.00647862      -6.04538336
Al       9.52829206      12.68829273       6.61325220       0.00439336       0.00558517       0.00392413      -4.27557713
Al       9.77320629      12.34828765       9.45582235      -0.00374439      -0.00434081      -0.00094778      -4.36087404
Al       9.25311035      12.23788886      12.36254723       0.00079039      -0.00595984       0.00590454      -4.11434131
Al      12.17139222       0.53476127       1.33521660       0.00516809      -0.00172855      -0.00041033      -3.56274582
Al      12.39995550       1.35663917       3.93819721      -0.00192951       0.00518452       0.01329861      -3.71695311
Al      12.32738075       1.33246035       6.93589936       0.00043419      -0.00376243      -0.00135833      -4.28607783
Al      12.53647399       1.32816335       9.70648012       0.00121002      -0.01493548      -0.00291736      -4.41148723
Ni      10.98325302      -0.15955807      11.21087603       0.00517138      -0.00193389       0.01165435      -6.11403991
Al      12.60592560       1.23227637      12.56862394       0.00604147       0.00419446      -0.00567746      -4.18373136
Al      12.31840061       3.25400140       1.65841318      -0.00162542       0.00119224       0.00149132      -3.61100144
Al      12.12065623       3.96648092       4.32037628      -0.00463052      -0.00860952       0.00201892      -3.48343674
Al      12.80956515       4.08681758       6.94390659       0.00322355      -0.00159948      -0.00015380      -4.04335596
Ni      11.14336238       2.86545510       8.31515403       0.00187861       0.00448921      -0.00361967      -5.87301875
Al      12.47451176       4.35169290       9.75635589      -0.00281349      -0.00273472       0.00317899      -4.42253932
Ni      11.26498769       2.77345250      11.13631275       0.01044381       0.00491499      -0.00348042      -6.11069079
Al      12.44698304       4.23326392      12.76467345      -0.00613653       0.00094909       0.00565834      -4.13981869
Al      12.23703004       6.22700822       1.63481846       0.00181684      -0.00082764      -0.00497108      -3.79066149
Al      12.76670565       6.45566628       4.32060165       0.01182652       0.00777542       0.00557349      -3.94060961
Al      12.23649875       6.89622830       7.01196199      -0.00370000      -0.00482630      -0.00029865      -3.92630446
Al      12.81083167       7.08596958       9.94594229       0.00365689       0.00611432       0.00380463      -4.35970739
Ni      11.03021127       5.75642305      11.13903244      -0.00205456       0.00069352       0.00146423      -6.09053137
Al      12.32044420       6.97615265      12.81586471      -0.00340701      -0.00107414       0.00869024      -4.01560540
Al      12.32760098       9.03372550       1.00907322      -0.00235213      -0.00060163       0.00598669      -4.04826743
Al      12.17524720       9.64611521       3.89879506      -0.00191005       0.00496227       0.00199985      -4.41985326
Al      12.25120094       9.57979327       6.79780893       0.00610631      -0.00698074      -0.00545570      -4.19414690
Al      11.97494391       9.74413520       9.36942732       0.00671451      -0.00344262       0.00396896      -4.29865699
Ni      11.07273002       8.35881867      11.16037702      -0.01492163      -0.00193727      -0.00641576      -6.06216289
Al      12.81429227       9.66155608      12.06983402      -0.00332130      -0.00076768      -0.00297355      -4.37624719
Al      12.16751245      11.67588188       1.74313798      -0.00036644      -0.00159535      -0.00030186      -3.84615879
Al      12.11745500      12.54566134       4.23548100       0.00179261      -0.00022794       0.00498267      -4.18254848
Ni      10.75108709      10.95617884       5.50233874       0.00186577       0.00061934       0.00280537      -6.04824532
Al      12.20368023      12.38804722       7.03793884      -0.00023877      -0.00000313      -0.00727434      -4.43641172
Al      12.62133844      12.43702406      10.00928861      -0.00270886      -0.00533254       0.00484202      -4.47696013
Ni      10.97397611      11.01989296      11.17448063       0.00263174      -0.00085995       0.00297506      -6.05677255
Al      11.98600882      12.39121909      12.94026657      -0.01172867       0.00063580      -0.00955958      -4.34781715
