143
Lattice="13.535434928527836 0.04084122320221528 0.03253407574933081 0.03842782271532171 13.16257804016457 -0.06063892464895391 0.032343687104518085 -0.06053680747777544 13.313760067253726" Properties=species:S:1:pos:R:3:forces:R:3:energies:R:1 rep=5 n_sites=250 energy=-592.3950805664062 stress="9.854103700490668e-05 -0.0001433931029168889 -0.00017406402912456542 -0.0001433931029168889 2.2592190362047404e-05 0.00023966173466760665 -0.00017406402912456542 0.00023966173466760665 5.16118871018989e-06" free_energy=-592.3950805664062 pbc="T T T"
Al       2.30081763       0.64785708       1.01350149      -0.00714465       0.00077688      -0.00150633      -3.68380988
Al       1.13129495       1.65042900       4.68335221       0.00023959      -0.00541567      -0.00688643      -3.63474023
Al       2.07305170       1.77994172       7.12315959       0.00080376       0.00507954       0.01317937      -3.63683999
Al       0.89455620       1.12051474       9.41609553       0.00103188       0.00406574      -0.00665075      -4.02606845
Al       1.04527794       1.27133758      12.10558283       0.00414993      -0.00068424       0.00771064      -4.03242999
Al       0.59910227       3.17016896       1.16880870      -0.00624677      -0.00675875      -0.00079052      -3.72233880
Al       1.71194851       4.27466029       3.32500624       0.00019519       0.00076706       0.00374907      -3.70363426
Al       0.71598049       4.01355756       6.03256697       0.00660546       0.00751214       0.00054482      -3.89047688
Al       1.08519009       3.80327415       8.81646408      -0.00372788      -0.00261521      -0.00348121      -3.99815559
Ni      -0.10355795       2.91871463      10.73474455       0.00425314      -0.00668053      -0.00345148      -5.78377354
Al       1.87247625       4.08106068      11.57998249      -0.00137198       0.00151081      -0.01200861      -3.85207647
Al       1.70469519       5.83829161       0.57251928       0.00274787       0.00248940      -0.00439136      -3.65686071
Al       1.13514434       7.06348980       3.26357111       0.00396445      -0.00016234       0.00071198      -3.65352786
Al       0.82928672       6.87164073       6.04486505      -0.00181688      -0.00491166       0.00237560      -3.92179221
Ni      -0.23096771       5.52342998       7.72883812       0.00052651       0.00171947       0.00112327      -5.79254282
Al       1.72987322       6.55550565       8.74743539      -0.00248086      -0.00490078       0.00089729      -3.91355640
Al       2.66369639       6.81164188      11.41701594       0.00135814       0.00015873      -0.00558978      -3.75523376
Al       1.90096137       9.66889577       2.66760527      -0.00552135      -0.00066827      -0.00838001      -3.80622542
Al       0.83517419       9.40123797       5.20711385       0.00982253      -0.00006302      -0.00783834      -3.91088778
Al       1.01289404       9.19114012       7.87087891       0.00688441      -0.00045987       0.00393780      -3.56790674
Al       0.94787429       8.93558402      10.55854108      -0.00187501       0.00721890       0.00765359      -3.70717263
Al       1.78725714       8.72397195      13.31277052      -0.01067854       0.00050216       0.00198955      -3.73178542
Al       0.80855789      11.33827680       0.94052141      -0.00082927      -0.00413071      -0.00453336      -3.71967626
Al       1.66435253      12.45839812       3.30948765      -0.00282888       0.00162572      -0.00082164      -3.91279471
Al       0.91149156      12.20768328       6.02153215      -0.00817861      -0.01182830       0.00387941      -3.82990062
Al       1.43523080      11.64004227       8.98935773      -0.00910749      -0.00570258      -0.00189734      -3.77166450
Al       1.76347934      11.18520365      11.80708863       0.00468656      -0.00448918       0.00185728      -3.88800097
Al       4.91037286       1.43397660       1.04400799      -0.00855395       0.00723993      -0.00154797      -3.72961903
Al       3.38534482       1.56087612       3.33304230       0.00518386      -0.00162062       0.00167820      -3.68848073
Al       4.52082862       1.20691413       6.05483804       0.00481135       0.00046706      -0.00375948      -3.69982314
Al       3.88519097       0.94479040       8.96124735      -0.00525567       0.00290877       0.00612128      -3.99696046
Ni       2.59002057      -0.09412837      10.72798680       0.00658107       0.00492318       0.00299478      -5.77030265
Al       3.72238204       1.83322351      11.68314236      -0.00426473      -0.00734957      -0.00007263      -4.08049887
Al       3.22630715       3.51466263       0.65089762       0.00289625      -0.00806744       0.00399124      -3.74947870
Al       4.79575848       3.79920333       2.91217098       0.00128267      -0.00223403      -0.00362790      -3.73559153
Al       3.36482297       3.61124971       5.40480174       0.00184109       0.00296611       0.00018326      -3.66642296
Al       3.93124912       3.67195024       8.30789714      -0.00153224       0.00195153      -0.00213881      -3.79566669
Al       4.50355642       4.40994083      11.33931190      -0.00117755       0.00230989      -0.00645305      -3.84363902
Al       4.43448803       6.02098575       1.04283568       0.00371815       0.00044964      -0.00200504      -3.80059671
Al       3.76334778       6.24881230       3.77533277       0.00566953       0.00539312       0.00129844      -4.00155115
Al       3.50029808       6.13420998       6.57865384      -0.00213990       0.00326425      -0.00176563      -3.79086983
Al       4.39735269       6.22387155       9.26487976       0.00569578       0.00271090      -0.00092469      -3.64769769
Al       5.40496193       6.85387827      11.82388201       0.00480186       0.00076739      -0.00462388      -3.60927391
Al       4.29450147       8.76363193       1.10272355       0.00309986       0.00014430       0.00494565      -3.96061420
Al       4.20947939       9.18327915       3.77025933       0.01007667       0.00228677       0.00426954      -4.32642090
Al       3.48362985       8.98082081       6.42844978      -0.00498194      -0.00680736       0.00020279      -4.28101873
Al       3.30932742       8.79745592       9.19560082      -0.00219715       0.00872903       0.00393613      -3.91819185
Al       4.06663866       9.38022279      11.83604007       0.00305514      -0.00465350      -0.00587866      -3.88727671
Al       3.74938687      11.45079164       1.45024969       0.00904238       0.00041884      -0.00424149      -3.87757486
Al       4.46502198      12.23464380       4.04960925       0.00426681       0.00766709       0.00286317      -4.08095866
Ni       2.67662837      10.80503722       4.79695225      -0.00406848      -0.00391589      -0.00078632      -5.90822619
Al       3.45517407      11.80267450       6.88787918       0.00551638      -0.00004926       0.00734939      -4.18184477
Al       4.10866997      11.42654186       9.84956895       0.00314619       0.00346316      -0.00690781      -4.18112981
Al       4.38506334      12.44740635      12.40198136       0.00458697       0.00041127      -0.00297350      -4.11895448
Al       7.64199242       1.69420749       1.15825103       0.00768285       0.00267103      -0.00050378      -3.92266107
Al       6.07411465       1.31288797       3.63763310      -0.00327402       0.00287297       0.00864645      -4.00725979
Al       7.16874130       1.41844364       6.70213044      -0.00495936       0.00329586       0.00275554      -3.64613271
Al       6.63105768       0.59061988       9.37549920       0.00531282      -0.00055167      -0.00282382      -3.87733358
Al       6.41461565       1.44319348      12.04314010       0.00203267       0.00070132       0.00231394      -3.84986615
Al       6.04111032       3.89173820       0.37028583      -0.00091344      -0.00104584      -0.00127015      -3.76315784
Al       7.54097815       3.88172091       2.87428914       0.00041738      -0.00248726       0.00428496      -3.65927458
Al       6.12971552       3.52427495       5.38632223      -0.00137511       0.00049128      -0.00075210      -3.71984780
Al       6.76974752       3.55704133       8.27258481      -0.00340727       0.00202917      -0.00708139      -3.91656667
Ni       5.40238443       2.57740066      10.04205417      -0.00196657       0.00355440      -0.00089593      -5.78776896
Al       7.30297739       3.82172235      11.01037618      -0.00044560      -0.00236838       0.00694802      -3.92566669
Al       7.21599918       6.26506129       1.35835581      -0.00046965      -0.00415763      -0.00209999      -4.06397223
Al       6.91106416       6.17118810       4.26781747       0.00355047       0.00426221      -0.00633304      -4.21627730
Al       6.21786860       5.98974566       6.93732992       0.00236601       0.00036155       0.00593938      -3.90584052
Al       7.24266853       6.07932480       9.47437540      -0.00373823       0.00157355      -0.00285808      -3.67215788
Al       8.04821832       6.30413255      12.03987646      -0.00236614      -0.00952345      -0.00175537      -3.67297256
Al       6.95903981       9.20988926       1.55984047       0.00044957      -0.01551028       0.01021408      -4.43321002
Ni       5.62096950       7.51120544       2.71871732       0.00021684       0.00703201      -0.00226896      -5.99748135
Al       6.89458950       9.05261663       4.31633932      -0.00315243      -0.00133273      -0.00841556      -4.29200417
Ni       5.13996130       7.49625475       5.30698757      -0.00020303       0.00694448      -0.00858562      -5.95521593
Al       6.51419871       8.80088370       6.91852911       0.00818551      -0.00137614      -0.00244848      -4.10344142
Al       5.95031848       8.45749552       9.51725198       0.00013454       0.00075275      -0.00024927      -3.84815395
Al       6.97807989       9.04631935      11.83773666       0.00330986       0.01174700       0.01347306      -4.06925189
Ni       5.63273469      10.60211598       0.02523000       0.00372007      -0.00274245      -0.00416256      -5.91175812
Al       6.45625500      12.13351081       1.67915373      -0.00893886      -0.00776905      -0.00689490      -4.22918630
Al       7.21341969      11.77419635       4.55013569      -0.00453831       0.00234720       0.00381101      -4.12927365
Ni       5.24715046      10.46801196       5.52415562       0.00214180       0.00511974      -0.00745335      -6.04062927
Al       6.15662713      12.13875745       7.04737729       0.00044557       0.00208351       0.00061959      -4.06300259
Ni       4.96136279      10.21109784       8.05008782      -0.00982514       0.00845462       0.00462049      -5.90758908
Al       6.83145944      11.04640544       9.39984207      -0.00508216       0.00415169       0.00034736      -3.76055598
Al       7.14526354      12.00804092      11.93334984       0.00477798      -0.01166269      -0.00164396      -4.07251322
Al      10.34733101       1.28674074       2.28598427      -0.00477472       0.00368926       0.00476158      -4.05212283
Ni       8.10398937       0.19839579       2.98341940       0.01044562      -0.00046067       0.00906166      -5.73188025
Al       8.61127152       1.95407867       4.47823334      -0.00272019      -0.00114617      -0.00622410      -3.87174916
Al       9.91238877       2.19594136       6.73736831      -0.00505115      -0.00344357       0.01473936      -3.87439960
Al       8.94948487       1.90371975       9.32347177       0.00215323      -0.00094590      -0.00193694      -3.84226060
Al       9.20220274       1.08198685      12.15176719      -0.00324427      -0.00412533       0.00394158      -3.90238833
Al       8.76089948       4.16732001       0.29514673      -0.00567604       0.00165729       0.00036579      -3.68784595
Al      10.25160495       3.99492796       3.86068107      -0.00367280      -0.00060130      -0.00225720      -3.58500302
Al       8.57950001       4.56932952       6.03190104      -0.00090319      -0.00352856      -0.00357542      -3.79721582
Al       9.45353941       4.45441385       8.60676698       0.00018041      -0.00169888      -0.00473351      -3.72274470
Al       9.98289851       3.66630849      11.18244433       0.00056517       0.00125771       0.00093039      -3.69367528
Al       9.99015786       6.39270165       1.80323558       0.00733534      -0.00492105       0.00368011      -4.09138459
Al       9.75109403       6.58333421       4.60898663       0.00100631       0.00185999       0.00264092      -3.87476772
Al       8.78767037       7.06096506       7.42177027      -0.00732222      -0.00217199       0.00283177      -3.92450112
Al       9.88814594       6.84376129       9.95769643       0.00031106       0.00167397       0.00119637      -3.92260188
Al      10.72566224       6.00108883      12.39914491       0.00158726      -0.00169471       0.00146526      -3.92431402
Al       9.78047001       9.25724249       1.52295234       0.00369960       0.00322029       0.00655150      -4.13571501
Ni       8.34391055       7.73633600       2.94849573      -0.00436546       0.00625794       0.00766418      -5.88392967
Al       9.68630419       9.39116390       4.19977050       0.00195909       0.00398536      -0.00463238      -3.74719357
Al       9.10386656       9.69842600       6.79180199      -0.00643143       0.00192632      -0.00892454      -3.90844661
Al       9.01323663       9.63940645       9.73475192       0.00431100      -0.01530920      -0.00209907      -4.04746979
Al       9.78225938       8.68084538      12.19645330       0.00035141       0.00067412      -0.00240621      -4.05436492
Ni       8.22438978      10.39727856      -0.02493616      -0.00878094       0.00023367      -0.00810872      -5.76390666
Al       9.17074375      12.13800191       1.22216780       0.00413714       0.00381300       0.00149325      -4.27309287
Al       9.91610308      12.21313010       4.07839279      -0.00723848       0.00313817       0.00205013      -3.89633065
Al       8.89462702      12.45005079       6.85450438      -0.00749701       0.00235717      -0.00899765      -4.00099254
Al       9.24319029      12.45243935       9.71474961       0.00373915      -0.00112065       0.00960195      -4.04253161
Al      10.07274485      11.45240377      12.05794577      -0.00006397       0.00410432      -0.00294834      -4.08665127
Ni      10.98733689       0.14632893       0.19346410      -0.00527826      -0.00530379       0.00074744      -5.76218057
Al      13.07086321       0.75378714       1.33893292       0.00782940       0.00339429       0.00909522      -3.92492199
Al      12.51913759       0.17103847       4.03649255      -0.00579492       0.00673217       0.00481228      -3.61879611
Al      12.71497219       1.49613575       6.82027455      -0.00925784       0.00453062       0.00034797      -3.84473693
Ni      10.63405155       0.43487271       8.12093376      -0.00068693       0.01151806       0.00316798      -5.84591335
Al      11.68380086       2.08858640       9.44737859      -0.00476363      -0.00545027       0.00357962      -4.16653419
Al      11.83848541       1.99564204      12.38801293       0.00127782       0.00602614      -0.00722342      -4.12569046
Al      11.27985318       3.84384507       1.28423084       0.00391187       0.00121346       0.00056743      -3.66704500
Al      12.64695723       2.81118629       3.45018995      -0.00538507      -0.00209360      -0.00117890      -3.61456573
Al      11.57678003       4.20968644       6.65626831       0.00559229      -0.00016098      -0.00165980      -3.82927608
Al      12.11672457       4.83675111       9.76976302       0.00193843       0.00166273      -0.00360447      -4.09031534
Al      12.93584969       4.49440862      12.53080595       0.00130815       0.00530493       0.00367925      -3.88418061
Al      12.74798296       6.19903058       1.59510887      -0.00285949      -0.00075054      -0.00026581      -3.92740220
Al      12.57563943       5.40498334       4.23392590       0.00069172       0.00083975      -0.00357034      -3.65564334
Al      11.49180631       6.91341867       6.77872280       0.00170408      -0.00444318      -0.00599816      -4.07506156
Al      12.64865490       7.46285716       9.21296945       0.00013095      -0.00696705      -0.00370315      -4.03920490
Al      13.34524965       7.10520692      12.15156346      -0.00131190      -0.00136904      -0.00085299      -3.80099547
Ni      11.47283131       7.87945392       0.40425342       0.00156572      -0.00713691      -0.00283255      -5.77835989
Al      12.88221823       9.05817073       1.95662813       0.00599654       0.00436077       0.00771311      -3.95964485
Al      12.17686266       8.02625307       4.43195757       0.00087181      -0.00010864      -0.00145089      -3.66271424
Al      12.07143097       9.65205711       6.85359925      -0.00119421      -0.00481841       0.00152305      -4.12813085
Ni      10.59022690       8.52274894       8.35743763       0.00092518      -0.00218607       0.00774072      -5.87364507
Al      11.77897573       9.95275412      10.00474966      -0.00515392       0.00070299       0.00802585      -4.11576891
Al      12.60447783       9.67763934      12.60292833      -0.00139128       0.00363117      -0.00235985      -3.92071301
Al      11.77020895      11.58231786       1.68879971      -0.00550883      -0.00010228      -0.00165573      -3.95928735
Al      12.16237913      10.64486654       4.15998316       0.00073741       0.00095480       0.00088720      -3.63912058
Al      11.62641998      12.25564150       6.30765778       0.00247410      -0.00364875      -0.00228035      -4.07689744
Ni      10.55944058      11.07289904       8.17665519       0.00189021      -0.01095706       0.00218004      -6.05913711
Al      12.39511530      12.42733783       9.14703402      -0.00099814      -0.00396934       0.00297317      -3.93683606
Al      12.70194225      12.28966535      11.97732788       0.01004831       0.00226526      -0.00352213      -3.82052338
