84
Lattice="10.856577944710184 -0.18832994637661626 0.21054954304968723 -0.18513051351682677 11.039856449733579 0.12536089976454345 0.20772197793551758 0.12653659386990054 10.989861093778849" Properties=species:S:1:pos:R:3:forces:R:3:energies:R:1 energy=-382.8869818043515 stress="0.0005568005217329829 0.00022087084603521982 -0.0002271850330944699 0.00022087084603521982 -0.00033566777871183384 0.000533316404749515 -0.0002271850330944699 0.000533316404749515 2.1880333238723146e-05" free_energy=-382.8869818043515 pbc="T T T"
Ni       0.05722509      -0.15114334       0.04201291      -0.00024719       0.00498269      -0.00265698      -6.22083419
Al       1.39941422       1.24603209       1.57793607      -0.00598471       0.00339739       0.00347859      -4.26830896
Ni      -0.04129303      -0.16654006       2.84181643       0.00300323       0.00851593       0.00062150      -5.99290096
Al       1.37189642       1.30260789       4.36005570      -0.01227397       0.00418345       0.00044664      -4.05270101
Al       1.80993843       1.53384899       6.94214227       0.00242238       0.00013560       0.00037474      -4.20484194
Ni       0.28350838       0.05914674       8.29447526      -0.00135763      -0.00208425       0.00361427      -6.08670587
Al       1.69962130       1.55036932       9.74541419      -0.00482230      -0.00124614       0.00169765      -4.47290002
Al       1.17636799       3.91790799       1.43501479      -0.00489498      -0.00268054      -0.00201872      -4.03664587
Ni      -0.17130978       2.60724877       3.15147547       0.00491731       0.00117121      -0.00489855      -6.01725816
Al       0.70509792       4.72819125       4.08956860      -0.00100867      -0.00950455       0.01041567      -4.31670149
Ni       0.27061355       3.05517485       5.66091713      -0.00311941       0.00902958      -0.01105245      -5.91933562
Al       1.76077295       4.59001910       6.80323951       0.00054237       0.00295641      -0.00286279      -4.17786915
Ni       0.50301559       3.11332394       8.27435530      -0.00389283      -0.00622809      -0.00311622      -6.05657467
Al       2.04341597       4.47239836       9.75983637      -0.00085518      -0.00286527       0.00769769      -4.04104228
Al       1.50404573       6.57751807       0.52904407      -0.00053556       0.00425909      -0.00371800      -3.86807013
Al       0.70375247       7.23522543       3.16390771       0.01001330      -0.00128456       0.00503924      -3.85177133
Al       1.12799588       7.33864822       5.95976671       0.00262324       0.00095362      -0.00227244      -3.77370343
Al       1.52377340       6.92901803       8.70281506      -0.00437758       0.00184049       0.00440191      -3.80481019
Al       1.11073424       9.30375164       1.49255342       0.00042611      -0.00031575      -0.00233991      -4.14799333
Al       1.47717941       9.62679636       4.18805483      -0.00171914      -0.00271817      -0.00727022      -3.81615551
Al       1.57256281       9.86646384       6.86913839       0.00013174      -0.00434235       0.00564436      -3.97666341
Ni      -0.15073265       8.52698903       7.97545880      -0.00248313       0.00816945      -0.00372422      -5.99118161
Al       1.42903256       9.52570425       9.69929222      -0.00367065       0.00126002       0.00127984      -4.30723168
Ni       2.75603434      -0.19988455       0.10916217      -0.00763019      -0.00367959      -0.01106887      -6.05900354
Al       4.00165907       1.56982363       1.26535984       0.01024740       0.01039558       0.00627125      -4.23621555
Al       3.99165841       0.96342954       4.11828946       0.00573734      -0.00259176       0.00159808      -4.04497482
Al       4.67168308       1.92829425       6.72118184       0.00675389      -0.00200500      -0.00471869      -4.21858244
Al       4.27661984       1.11908547       9.35030474      -0.00669923      -0.00036740       0.00575844      -4.21328575
Al       3.93331728       4.22178886       1.46247744      -0.00639221      -0.00960693      -0.00578718      -4.17807570
Al       3.37940676       3.85917775       4.21441238       0.00415698       0.01067201      -0.00210339      -4.01534258
Al       4.42424235       4.66057615       6.80931897       0.00030175       0.00053509      -0.00160310      -3.79410453
Ni       3.14848498       3.01219724       8.25274224       0.00659841       0.00318872       0.00349375      -5.90945225
Al       4.91298053       3.88110111       9.61850857       0.00254767      -0.00450224      -0.01073908      -4.16861310
Al       4.07888589       6.98337590       1.51296322      -0.00386946      -0.00350106      -0.00370923      -4.21716728
Ni       2.39705203       5.59591781       2.66601178       0.00543957       0.00367227       0.00246398      -5.75673159
Al       3.79770253       6.60366460       4.35283292      -0.01287834      -0.00418208      -0.00797465      -4.05572036
Al       3.76847975       7.30667549       7.02330852      -0.00195278      -0.00093594       0.00960699      -3.89154706
Al       4.10036832       6.57312661       9.73605660      -0.01043770      -0.00452315      -0.00143377      -4.10580110
Al       3.81703487       9.83326768       2.12864301       0.00364069      -0.00470841       0.00745576      -4.27808846
Al       4.03944780       9.27295497       4.90893140      -0.00094283       0.00824382       0.00115042      -4.09590444
Al       4.18103601      10.07740936       7.58844420      -0.00274459      -0.00111222      -0.00436454      -4.01860666
Al       4.15300434       9.22221209      10.31098363       0.00287840      -0.00176666      -0.00123458      -4.33161419
Ni       5.35325992      -0.04356865       0.10687045       0.00064574      -0.00422257      -0.00292748      -6.02643061
Al       6.66319254       1.22549339       1.74774897      -0.00254861       0.00168707       0.00333018      -4.35290950
Al       6.79746191       1.65380865       4.43749913      -0.00240085       0.00093215       0.00250359      -4.06641556
Ni       5.59915595      -0.00287975       5.66008040      -0.00126691      -0.00269261       0.00359551      -5.77489180
Al       7.22828197       0.87865475       7.16719652      -0.00390215       0.00076216      -0.00191855      -3.89987807
Al       6.91953307       1.77899571       9.77303683       0.00086226       0.00398570       0.00347315      -4.19627695
Al       6.68505746       3.96828127       1.67298077       0.00308312      -0.00802845      -0.00559643      -4.15002898
Ni       5.18655719       2.74084802       3.02063735      -0.00005821      -0.00568877      -0.00532250      -5.75692998
Al       6.10557731       4.35406135       4.58374646      -0.00192161       0.00464328       0.00103628      -4.19212824
Al       6.98157615       3.57761218       7.34921670      -0.00038227       0.00241852       0.00175404      -3.91022272
Al       7.55672091       4.55862761       9.91888407      -0.00018646      -0.00537733      -0.00339732      -4.05637219
Ni       5.52619249       5.45135953       0.19661122       0.00514112       0.00673122      -0.00625332      -5.75897611
Al       6.87957401       6.66593377       1.98955554      -0.00583537      -0.00485430      -0.00486130      -4.02899465
Al       6.70336575       7.11236610       4.76829778       0.00045767       0.00128770      -0.00427220      -4.13831962
Al       6.64848337       6.33596246       7.58991577       0.00464637       0.00584818       0.00505551      -4.36777884
Al       6.98889464       7.36040447      10.31123889      -0.00512059      -0.00280431       0.00371442      -4.32859948
Al       6.42573480       9.29897957       1.34595113       0.00913682      -0.00346267       0.00500598      -4.26375989
Ni       5.30657218       8.17227212       3.16146797       0.00290138       0.00446274       0.00263076      -5.76537515
Al       6.77720851       9.91962649       4.06088295      -0.00373503       0.00186258      -0.00367545      -4.05567834
Al       6.65426700       9.14322571       6.66345979       0.00119745      -0.00123128       0.00283911      -4.33666098
Ni       5.47561830       8.20392136       8.54142011      -0.00037174      -0.00610379       0.00038112      -5.89400459
Al       6.74395807      10.09324172       9.43291850      -0.00032056       0.00109739       0.00379373      -4.49173087
Ni       7.99105520      -0.00566093       0.17292296       0.00029285      -0.00305251      -0.00073879      -6.12945475
Al       9.48812109       1.18348444       1.71682382       0.01027534       0.00383591      -0.00308201      -4.51192369
Al       9.35037269       0.67267096       4.63426187      -0.00227492       0.00250701       0.00026526      -4.10300445
Al       9.76771570       1.53209889       7.22150902      -0.00576718      -0.00093450       0.00732882      -4.10183341
Al       9.82833481       1.44559135       9.88382523       0.00523741      -0.00700173      -0.00203874      -4.46800276
Ni       8.24276074       2.66258062       0.34447686      -0.00613920      -0.00241465      -0.00172700      -5.88860840
Al       9.36278052       4.01791443       2.04015191      -0.00067675      -0.00652361      -0.00175779      -4.01185353
Al       8.94103082       3.34633279       4.85668419      -0.00109519       0.00968398       0.00758242      -4.35356653
Al       9.75100855       4.43065497       7.33297893      -0.00329602      -0.00364264       0.00542480      -4.23390989
Al      10.23433023       4.16000159      10.31664163       0.00426676       0.00158893       0.00308486      -4.04418696
Al       9.61295668       6.76109380       1.21726420       0.00323480       0.00293783       0.00175899      -3.58685182
Al       9.04590975       6.10874950       3.83788628       0.00137128      -0.00140132       0.00350386      -3.89438798
Ni       7.93244772       5.26993109       5.84576456       0.00277700       0.00190526      -0.01110726      -5.80538740
Al       9.22784211       7.16355713       6.56074584       0.00153452       0.00462809       0.00463817      -4.27510260
Al       9.56540946       6.63310769       9.46378128      -0.00191859       0.00243153       0.00218764      -3.98230239
Al       9.08412943       9.42435013       1.75732867       0.00156863      -0.00073469       0.00473536      -4.09103934
Al       9.41608839       8.92771028       4.42419297       0.00865894       0.00309233      -0.00220037      -3.84222929
Al       9.29340837       9.95274292       7.06516298       0.00274547      -0.00523033       0.00828031      -4.18702008
Ni       8.06722133       8.26089536       8.40113165       0.00979216       0.00009203      -0.00488988      -6.04409734
Al       9.40562939       9.51539138       9.97318057       0.00179963      -0.00382983      -0.00398072      -4.52882385
