174
Lattice="13.848791001828868 -0.23543279502398512 0.10957915947712521 -0.2349857836870201 13.94137226592284 0.036840937570799134 0.10970266450249051 0.03699662825108711 13.966603865239835" Properties=species:S:1:pos:R:3:forces:R:3:energies:R:1 rep=5 n_sites=250 energy=-818.0940107698818 stress="-0.0002927457241683093 0.0006467349827246475 0.0002254982581255665 0.0006467349827246475 7.270685114661172e-05 -4.935771968590278e-05 0.0002254982581255665 -4.935771968590278e-05 0.0001504832570493231" free_energy=-818.0940107698818 pbc="T T T"
Al       1.20129014       1.34326525       1.66494301       0.00342404       0.00129431      -0.00912455      -3.48244327
Al       1.74116914       1.83452919       4.23346787      -0.00457168       0.00113831      -0.00467401      -3.77333642
Al       1.65159800       1.34706091       6.95608871      -0.00047500      -0.00122039      -0.00191925      -4.29205248
Ni       0.04354603       0.08626374       8.38597717       0.00259674       0.00195280      -0.00353917      -6.10952584
Al       1.55589588       1.63659774       9.85985219      -0.00356912       0.00358212      -0.00900987      -4.55282508
Ni       0.25669571       0.10155239      11.20522021      -0.00067348       0.00301890      -0.00101395      -5.99226270
Al       1.60404848       1.31627546      12.90314901       0.00032222       0.00215359      -0.00142786      -3.98962106
Al       1.25887032       4.03009281       1.32546594       0.00182540       0.00189191      -0.00342634      -4.13569730
Al       1.25164572       4.60366818       4.40626351       0.00287417      -0.00812956       0.01464567      -4.34407544
Ni       0.08461279       2.85921544       5.56621160       0.00050153       0.00320690      -0.00019333      -5.86757550
Al       1.55797028       4.24978200       6.97446955       0.00304584       0.00700144      -0.00994634      -4.21688222
Ni       0.16913985       2.78471257       8.24529127       0.00107168      -0.00443646       0.00587756      -6.16412068
Al       1.68335466       4.36509357       9.77287129      -0.00284237       0.00219895       0.00166951      -4.40022768
Al       1.41370939       4.13552297      12.54645259       0.00228951       0.00197977      -0.00043024      -3.93970413
Al       1.21902728       7.02304722       1.03032951       0.00020443      -0.00261562       0.00912442      -4.15113415
Ni       0.02585799       5.64596680       2.70827001       0.00532040      -0.00485543      -0.00265356      -5.89683493
Al       1.40501898       7.44557725       3.70024286      -0.00844143       0.00077153      -0.00484884      -4.33517021
Al       1.17202578       6.81099768       6.55995929      -0.00286558       0.00200400      -0.00280828      -4.14200313
Ni       0.06194913       5.64915509       8.42951344      -0.00494377      -0.00315298       0.00125546      -6.05940484
Al       1.49947419       7.28897828       9.46196503      -0.00098045       0.00064045       0.00116123      -3.98508968
Ni       0.19477887       5.71475938      11.01993658      -0.00506177       0.00307417      -0.00631064      -5.88573517
Al       1.87967427       6.89960268      12.19305827       0.00149585      -0.00317587      -0.00397638      -4.05219385
Al       1.39833830       9.70577006       1.73974683       0.00177443       0.00178314       0.00009718      -4.13161649
Al       1.47049986      10.30477858       4.54222632       0.00051030      -0.00660282      -0.00310932      -4.12417273
Al       1.19877566       9.49087670       7.26698684       0.00358854      -0.00436937      -0.00279173      -4.28500184
Al       1.30427049       9.97261715      10.13867292      -0.00227709       0.00292135      -0.00337682      -3.98268469
Al       1.17465630       9.33825554      12.97520568      -0.00187602       0.00198493      -0.00383519      -4.06821267
Ni      -0.13821867      11.17041545       0.16026319      -0.00717641      -0.00000369       0.00613812      -6.12464081
Al       1.30261814      12.69341657       1.25835302      -0.00081930      -0.00443749       0.00252415      -4.13552890
Ni       0.00974638      11.29458358       2.88246958       0.00354534      -0.00122317       0.00318082      -5.88288192
Al       1.41701605      13.06115303       3.96605172      -0.00752549      -0.00409197      -0.00072833      -3.80738098
Al       1.10378771      12.54797402       6.71220373       0.00374655      -0.00018838      -0.00546832      -4.11751900
Ni      -0.07822463      11.27837241       8.35376992       0.00108658       0.00039809       0.00316257      -6.00464998
Al       1.36977580      12.76142333       9.62442052       0.00658168      -0.00876932      -0.00615210      -4.54457690
Al       1.23400218      12.20548333      12.30468641       0.00425391      -0.00665834       0.00407714      -4.53730335
Al       3.87879492       1.20134447       1.34075920      -0.00213188      -0.00163166       0.01091410      -4.03568592
Al       4.20353830       0.91832140       4.04674896       0.00101975       0.00284170       0.00539188      -3.76210338
Al       4.44109584       1.74379646       6.84339564      -0.00195436       0.00259727       0.00586773      -4.31717525
Al       4.23318004       1.37061940       9.66080361      -0.00073452       0.00227972       0.00315105      -4.15511906
Ni       2.82212037       0.04919873      11.22137282       0.00188126       0.00255854       0.00011322      -5.88917268
Al       4.34299618       1.43678288      12.36757766       0.00717510       0.00013966       0.00657496      -4.31177139
Al       4.07688013       4.01750057       1.31150057      -0.01350721       0.00558959       0.00211866      -4.36811554
Al       3.85691430       3.66289215       4.11851446      -0.00644225      -0.00269267      -0.00518610      -4.06053589
Al       4.30199261       4.52534166       6.81966685       0.00073416      -0.00018297      -0.00289712      -3.79588191
Ni       3.02490219       2.98208717       8.34043660       0.00278783      -0.00092269       0.00539612      -5.86232125
Al       4.53709768       4.40690954       9.61708502      -0.00383520       0.00744475      -0.00338479      -3.81489468
Al       4.27206591       4.27555874      12.46636744       0.00488219       0.00642700      -0.00433156      -3.93317347
Ni       2.76001175       5.53778815      -0.00082844      -0.00518750      -0.00426964       0.00366708      -5.87995314
Al       4.02323012       7.03001474       1.73185711      -0.00383654       0.00205147      -0.00071866      -4.15708310
Ni       2.65022530       5.42904297       2.69500397       0.00310815      -0.00029948      -0.00864342      -6.09658196
Al       3.79853373       6.41297568       4.69467547       0.00050061      -0.00291286      -0.00381215      -4.53407582
Al       3.78835539       7.30402595       7.54123748       0.00156812       0.00018470      -0.00155209      -4.05321854
Al       4.09884834       7.07911387      10.35404979       0.00233549       0.00066980      -0.00282476      -3.60452209
Al       4.44532932       7.25713394      13.06460797      -0.00726008      -0.00328141      -0.00165612      -3.81232986
Al       4.10011102       9.62638787       1.00698648       0.00602655      -0.00335424       0.00374135      -4.04489372
Al       3.94208814       9.20505375       3.73793514      -0.00097125      -0.00085993       0.00429043      -4.36006050
Ni       2.59944321       8.39671831       5.55683246      -0.00904557      -0.00102861      -0.00036582      -5.87121659
Al       3.83985322      10.18505154       6.53627282      -0.00916152       0.00305768       0.00307092      -4.30417801
Al       3.96507109       9.58702655       9.37582812      -0.00779724       0.00600769      -0.00349605      -3.79526977
Al       3.77588390       9.75033523      12.11694749      -0.00159549       0.00065513      -0.00089995      -3.86047491
Ni       2.47592069      11.00937227      -0.04843175       0.00158356       0.00007753      -0.00367516      -5.89101986
Al       3.95465333      12.39396956       1.47566866      -0.00442647      -0.00348209      -0.00140825      -4.14630055
Al       3.96322554      12.15721787       4.44530859       0.00147434       0.00089679       0.00107953      -3.96696869
Al       3.73937009      12.86204235       7.09125462      -0.00029373      -0.00857147       0.00003573      -4.29835646
Ni       2.53094076      11.17139360       8.33242707      -0.00150044       0.00154181       0.00413787      -5.89169832
Al       4.01488075      12.49100028       9.84497003      -0.00329529      -0.00139247      -0.00882597      -4.14783502
Al       3.98315161      12.55708144      12.64460058       0.00065740      -0.00532474       0.00446697      -4.19087208
Ni       5.54393720      -0.02191241       0.00903073       0.00156266      -0.00061525      -0.00205701      -6.01847059
Al       6.88975955       1.23210995       1.52378122       0.00582161       0.00136589       0.00547245      -4.35786417
Al       6.98832698       1.44568418       4.23923467      -0.00156555      -0.00540147      -0.00056732      -4.10074536
Ni       5.66577589      -0.01772137       5.71765904       0.00493105       0.00115336      -0.00165865      -5.98182827
Al       7.16904625       1.44739069       7.06729066       0.00656260       0.00853496       0.00198170      -4.29810836
Ni       5.68951773      -0.00928453       8.32520260       0.00714309      -0.00328540      -0.00106388      -5.99616503
Al       6.95501919       1.25550000       9.90104382       0.00497746      -0.00125281       0.00082334      -4.14053462
Al       7.17098994       1.38051950      12.57834745      -0.00199161      -0.00313639       0.00128818      -4.38024988
Ni       5.43832846       2.53888422       0.05389450       0.00142316      -0.01455907      -0.00641973      -5.88487585
Al       6.77085666       3.90150070       1.60357957      -0.00294792       0.00980459       0.00506988      -4.32116992
Al       6.59561114       4.11447670       4.71401348      -0.00422170       0.00953827       0.00242120      -3.96793882
Al       6.85859592       4.10562131       7.54263443      -0.00084611       0.00541897       0.00008830      -3.50075497
Al       7.12868408       3.87577396      10.22562182      -0.00011055      -0.00400604       0.00263216      -3.45548663
Al       6.95540177       4.06753622      12.83144023       0.01222880       0.00436516      -0.00288172      -3.91864117
Al       6.66726012       6.72604101       1.43541476      -0.00175622       0.00531638       0.00445642      -4.47313843
Ni       5.27601012       5.31341978       3.00567326       0.00139230      -0.00077196      -0.00195834      -6.06438605
Al       6.53625318       6.94984331       4.26502990       0.00256221      -0.00266764      -0.00218192      -4.35924314
Al       6.60700585       6.78053144       7.00455696       0.00232943       0.00125766       0.00396717      -3.95863795
Al       6.67792789       6.51873050       9.72687607      -0.00267535       0.00472329      -0.00072620      -3.78542050
Al       6.99571115       6.74816424      12.43265878       0.00261644      -0.00734094       0.00305772      -3.96384597
Al       6.68710137       9.47565819       1.53639779       0.00306294      -0.00100903      -0.00733046      -4.42383948
Al       6.63914908       9.62912281       4.45262987       0.00259722       0.00002622       0.00010745      -4.35353202
Ni       5.10997581       8.23185540       5.73688110       0.00074120       0.00069445       0.00139811      -5.91708752
Al       6.43230846       9.54821662       7.26308209       0.00601774       0.00250605      -0.00047196      -4.25961049
Al       6.58418227       9.45026931      10.09616185       0.00156042      -0.00084478      -0.00479304      -3.88539962
Al       6.56298273       9.52293397      12.77285934      -0.00399979      -0.00294788      -0.00303456      -3.95966482
Al       6.66552926      12.38043400       1.44159219       0.00057348      -0.00486260      -0.00378529      -4.58827336
Ni       5.31030151      10.95334574       2.84690390      -0.00218257      -0.00038683      -0.00180469      -5.87614753
Al       6.65081163      12.48506908       4.23098171      -0.00460744       0.00575758       0.00118925      -4.51083097
Al       6.68003061      12.28348141       7.04038835      -0.00537174       0.00220515      -0.00175607      -4.46540672
Al       6.67062469      12.30804165       9.90759163       0.00270413      -0.00000190       0.00273752      -4.22458607
Al       6.71344169      12.33863946      12.60905735       0.00464353      -0.00562947      -0.00043757      -4.25989787
Ni       8.30597761      -0.22551152      -0.03628133       0.00279699       0.00349129       0.00534578      -6.17053060
Al       9.72256342       1.32037923       1.39299773       0.00294344      -0.00245690       0.00277791      -4.07607920
Ni       8.43018560      -0.09911186       2.84530995       0.00464709      -0.00238708      -0.00791515      -6.16512333
Al       9.80399065       1.39925173       4.27822924       0.00273701       0.00230264       0.00505929      -4.26445660
Ni       8.36872184      -0.09649686       5.61842455       0.00212203      -0.00126813       0.00582986      -6.26845347
Al       9.86921473       1.15385936       7.13886538      -0.00192030       0.00449210      -0.00394510      -4.08740358
Ni       8.34116649      -0.22637501       8.52704067       0.00244716       0.00283871      -0.00142208      -6.19016329
Al       9.78302860       1.27602899       9.84708451       0.00261065       0.00604233       0.00360371      -4.25984307
Ni       8.44750259      -0.19816802      11.21954158       0.00152851       0.00079541       0.00010993      -6.08671622
Al      10.04618725       1.06893858      12.66148609      -0.00205932       0.00092838      -0.00142419      -4.25121274
Al       9.61315479       4.01282084       1.68864693       0.00156218      -0.00480664       0.00137239      -4.11870624
Al       9.42496087       4.00072080       4.41157990      -0.00394568      -0.00640668       0.00504918      -3.91477360
Al       9.53993446       3.82635181       7.18443302      -0.00480675      -0.00144772       0.00499426      -3.95248562
Al       9.77637925       4.05133381       9.97715446      -0.00724657      -0.00757100       0.00552954      -3.97640836
Al       9.72450845       3.84448401      12.80833589       0.00478329      -0.00144221      -0.00147693      -4.32797695
Ni       8.28049044       5.40821121       0.16021706       0.00327856       0.00073431      -0.00273862      -6.04542756
Al       9.58356129       6.80213522       1.60144263      -0.00575493       0.00172918       0.00158413      -4.68429984
Ni       7.94788982       5.39209744       3.01549265      -0.00340820       0.00022994      -0.00227527      -6.04215496
Al       9.46082571       6.72767553       4.39659245       0.00229404      -0.00061418      -0.00275248      -4.49562648
Al       9.39389020       6.73145629       7.12960126      -0.00052532       0.00547576       0.00334353      -4.48302546
Al       9.47677626       6.73730614       9.94341751       0.00097734      -0.00023126      -0.00574817      -4.26972920
Al       9.74705019       6.74180303      12.59297573       0.00236571       0.00228243      -0.00459808      -4.44386696
Ni       8.10806568       8.13050106       0.07649812      -0.00460996       0.00177695       0.00150996      -6.12806447
Al       9.59901790       9.58954612       1.53635982       0.00297284      -0.00169992       0.00329391      -4.68412361
Ni       8.15739060       8.19140908       2.95336553       0.00343915      -0.00143951       0.00077452      -6.14187898
Al       9.51616014       9.64466645       4.39773285       0.00014965       0.00229457      -0.00287162      -4.29094738
Al       9.43945713       9.51770343       7.07460994       0.00531107      -0.00352219       0.00407463      -4.27453720
Ni       8.01466565       8.18472846       8.55087989      -0.00421336      -0.00068967      -0.00136796      -6.01330324
Al       9.50833941       9.58193538       9.94466553      -0.00152239       0.00495098      -0.00082414      -4.29855709
Al       9.60583515       9.56901799      12.61460101       0.00160809      -0.00672710      -0.01012018      -4.37784913
Ni       8.11080268      10.89440593       0.06702079      -0.00491055       0.00205734       0.00619108      -6.14341312
Al       9.56819255      12.36373966       1.47437624      -0.00017834       0.00140534       0.00845717      -4.57857533
Ni       8.00938499      10.93733144       2.90491381       0.00197705       0.00475231      -0.00037319      -6.15133197
Al       9.51151761      12.29312241       4.26047156      -0.00063201       0.00487187      -0.00609925      -4.41441955
Al       9.43733471      12.25029033       7.03173471       0.00318279      -0.00248806       0.00090809      -4.27334159
Ni       8.02356929      10.84380516       8.51859992       0.00230825       0.00059210       0.00633069      -6.05940613
Al       9.62533290      12.29553514       9.83207894       0.00649100       0.00314272      -0.00028493      -4.05330684
Al       9.66996800      12.28142209      12.57366282      -0.00240385       0.00018177       0.00132603      -4.29448906
Al      12.42594325       1.22395551       1.32350974       0.00237999       0.00546770       0.00351860      -3.69243854
Ni      11.14580877      -0.08237921       2.94400889      -0.00056544      -0.00124391       0.00126133      -5.99786970
Al      12.74517880       1.22109434       4.15424419      -0.00253162      -0.00711001       0.00450484      -4.28096516
Ni      11.12443279      -0.20681361       5.55858316      -0.00505040       0.00194835      -0.00416208      -6.01428661
Al      12.55136657       1.16795240       6.96204740       0.00174650       0.00182862       0.00466611      -4.33742871
Al      12.55103132       1.22554907       9.89600988       0.00329757      -0.00653832      -0.00111592      -4.38676399
Al      12.82278659       1.49215688      12.63167041       0.00194963      -0.00308854       0.00661826      -3.98724506
Al      12.39044258       3.95698436       1.47644284      -0.00367514      -0.00214724      -0.00154944      -3.95276249
Al      12.34333714       3.96319740       4.28474175      -0.00122699      -0.00251967      -0.00099742      -4.10575940
Al      12.50799547       4.02228123       7.04011906      -0.00831506       0.00567016       0.00477514      -4.62203835
Al      12.55880440       3.91771468       9.83156343       0.00680843       0.01174356      -0.00325628      -4.46969537
Ni      11.16543569       2.62427924      11.30154008      -0.00998293       0.00433757       0.00820845      -5.76910983
Al      12.51305516       4.20983080      12.57977926      -0.00487197      -0.00257729      -0.00359698      -4.16749347
Ni      10.95866123       5.39757108       0.13441175      -0.00069247      -0.00201007       0.00144237      -5.96690899
Al      12.34001177       6.76685081       1.59096779      -0.00446219       0.00251856      -0.00205242      -4.32692531
Al      12.44276008       6.66554582       4.34908725      -0.00391873      -0.00222974       0.00184432      -4.35025937
Ni      10.89854186       5.35106780       5.80506432       0.00698978      -0.00227305      -0.00129318      -5.97956983
Al      12.42530516       6.84342714       7.13079018       0.00597865      -0.00299807       0.00200541      -4.44152935
Ni      10.99050935       5.37995641       8.40443930       0.00405717       0.00100949       0.00002483      -6.04434592
Al      12.37221595       6.71389795       9.93193576       0.00723770      -0.00835438      -0.00243602      -4.56011800
Al      12.73694127       6.90031867      12.66358353      -0.00246201      -0.00146880      -0.00293431      -4.36409651
Ni      11.03025751       8.16104870       0.00215451       0.00138925      -0.00369940       0.00497180      -6.22310060
Al      12.37090700       9.52756352       1.62793699       0.00014547      -0.00170801       0.00199610      -4.47073833
Ni      10.95674577       8.18868835       3.08506348      -0.00099772      -0.00078887       0.00301857      -6.09625456
Al      12.52568895       9.55205633       4.35439516      -0.00822882       0.00283065      -0.00184073      -4.13282198
Ni      10.98602420       8.15696606       5.69675270       0.00010360      -0.00347100      -0.00521901      -6.11740683
Al      12.28495147       9.66737607       7.09436563       0.00311556      -0.00447830      -0.00034631      -4.14026481
Ni      10.89079398       8.12457271       8.53243073      -0.00425809       0.00664388       0.00241068      -6.19769776
Al      12.42772693       9.58219071       9.79300191      -0.00558838       0.00458883      -0.00087924      -4.18902440
Ni      11.07595547       8.23545017      11.22812196      -0.00631660       0.00692815       0.00350812      -6.05198878
Al      12.49854182       9.75328043      12.50914223       0.00028683       0.00046027       0.00136534      -4.32618356
Ni      11.04292734      10.94622071       0.08763688       0.00314671      -0.00291871       0.00374204      -6.10416711
Al      12.28686630      12.37035106       1.69480850       0.01160932       0.00278908      -0.00749018      -4.34153841
Al      12.44621351      12.35208878       4.43000178      -0.00403676      -0.00072784      -0.00562183      -4.19487704
Al      12.12287442      12.39664531       7.24858616       0.00549781       0.00119948       0.00261132      -4.18019152
Al      12.36485526      12.31994164      10.09718400       0.00012647       0.00474106      -0.00073863      -4.10422745
Al      12.46278000      12.65747841      12.91124779       0.00302547      -0.00235261      -0.00444339      -4.27518206
