143
Lattice="13.072298945766436 -0.2731751898204259 -0.01983107254898931 -0.272962283971447 13.419579963412898 -0.27112312881984946 -0.017685684624140326 -0.27815412523524735 13.462269087510547" Properties=species:S:1:pos:R:3:forces:R:3:energies:R:1 rep=5 n_sites=250 energy=-592.706298828125 stress="3.0044843697396573e-06 -0.00011597448610700667 -0.00010126549022970721 -0.00011597448610700667 6.258550274651498e-05 0.0001188126188935712 -0.00010126549022970721 0.0001188126188935712 -0.00013810952077619731" free_energy=-592.706298828125 pbc="T T T"
Al       1.36089288       0.24180383       1.80631311       0.00409828      -0.00217163       0.01256016      -3.61915958
Al       1.44450306       0.24808666       4.46888527      -0.00360782       0.00313488      -0.01530092      -3.76519799
Al       0.99017372       2.45734950       5.99438072      -0.00118101      -0.00056336      -0.00008647      -3.65777695
Al       1.19306339       1.17215848       8.50612436      -0.00013923      -0.00111117       0.00022582      -3.64641917
Al       1.73770790       0.43438610      12.63435947       0.00148439       0.00398726      -0.00005976      -3.65101612
Al       0.61235675       2.80017579       2.93094743      -0.00055624       0.00432777      -0.00545942      -4.17617655
Al       1.09139256       4.93839392       4.83744937      -0.00643198      -0.00021176       0.00288343      -4.15883106
Al       1.33177106       4.82474403       7.66506429       0.00937916      -0.00110188      -0.00383128      -3.65128243
Al       0.37878111       3.55031690       9.79256777       0.00830117      -0.00781416       0.00467112      -3.59533572
Al       1.31531500       2.94266347      12.15766374      -0.01325148      -0.00173028      -0.00414770      -3.68363285
Al       0.80702482       4.93066498       0.66929256       0.00043469       0.01041364       0.00376379      -4.18445992
Ni      -0.28961864       5.08346979       2.88988099      -0.00636038       0.00170819      -0.00506316      -5.84042811
Al       1.16373544       6.99933639       2.63560563       0.00984284       0.00451809      -0.00234839      -4.08625740
Al       2.30961897       6.90589649       6.10519093       0.00639804       0.00215375      -0.00039711      -3.66703200
Al       1.16834051       7.40463458       8.67544499       0.01173304      -0.00910362       0.00662790      -3.66778195
Al       0.86594370       5.72049575      11.59565705      -0.00247413      -0.00561878      -0.00337496      -3.75059986
Al       0.61161667       8.12606776       0.02616851       0.00083459      -0.00194380       0.00497396      -3.89642572
Al       2.19429849       9.02243511       4.08122381       0.00619707       0.00838706      -0.00363392      -3.93674141
Al       0.20794831       8.56891646       6.23729087      -0.00629687      -0.00199552       0.00209348      -3.65647018
Al       1.11502652      10.04384775       8.71799114      -0.00522434       0.00174648      -0.00155981      -3.62221253
Al       1.59324272       9.44202693      11.29975873      -0.00687830       0.00263114      -0.00287841      -3.86166561
Ni      -0.02650162      10.45970895      -0.42158773       0.00342700      -0.01508953       0.00041831      -5.75679278
Al       0.78612142      10.69469153       1.91252000      -0.01336257      -0.00347660      -0.00085932      -3.80300117
Al       0.75227465      10.98313670       5.13036806       0.00521370      -0.00354927      -0.00037964      -3.61104846
Al       2.02889241      12.19437763       7.26802530      -0.00607272      -0.00019920       0.00303929      -3.79904449
Al       1.46856407      12.44819941      10.03621751      -0.00024445      -0.00678944      -0.01242902      -3.67945755
Al       2.02004730      11.38883466      13.12399602      -0.00366640       0.00419037       0.00205762      -3.87267959
Al       4.10125008       0.45984148       0.78477563       0.00030094      -0.00214840       0.00319682      -3.92995602
Al       4.10988243       0.43980921       3.68055147       0.00098933      -0.00297141      -0.00101066      -3.84909779
Al       3.36984927       1.15906799       6.35972164       0.00108688      -0.00286242       0.00573543      -3.94282585
Al       3.94778721       0.48376334       9.13351367       0.00116918      -0.00420363      -0.00433147      -3.94125110
Al       3.93496823       1.79780359      11.78252516       0.00011084       0.00224371      -0.00609879      -3.63985634
Al       2.97468046       3.00722453       1.06563051      -0.00534618       0.00435288      -0.00353894      -4.16104102
Al       3.24244768       2.97805869       3.91446199       0.00089905      -0.01491719       0.00804144      -4.04317713
Al       3.62219228       4.16900048       6.41983313      -0.01017807       0.00101718      -0.00526355      -3.91725063
Al       3.06455283       3.12244621       9.47092689      -0.00590870      -0.00105350       0.00004467      -3.85799176
Al       3.48304354       4.46343540      12.24427318       0.00256523      -0.00824946       0.00127828      -3.64844859
Al       3.57005977       6.11211342       1.24640231      -0.00407617      -0.00306150      -0.00112706      -4.01942271
Ni       2.11781171       4.68584326       2.62702543       0.00010633       0.00300372      -0.00330420      -5.87803155
Al       3.80129711       5.75991303       4.01233012       0.00535072       0.00427976       0.00155619      -4.12156641
Al       4.45093193       6.87525007       7.64682179       0.00014124      -0.00629197       0.01217843      -3.61437976
Al       3.07111356       5.80399414       9.85843906      -0.00577687       0.00147340       0.00161171      -3.60775352
Al       3.05955241       7.21933935      12.29188683       0.00536712      -0.00418853       0.00558439      -3.64267170
Al       3.13438754       8.83817304       1.43025333      -0.00019056       0.00188787       0.00635508      -4.00115210
Al       4.61045366       8.15672807       5.17733095       0.00352145       0.00020577      -0.01050904      -4.05397332
Al       3.03948813       9.48040995       6.97028195      -0.00602027       0.00547699       0.00308184      -3.71820152
Al       3.73713892       8.42167668       9.78758533      -0.00159797      -0.01639909       0.00478671      -3.67100561
Al       4.14008847       9.76208837      12.38868162       0.00033980       0.00133407       0.00063490      -3.64728832
Al       3.51191452      11.56886739       1.90445089      -0.01190746      -0.00168741       0.00507167      -3.89647990
Al       3.25642523      11.60632852       4.73928073       0.00253030      -0.00181158      -0.00799076      -3.87544209
Al       4.73041857      12.11730143       6.87233488      -0.00649142      -0.00408016      -0.00030320      -3.62187803
Al       3.79430622      11.03072407       9.17609151      -0.00594979      -0.01241551      -0.00281332      -3.76538527
Al       3.87822617      12.51932126      11.41192570       0.00632528      -0.00219528       0.00352640      -3.72301412
Al       6.77138716       1.72253362       0.63751568       0.00320778      -0.00272340      -0.00716184      -4.07283527
Al       6.81127625       1.11328216       3.55625205       0.00014812       0.00137907      -0.00113930      -4.01964051
Al       6.16061565       1.18512120       6.31556379      -0.00864089       0.00660473      -0.00188586      -4.06718677
Al       6.43532019       1.65522868       9.13801303      -0.00337908       0.00589962      -0.00465053      -3.81490254
Al       6.55213722       0.57491684      11.52596806      -0.00358899      -0.01220576       0.00556523      -3.84265649
Al       5.55526838       4.17168953       1.00925229       0.00740140       0.00743440       0.00579438      -4.07827997
Ni       4.98252727       2.15843747       2.24573059      -0.00955472      -0.01012673       0.01330483      -5.78885031
Al       5.89812430       3.71673380       3.90091891      -0.00415257      -0.00595984       0.00568229      -3.98453826
Al       6.38106049       4.05168453       6.65040721       0.01137163      -0.00355348       0.00166141      -4.16309738
Ni       4.73043488       2.54555868       7.81874478       0.00750059      -0.00005253      -0.00385458      -5.76378900
Al       5.54785999       4.49894449       9.15519602       0.00497344      -0.00166903       0.00287815      -4.28849798
Al       6.17248756       3.29208950      11.73114373       0.00790127       0.00612205       0.00322098      -4.08436322
Al       6.38506990       6.98564586       1.02915120      -0.00529636       0.00643401      -0.00392849      -4.14300770
Al       6.54160907       6.34620728       3.81321554      -0.00484496       0.00913943      -0.00508158      -3.88416964
Al       6.92177041       7.11606850       6.44800682       0.00261833       0.00260647       0.01192927      -3.91435432
Al       6.51954214       7.16181338       9.50508772       0.00392519       0.00475186      -0.00157358      -4.11399090
Al       5.60893846       6.12181180      11.96086104       0.00019011      -0.00193861      -0.00630285      -4.08375347
Al       5.79138724       9.75296450       1.42379793      -0.00515942       0.00664229      -0.00265235      -4.25388300
Ni       4.86084601       7.64002095       2.74022656       0.00927481      -0.01020935      -0.00261368      -5.91436750
Al       6.78378619       9.17252681       4.00422832      -0.00279069      -0.00868228      -0.00900880      -4.17068654
Al       5.91560398       9.56920333       7.38840761      -0.01009199       0.00188240       0.00228684      -3.70423520
Al       6.14040734       9.74256819      10.10740578      -0.00065804       0.00428059      -0.00252862      -3.60734844
Al       6.70039786       8.61720465      12.49009956      -0.01162132       0.00920092      -0.00143322      -3.64832103
Al       6.52338455      12.57563114       1.31878164       0.00109547       0.00356458       0.00147727      -4.04481578
Ni       4.39806213       9.93888393       3.44234393       0.00306866       0.01094458       0.00123625      -5.80554444
Al       5.97375608      11.84727270       4.04348514      -0.00308803      -0.00342759      -0.00064823      -4.07852954
Al       7.32612758      12.15070843       6.46104598      -0.00190627      -0.00550344       0.00519859      -3.51520729
Al       6.39017029      12.24608070       9.07127518      -0.00035573      -0.00715940       0.00463423      -3.72002101
Al       6.24306540      11.38752135      12.20867563      -0.00751656      -0.00167689      -0.00196464      -3.86395842
Ni       8.11739187      -0.08867432      -0.34273614      -0.00951251       0.00938185       0.00774152      -5.74058855
Al       9.59753826       1.02594992       1.15947016      -0.00839928       0.00015600       0.00467537      -3.91184407
Al       9.47507296       2.01138862       3.69293549      -0.00038858      -0.00417250      -0.00545499      -3.95435190
Al       8.96063951       1.23738774       6.60235970      -0.00236565       0.00486870       0.00217943      -3.87833226
Al       8.87260981       0.73663621       9.34407799       0.00093487       0.00026049       0.00134413      -3.91851252
Al       9.95775702       0.85945908      11.94001272       0.00911157       0.00188208      -0.00309558      -4.05052280
Al       8.55981056       3.58724277       1.35948665      -0.00857061      -0.00163174      -0.01292941      -3.98394185
Al       8.55862079       4.58811203       3.90338690       0.00370982       0.00430149       0.00545932      -3.81006050
Ni       7.68706971       2.67617494       5.16572177      -0.00461544       0.00719614       0.01069665      -5.75317305
Al       9.13128642       4.12984150       6.44915859      -0.00106597       0.00105543      -0.00180262      -4.28462005
Al       8.39127042       3.53703039       9.16361960       0.00443849      -0.00910550       0.00587102      -4.13280278
Al       8.96097570       3.52838557      11.82897603      -0.00110842      -0.00464469      -0.00362319      -4.11036187
Ni       7.41362016       5.04387318      -0.20019349      -0.00421496      -0.00899754       0.01009915      -5.96322781
Al       8.85721581       6.29219039       1.79998907      -0.00009716       0.00083746      -0.00013135      -4.21539515
Al       8.99888476       7.32333671       4.53357187       0.00363147       0.00427733       0.00194052      -3.91623551
Al       9.57533029       6.97662692       7.16398317      -0.00525615       0.00420395      -0.00488541      -3.99617261
Ni       7.73101510       5.52750581       8.11278925       0.00713264       0.00947179      -0.01308768      -6.00756818
Al       9.32425140       6.34763603       9.84637387       0.00695023       0.00015333       0.00389838      -4.13539535
Ni       7.34290620       5.14400053      10.67203284       0.00105312      -0.01334400      -0.00653733      -6.02601969
Al       8.60997760       6.52629843      12.37285925       0.00714080       0.00806975       0.00342131      -4.16461182
Al       8.54474353       8.95373040       1.30681139      -0.00605458      -0.00113826      -0.00286418      -4.10564464
Al       9.59240722      10.03863036       3.77299126       0.00195411      -0.00615782       0.00704971      -4.11343515
Al       8.52019521       9.52651505       6.30935303      -0.00284811       0.00552787       0.00686012      -3.65287411
Al       8.60805397       8.96433904       9.05006723       0.00022689       0.00003433      -0.00691255      -3.84761882
Al       9.33464993       9.10584453      11.97206245       0.00890398       0.00025808      -0.00155976      -3.86458904
Al       9.00799367      11.52352716       0.51404521       0.00414065      -0.00199613       0.00595903      -4.01399070
Ni       7.67548302      10.85686171       2.52205471       0.00185284      -0.00453435      -0.00567812      -5.75266081
Al       9.02292096      12.72402121       3.16946316       0.00003760       0.00701392       0.00173834      -3.88517207
Al       9.92092917      12.32749916       5.68695139      -0.00679125      -0.00551484      -0.00654752      -3.68404090
Al       9.25187239      11.50853777       8.25776704      -0.00096565      -0.00377244      -0.00630394      -4.13546139
Al       8.70440560      11.68503875      11.05268541       0.01530555      -0.00387789       0.00077477      -4.35270000
Al      12.38478223       1.33884688       0.13634622      -0.00301447      -0.00184550       0.00693573      -3.64018762
Al      11.76739694       0.70633497       2.67760315       0.00128694       0.00703686       0.00216494      -3.69205821
Al      11.56252228       1.19526404       5.32636250      -0.00100658      -0.00152593       0.00108965      -3.70796275
Al      11.31958501       0.64140443       8.17009460      -0.00400411       0.00905550      -0.00727761      -3.94028980
Ni      10.77280784      -0.62087872      10.17551200       0.00477914      -0.00941717       0.00578875      -5.91467792
Al      12.66004364       0.77493364      10.79706338       0.00776637      -0.00700380       0.00332012      -3.97040027
Al      11.24179561       3.47686133       1.59126798       0.00086085       0.00480786       0.00395558      -4.15583974
Al      11.40136032       3.77638007       4.51564334       0.01141098       0.00682156       0.00222813      -3.89036828
Al      11.85178385       3.20680917       7.26287847       0.00055306       0.00102095      -0.00091311      -3.92732525
Al      10.82094643       2.91320305       9.80620561       0.00481081       0.00469278      -0.00022909      -3.77235806
Al      11.72965754       3.47988491      12.29836012       0.00758171      -0.00038472      -0.00773759      -3.93909812
Ni      10.04411454       5.05386933       0.08861936       0.00046368       0.00559919       0.00344176      -5.88893610
Al      11.62485954       6.37073195       1.41961409       0.00486428       0.00049615       0.00961733      -4.21403301
Al      11.69718553       6.52807944       4.22603130      -0.00355275       0.00660881      -0.00370505      -3.98516822
Al      12.11699102       5.93365529       6.84376089       0.00744210      -0.00087444      -0.00115971      -3.83588612
Ni      10.37443721       4.87780178       8.24589184      -0.00529489       0.00855506      -0.00073923      -5.88959277
Al      12.06632202       5.84769022       9.66136024       0.00627095       0.01562040       0.00660053      -3.85383517
Al      11.33827347       6.32456881      12.19779793      -0.00465613      -0.00393037      -0.00733770      -3.84255493
Al      11.22967048       9.14663746       0.71763727       0.00733723       0.00435963      -0.00773105      -4.20223176
Ni      10.38830092       8.01399510       2.69141159      -0.00986603      -0.01295468       0.00223119      -5.75417751
Al      12.29421715       9.07699484       3.62383351       0.00172320       0.00313039       0.00594528      -3.90093875
Al      11.32427334      10.14359201       6.14794164      -0.00270434       0.00479944      -0.00168913      -3.67319083
Al      11.49636541       8.62878733       8.46542916       0.00177526       0.00631863       0.00578262      -3.81940436
Al      11.95827557       8.72756414      11.18069307       0.00504262      -0.00331613      -0.00810178      -4.01029646
Al      11.79075232      11.97410314       0.74804249       0.00862607       0.00156908       0.00111893      -3.80422270
Al      11.83373637      11.83046489       3.67938941      -0.00267096       0.00286310      -0.00288588      -3.74719560
Al      12.64432057      12.70547843       6.28648266       0.00242192       0.00145824      -0.00944767      -3.67339587
Al      12.09470070      11.46776864       8.65258996      -0.00176805       0.00342268       0.00791144      -4.09369510
Ni      10.40801176      10.26353522      10.03513059       0.00556015       0.00744626      -0.00589087      -5.88087964
Al      11.94395569      11.54860211      11.51356808      -0.00529671       0.00204170      -0.00792189      -4.20407277
