128
Lattice="11.520843680160958 -1.9701874016169793e-21 1.0056153131186291e-19 -1.9445875912761213e-18 11.520843680162297 6.667026076724725e-13 -6.497112491518674e-19 6.899571845833426e-13 11.520843680161597" Properties=species:S:1:pos:R:3:forces:R:3:energies:R:1 energy=-695.4814794602624 stress="-0.0008265624097786194 4.032747505461683e-18 -6.6271908698594265e-18 4.032747505461683e-18 -0.0008265624097417663 6.95612928202244e-14 -6.6271908698594265e-18 6.95612928202244e-14 -0.0008265624097610164" free_energy=-695.4814794602624 pbc="T T T"
Ni       0.00943000       0.01027326      -0.01027326       0.00265900      -0.00089270       0.00089270      -6.25789850
Al       1.43558306       1.44010546       1.44462786      -0.00174901      -0.00000000       0.00174901      -4.61452202
Ni      -0.00550656       0.00099185       2.88571748      -0.00142709       0.00055027       0.00142709      -6.24828536
Al       1.44619435       1.44010546       4.32031638      -0.00050807       0.00000000      -0.00000000      -4.60534303
Ni      -0.00550656       0.00099185       5.75491528      -0.00142709       0.00055027      -0.00142709      -6.24828536
Al       1.43558306       1.44010546       7.19600490      -0.00174901       0.00000000      -0.00174901      -4.61452202
Ni       0.00943000       0.01027326       8.65090602       0.00265900      -0.00089270      -0.00089270      -6.25789850
Al       1.54777009       1.44010546      10.08073822       0.01740161       0.00000000      -0.00000000      -4.70920070
Ni       0.00943000       2.86993766      -0.01027326       0.00265900       0.00089270       0.00089270      -6.25789850
Al       1.43050494       4.32991690       1.44970598      -0.00001772       0.00001772       0.00001772      -4.61322461
Ni      -0.00550656       2.87921907       2.88571748      -0.00142709      -0.00055027       0.00142709      -6.24828536
Al       1.44785486       4.31256698       4.32031638      -0.00517290       0.00517290      -0.00000000      -4.60425718
Ni      -0.00550656       2.87921907       5.75491528      -0.00142709      -0.00055027      -0.00142709      -6.24828536
Al       1.43050494       4.32991690       7.19092678      -0.00001772       0.00001772      -0.00001772      -4.61322461
Ni       0.00943000       2.86993766       8.65090602       0.00265900       0.00089270      -0.00089270      -6.25789850
Al       1.43558306       4.32483878      10.08073822      -0.00174901       0.00174901      -0.00000000      -4.61452202
Ni      -0.00550656       5.76592840      -0.00099185      -0.00142709       0.00142709      -0.00055027      -6.24828536
Al       1.44785486       7.20052730       1.43235606      -0.00517290      -0.00000000       0.00517290      -4.60425718
Ni      -0.00084301       5.76126485       2.88105393       0.00495489      -0.00495489      -0.00495489      -6.24814582
Al       1.43822481       7.20052730       4.32031638      -0.01270831       0.00000000      -0.00000000      -4.59414366
Ni      -0.00084301       5.76126485       5.75957883       0.00495489      -0.00495489       0.00495489      -6.24814582
Al       1.44785486       7.20052730       7.20827670      -0.00517290      -0.00000000      -0.00517290      -4.60425718
Ni      -0.00550656       5.76592840       8.64162461      -0.00142709       0.00142709       0.00055027      -6.24828536
Al       1.44619435       7.20052730      10.08073822      -0.00050807      -0.00000000      -0.00000000      -4.60534303
Ni      -0.00550656       8.63512620      -0.00099185      -0.00142709      -0.00142709      -0.00055027      -6.24828536
Al       1.43050494      10.07113770       1.44970598      -0.00001772      -0.00001772       0.00001772      -4.61322461
Ni      -0.00084301       8.63978975       2.88105393       0.00495489       0.00495489      -0.00495489      -6.24814582
Al       1.44785486      10.08848762       4.32031638      -0.00517290      -0.00517290       0.00000000      -4.60425718
Ni      -0.00084301       8.63978975       5.75957883       0.00495489       0.00495489       0.00495489      -6.24814582
Al       1.43050494      10.07113770       7.19092678      -0.00001772      -0.00001772      -0.00001772      -4.61322461
Ni      -0.00550656       8.63512620       8.64162461      -0.00142709      -0.00142709       0.00055027      -6.24828536
Al       1.43558306      10.07621582      10.08073822      -0.00174901      -0.00174901      -0.00000000      -4.61452202
Ni       2.83768817      -0.04252275       0.04252275       0.00604438       0.00604438      -0.00604438      -6.09160264
Al       4.32031638       1.44010546       1.33244083       0.00000000       0.00000000      -0.01740161      -4.70920070
Ni       2.89048418       0.01027326       2.87078092      -0.00089270      -0.00089270      -0.00265900      -6.25789850
Al       4.32031638       1.44010546       4.32031638       0.00000000       0.00000000      -0.00000000      -4.59990018
Ni       2.89048418       0.01027326       5.76985184      -0.00089270      -0.00089270       0.00265900      -6.25789850
Al       4.32031638       1.44010546       7.30819193       0.00000000       0.00000000       0.01740161      -4.70920070
Ni       2.83768817      -0.04252275       8.59811001       0.00604438       0.00604438       0.00604438      -6.09160264
Ni       4.32031638       1.44010546      10.08073822       0.00000000       0.00000000      -0.00000000      -5.82300871
Ni       2.83768817       2.92273367       0.04252275       0.00604438      -0.00604438      -0.00604438      -6.09160264
Al       4.32031638       4.32483878       1.44462786       0.00000000       0.00174901       0.00174901      -4.61452202
Ni       2.89048418       2.86993766       2.87078092      -0.00089270       0.00089270      -0.00265900      -6.25789850
Al       4.32031638       4.31422749       4.32031638       0.00000000       0.00050807      -0.00000000      -4.60534303
Ni       2.89048418       2.86993766       5.76985184      -0.00089270       0.00089270       0.00265900      -6.25789850
Al       4.32031638       4.32483878       7.19600490       0.00000000       0.00174901      -0.00174901      -4.61452202
Ni       2.83768817       2.92273367       8.59811001       0.00604438      -0.00604438       0.00604438      -6.09160264
Al       4.32031638       4.21265175      10.08073822       0.00000000      -0.01740161       0.00000000      -4.70920070
Ni       2.89048418       5.75099184      -0.01027326      -0.00089270      -0.00265900       0.00089270      -6.25789850
Al       4.32031638       7.20052730       1.43401657       0.00000000      -0.00000000       0.00050807      -4.60534303
Ni       2.88120277       5.76592840       2.88571748       0.00055027       0.00142709       0.00142709      -6.24828536
Al       4.32031638       7.20052730       4.32031638       0.00000000       0.00000000       0.00000000      -4.59332785
Ni       2.88120277       5.76592840       5.75491528       0.00055027       0.00142709      -0.00142709      -6.24828536
Al       4.32031638       7.20052730       7.20661619       0.00000000      -0.00000000      -0.00050807      -4.60534303
Ni       2.89048418       5.75099184       8.65090602      -0.00089270      -0.00265900      -0.00089270      -6.25789850
Al       4.32031638       7.20052730      10.08073822      -0.00000000      -0.00000000      -0.00000000      -4.59990018
Ni       2.89048418       8.65006276      -0.01027326      -0.00089270       0.00265900       0.00089270      -6.25789850
Al       4.32031638      10.07621582       1.44462786       0.00000000      -0.00174901       0.00174901      -4.61452202
Ni       2.88120277       8.63512620       2.88571748       0.00055027      -0.00142709       0.00142709      -6.24828536
Al       4.32031638      10.08682711       4.32031638       0.00000000      -0.00050807      -0.00000000      -4.60534303
Ni       2.88120277       8.63512620       5.75491528       0.00055027      -0.00142709      -0.00142709      -6.24828536
Al       4.32031638      10.07621582       7.19600490       0.00000000      -0.00174901      -0.00174901      -4.61452202
Ni       2.89048418       8.65006276       8.65090602      -0.00089270       0.00265900      -0.00089270      -6.25789850
Al       4.32031638      10.18840285      10.08073822       0.00000000       0.01740161      -0.00000000      -4.70920070
Ni       5.80294459      -0.04252275       0.04252275      -0.00604438       0.00604438      -0.00604438      -6.09160264
Al       7.20504970       1.44010546       1.44462786       0.00174901      -0.00000000       0.00174901      -4.61452202
Ni       5.75014858       0.01027326       2.87078092       0.00089270      -0.00089270      -0.00265900      -6.25789850
Al       7.19443841       1.44010546       4.32031638       0.00050807       0.00000000      -0.00000000      -4.60534303
Ni       5.75014858       0.01027326       5.76985184       0.00089270      -0.00089270       0.00265900      -6.25789850
Al       7.20504970       1.44010546       7.19600490       0.00174901       0.00000000      -0.00174901      -4.61452202
Ni       5.80294459      -0.04252275       8.59811001      -0.00604438       0.00604438       0.00604438      -6.09160264
Al       7.09286267       1.44010546      10.08073822      -0.01740161       0.00000000      -0.00000000      -4.70920070
Ni       5.80294459       2.92273367       0.04252275      -0.00604438      -0.00604438      -0.00604438      -6.09160264
Al       7.21012782       4.32991690       1.44970598       0.00001772       0.00001772       0.00001772      -4.61322461
Ni       5.75014858       2.86993766       2.87078092       0.00089270       0.00089270      -0.00265900      -6.25789850
Al       7.19277790       4.31256698       4.32031638       0.00517290       0.00517290      -0.00000000      -4.60425718
Ni       5.75014858       2.86993766       5.76985184       0.00089270       0.00089270       0.00265900      -6.25789850
Al       7.21012782       4.32991690       7.19092678       0.00001772       0.00001772      -0.00001772      -4.61322461
Ni       5.80294459       2.92273367       8.59811001      -0.00604438      -0.00604438       0.00604438      -6.09160264
Al       7.20504970       4.32483878      10.08073822       0.00174901       0.00174901      -0.00000000      -4.61452202
Ni       5.75014858       5.75099184      -0.01027326       0.00089270      -0.00265900       0.00089270      -6.25789850
Al       7.19277790       7.20052730       1.43235606       0.00517290      -0.00000000       0.00517290      -4.60425718
Ni       5.75942999       5.76592840       2.88571748      -0.00055027       0.00142709       0.00142709      -6.24828536
Al       7.20240795       7.20052730       4.32031638       0.01270831       0.00000000      -0.00000000      -4.59414366
Ni       5.75942999       5.76592840       5.75491528      -0.00055027       0.00142709      -0.00142709      -6.24828536
Al       7.19277790       7.20052730       7.20827670       0.00517290      -0.00000000      -0.00517290      -4.60425718
Ni       5.75014858       5.75099184       8.65090602       0.00089270      -0.00265900      -0.00089270      -6.25789850
Al       7.19443841       7.20052730      10.08073822       0.00050807      -0.00000000      -0.00000000      -4.60534303
Ni       5.75014858       8.65006276      -0.01027326       0.00089270       0.00265900       0.00089270      -6.25789850
Al       7.21012782      10.07113770       1.44970598       0.00001772      -0.00001772       0.00001772      -4.61322461
Ni       5.75942999       8.63512620       2.88571748      -0.00055027      -0.00142709       0.00142709      -6.24828536
Al       7.19277790      10.08848762       4.32031638       0.00517290      -0.00517290      -0.00000000      -4.60425718
Ni       5.75942999       8.63512620       5.75491528      -0.00055027      -0.00142709      -0.00142709      -6.24828536
Al       7.21012782      10.07113770       7.19092678       0.00001772      -0.00001772      -0.00001772      -4.61322461
Ni       5.75014858       8.65006276       8.65090602       0.00089270       0.00265900      -0.00089270      -6.25789850
Al       7.20504970      10.07621582      10.08073822       0.00174901      -0.00174901      -0.00000000      -4.61452202
Ni       8.63120276       0.01027326      -0.01027326      -0.00265900      -0.00089270       0.00089270      -6.25789850
Al      10.08073822       1.44010546       1.43401657      -0.00000000       0.00000000       0.00050807      -4.60534303
Ni       8.64613932       0.00099185       2.88571748       0.00142709       0.00055027       0.00142709      -6.24828536
Al      10.08073822       1.44010546       4.32031638      -0.00000000      -0.00000000       0.00000000      -4.59332785
Ni       8.64613932       0.00099185       5.75491528       0.00142709       0.00055027      -0.00142709      -6.24828536
Al      10.08073822       1.44010546       7.20661619      -0.00000000       0.00000000      -0.00050807      -4.60534303
Ni       8.63120276       0.01027326       8.65090602      -0.00265900      -0.00089270      -0.00089270      -6.25789850
Al      10.08073822       1.44010546      10.08073822      -0.00000000       0.00000000      -0.00000000      -4.59990018
Ni       8.63120276       2.86993766      -0.01027326      -0.00265900       0.00089270       0.00089270      -6.25789850
Al      10.08073822       4.31256698       1.43235606      -0.00000000       0.00517290       0.00517290      -4.60425718
Ni       8.64613932       2.87921907       2.88571748       0.00142709      -0.00055027       0.00142709      -6.24828536
Al      10.08073822       4.32219703       4.32031638      -0.00000000       0.01270831      -0.00000000      -4.59414366
Ni       8.64613932       2.87921907       5.75491528       0.00142709      -0.00055027      -0.00142709      -6.24828536
Al      10.08073822       4.31256698       7.20827670      -0.00000000       0.00517290      -0.00517290      -4.60425718
Ni       8.63120276       2.86993766       8.65090602      -0.00265900       0.00089270      -0.00089270      -6.25789850
Al      10.08073822       4.31422749      10.08073822      -0.00000000       0.00050807      -0.00000000      -4.60534303
Ni       8.64613932       5.76592840      -0.00099185       0.00142709       0.00142709      -0.00055027      -6.24828536
Al      10.08073822       7.20052730       1.44198611      -0.00000000       0.00000000       0.01270831      -4.59414366
Ni       8.64147577       5.76126485       2.88105393      -0.00495489      -0.00495489      -0.00495489      -6.24814582
Al      10.08073822       7.20052730       4.32031638      -0.00000000      -0.00000000       0.00000000      -4.59705650
Ni       8.64147577       5.76126485       5.75957883      -0.00495489      -0.00495489       0.00495489      -6.24814582
Al      10.08073822       7.20052730       7.19864665      -0.00000000       0.00000000      -0.01270831      -4.59414366
Ni       8.64613932       5.76592840       8.64162461       0.00142709       0.00142709       0.00055027      -6.24828536
Al      10.08073822       7.20052730      10.08073822      -0.00000000       0.00000000      -0.00000000      -4.59332785
Ni       8.64613932       8.63512620      -0.00099185       0.00142709      -0.00142709      -0.00055027      -6.24828536
Al      10.08073822      10.08848762       1.43235606      -0.00000000      -0.00517290       0.00517290      -4.60425718
Ni       8.64147577       8.63978975       2.88105393      -0.00495489       0.00495489      -0.00495489      -6.24814582
Al      10.08073822      10.07885757       4.32031638      -0.00000000      -0.01270831       0.00000000      -4.59414366
Ni       8.64147577       8.63978975       5.75957883      -0.00495489       0.00495489       0.00495489      -6.24814582
Al      10.08073822      10.08848762       7.20827670      -0.00000000      -0.00517290      -0.00517290      -4.60425718
Ni       8.64613932       8.63512620       8.64162461       0.00142709      -0.00142709       0.00055027      -6.24828536
Al      10.08073822      10.08682711      10.08073822      -0.00000000      -0.00050807      -0.00000000      -4.60534303
