119
Lattice="11.46374172257901 0.003156155831840511 0.0005029356401093965 0.003156335308317374 11.4604063877939 -0.0014872583769529786 0.0005029427763004345 -0.0014871735630000182 11.46329100740249" Properties=species:S:1:pos:R:3:forces:R:3:energies:R:1 energy=-632.0157642086839 stress="-1.394651262153309e-05 -0.0003649747885561477 -5.276313516657606e-05 -0.0003649747885561477 0.00035090844696713077 0.00018059853159134358 -5.276313516657606e-05 0.00018059853159134358 -4.3565924220625e-06" free_energy=-632.0157642086839 pbc="T T T"
Ni      -0.00598235       0.02275418       0.00626386       0.00412227       0.00226028      -0.00392171      -6.20600149
Al       1.41757146       1.44726960       1.43505879      -0.00058188       0.00392964       0.00121028      -4.63866053
Ni       0.01392263      -0.06622054       2.84853872      -0.00311413      -0.00134831       0.00325800      -6.21901629
Al       1.41164822       1.39868102       4.32043580      -0.00005498       0.00149576       0.00096099      -4.45289011
Al       1.40918726       1.40713430       7.14815503       0.00053600       0.00633019      -0.00284431      -4.44509093
Ni       0.02027293      -0.07296541       8.60950040      -0.00225618       0.00116122       0.00459570      -6.21283335
Al       1.42181292       1.43546984      10.03283651      -0.00140202      -0.00034973      -0.00113673      -4.63872404
Ni      -0.01752710       2.85530663      -0.01107203       0.00274154       0.00181946      -0.00173512      -6.19720209
Al       1.39789750       4.33297418       1.42285088       0.00051520      -0.00443230       0.00397472      -4.54381481
Ni      -0.01510600       2.88708907       2.87825551      -0.00253118       0.00126628       0.00647090      -6.26439414
Al       1.43422720       4.31047375       4.29093460      -0.00540918      -0.00293275      -0.00079368      -4.64739457
Ni       0.00017977       2.89688580       5.72799141       0.00056637       0.00191457       0.00217148      -6.22105657
Al       1.43841998       4.29960866       7.16823602       0.00127774      -0.00675888       0.00179501      -4.64421580
Ni      -0.02807164       2.90403490       8.60578935       0.00058758       0.00324717      -0.00460901      -6.27230142
Al       1.39740361       4.34209388      10.05058737      -0.00289434      -0.00365659      -0.00273351      -4.54899598
Al       1.39539544       7.18456487       1.42126059       0.00754269       0.00205997       0.00242975      -4.43388021
Ni      -0.02340730       5.78476798       2.93291566      -0.00264493      -0.00412857      -0.00127645      -6.23022653
Al       1.40464091       7.20488284       4.33273648       0.00289902      -0.00172988       0.00114087      -4.56773962
Ni      -0.00034573       5.72402983       5.75534407      -0.00128063      -0.00752748      -0.00071291      -6.14659571
Al       1.40938428       7.21355098       7.12349111       0.00777871       0.00379745      -0.00264607      -4.56332997
Ni       0.01276299       5.78648181       8.52281304      -0.00232310      -0.00346017       0.00800133      -6.15482172
Al       1.39047957       7.18006604      10.05484663       0.00123748      -0.00143094       0.00071674      -4.43802386
Al       1.39728768       9.97007059       1.39261747      -0.00170114      -0.00273123       0.00311369      -4.54157092
Ni      -0.03479141       8.59861317       2.90034648      -0.00175725       0.00360086      -0.00254277      -6.23009572
Al       1.41680227      10.03498910       4.36286499      -0.00185447       0.00183677      -0.00571072      -4.29245148
Al       1.40692547      10.02163468       7.09434350      -0.00358609       0.00202790       0.00985562      -4.28415758
Ni      -0.06078820       8.57212895       8.57014024       0.00310498      -0.00072275       0.00127837      -6.24017666
Al       1.39102442       9.96869403      10.08015284       0.00410648       0.00264352      -0.00656712      -4.54217624
Ni       2.85515122      -0.02825857       0.02235780       0.00222082       0.00278212       0.00316780      -6.25903451
Al       4.31997308       1.40623452       1.45648231      -0.00415454      -0.00137951      -0.00059007      -4.54201413
Ni       2.79414759      -0.01838768       2.83964423       0.00737280      -0.00064196       0.00430369      -6.15000542
Al       4.29293808       1.35128537       4.29521901       0.00283815       0.00966733       0.00361485      -4.41012262
Al       4.25860059       1.39571620       7.14414230       0.00412104       0.00393256      -0.00046552      -4.54858005
Ni       2.80723320      -0.02685861       8.61816912       0.00035458      -0.00485618       0.00171586      -6.20820813
Al       4.28592871       1.42463705      10.02738533      -0.00046265      -0.00313119      -0.00170395      -4.63330688
Ni       2.84877771       2.89202924       0.00653834      -0.00076427      -0.00339716      -0.00318084      -6.24696648
Al       4.30548348       4.31280431       1.44132894      -0.00010338       0.00023390       0.00267633      -4.63429828
Ni       2.87932936       2.83100305       2.88461351      -0.00322012      -0.00234665      -0.00022695      -6.25795494
Al       4.28819557       4.31399439       4.31204378       0.00061683       0.00592786      -0.00285185      -4.64650026
Ni       2.84149411       2.85977147       5.71953908       0.00510965       0.00326460       0.00319716      -6.20107920
Al       4.27954469       4.29224807       7.15090969       0.00175381       0.00314844       0.00244613      -4.64438286
Ni       2.85087023       2.85037462       8.59037587       0.00078789       0.00076928      -0.00314377      -6.25315756
Al       4.29667352       4.30254323      10.02337429      -0.00042508       0.00468870      -0.00285460      -4.62922338
Ni       2.88170778       5.76863247       0.00561956       0.00021296      -0.00001725       0.00225927      -6.19813383
Al       4.32582245       7.16658748       1.45776194      -0.00833321       0.00123390       0.00064169      -4.64583334
Ni       2.83351958       5.75070440       2.85082310      -0.00657250       0.00276477      -0.00086296      -6.25609269
Al       4.29186993       7.15560477       4.29657696      -0.00237011       0.00046624      -0.00289476      -4.65096683
Ni       2.83778993       5.75940937       5.73321024       0.00090946       0.00240237      -0.00113759      -6.25684905
Al       4.28303726       7.17865429       7.16837191      -0.00254861       0.00120568       0.00232106      -4.65134248
Ni       2.83468585       5.75065206       8.60829860      -0.00560896       0.00478781      -0.00067100      -6.25956849
Al       4.31624932       7.17634076      10.00399878      -0.00292415      -0.00041577      -0.00083964      -4.64224493
Ni       2.89752492       8.57202468       0.00848133      -0.00103751       0.00008806       0.00136135      -6.20483875
Al       4.33934959      10.04783619       1.47023560      -0.00515753      -0.00177302       0.00254317      -4.55445046
Ni       2.85592682       8.63887906       2.89833380      -0.00532893      -0.00016481      -0.00356570      -6.28050913
Al       4.30316213      10.10313672       4.29258901      -0.00039460      -0.00986220      -0.00240227      -4.42885692
Ni       2.88591281       8.59583499       5.71728324       0.00163982      -0.00345775       0.00220118      -6.14228887
Al       4.26972180      10.05217536       7.14369612       0.00054378      -0.00093923       0.00331561      -4.56396069
Ni       2.81934115       8.62134988       8.57549286      -0.00125813      -0.00156186      -0.00277520      -6.27388823
Al       4.30088840      10.01742547      10.01730559       0.00507282      -0.00008588      -0.00563625      -4.64268159
Ni       5.74766250       0.00127076      -0.03113430       0.00089102       0.00290650      -0.00369081      -6.19203437
Al       7.16773356       1.41563855       1.46834072       0.00488568       0.00182861      -0.00505185      -4.54761016
Al       7.14788188       1.40118354       4.26014970       0.00294516      -0.00138514       0.00098653      -4.55900777
Ni       5.78397381      -0.02054828       5.76670593      -0.00171770       0.00008899      -0.00203117      -6.14884779
Al       7.17231793       1.42843373       7.17403849       0.00361829       0.00163091       0.00207709      -4.64111204
Ni       5.72361824      -0.01243845       8.57195114       0.00232632      -0.00627573      -0.00475497      -6.25328136
Al       7.19071213       1.42568838      10.01200834       0.00402065      -0.00141553       0.00182344      -4.64644417
Ni       5.74230885       2.85006241       0.00725228      -0.00117649       0.00244177      -0.00050690      -6.24499232
Al       7.17210100       4.29671536       1.44404582       0.00400228      -0.00212219       0.00009067      -4.63656372
Ni       5.73138497       2.89768508       2.89038412       0.00213027       0.00351133       0.00058382      -6.19803000
Al       7.20696252       4.31930358       4.34949182      -0.00362706       0.00252957      -0.00408690      -4.54386533
Ni       5.71571694       2.82152085       5.70712388       0.00157398       0.00236186       0.00006301      -6.26624009
Al       7.19474199       4.29972573       7.14538200      -0.00146984      -0.00044446      -0.00223326      -4.43938431
Ni       5.73475436       2.87169116       8.58589771       0.00214357       0.00283522       0.00059068      -6.25359640
Al       7.19480612       4.31857483       9.98734092      -0.00156635      -0.00103678       0.00433173      -4.54117762
Ni       5.75933948       5.73362416      -0.02750280       0.00304360      -0.00158467      -0.00008349      -6.25001121
Al       7.15729124       7.17322114       1.44763039      -0.00154063       0.00491890      -0.00332556      -4.63729289
Ni       5.77402982       5.73116026       2.91436121      -0.00128069       0.00250145      -0.00137905      -6.25485860
Al       7.22206056       7.16904675       4.35292393       0.00171712       0.00061890      -0.00155511      -4.44682253
Ni       5.74323209       5.75566900       5.76293643      -0.00106491      -0.00348726      -0.00427629      -6.19945264
Al       7.22981445       7.17251997       7.14609432      -0.00267850      -0.00180762       0.00065553      -4.27902296
Ni       5.72686593       5.72886722       8.54765925       0.00024881       0.00367287       0.00401356      -6.20353743
Al       7.18554121       7.14109792       9.97567062       0.00083546      -0.00054776       0.00117339      -4.55468613
Ni       5.74577116       8.61057908       0.00488918      -0.00161164      -0.00220986       0.00107759      -6.25237500
Al       7.15858385      10.04210459       1.46948078       0.00161418      -0.00170966      -0.00241095      -4.55534901
Ni       5.75971716       8.57096784       2.91624542      -0.00271246       0.00138422      -0.00195984      -6.20930628
Al       7.18691028      10.01992981       4.29615447      -0.00281935      -0.00611944       0.00083144      -4.48490770
Ni       5.70383723       8.62512900       5.70820990       0.00154732      -0.00317511       0.00257840      -6.22860366
Al       7.21507072       9.98868302       7.13294636      -0.00323854      -0.00640908       0.00018488      -4.57133428
Ni       5.77491566       8.59297366       8.55747521       0.00308638       0.00089224       0.00053939      -6.26668693
Al       7.18529429      10.02703465      10.01065557      -0.00039088      -0.00074901       0.00358790      -4.64994354
Ni       8.59978421      -0.02018166       0.02635109      -0.00047845       0.00116020       0.00147833      -6.25557604
Al      10.02736407       1.44088140       1.44667228      -0.00633306      -0.00266284       0.00182687      -4.65058257
Ni       8.67223411      -0.03866083       2.90363659      -0.00028498      -0.00421588       0.00104106      -6.22566114
Al      10.08215568       1.40121554       4.31910159      -0.00024726      -0.00040203      -0.00060137      -4.56109008
Ni       8.58021661       0.01664159       5.71281181      -0.00861241       0.00440315      -0.00094282      -6.15654045
Al      10.09120336       1.39084598       7.14081062      -0.00146042       0.00356726       0.00008429      -4.56120957
Ni       8.64565850      -0.03544931       8.54489650       0.00614239      -0.00327700       0.00551411      -6.26849220
Al      10.02782191       1.41587781      10.01695005       0.00007908      -0.00209112       0.00075374      -4.65161100
Ni       8.62439969       2.91348674      -0.02337486       0.00176637      -0.00323671       0.00227973      -6.25296240
Al      10.05945704       4.34137591       1.41994438       0.00237794      -0.00281692       0.00377898      -4.55526031
Ni       8.60850678       2.87658799       2.90067243       0.00337334      -0.00156695      -0.00183130      -6.25961941
Al       9.99944030       4.33592385       4.33641880       0.00392904       0.00249879      -0.00633802      -4.55858767
Ni       8.63341561       2.81484473       5.74332134      -0.00611030       0.00268167      -0.00278131      -6.21977788
Al       9.99473470       4.33660540       7.15985158       0.00045108      -0.00654030       0.00228590      -4.45797286
Ni       8.63017486       2.85040698       8.56851004       0.00160053       0.00438061       0.00125448      -6.20594606
Al      10.03152594       4.38407964      10.01390398       0.00293326      -0.00946340      -0.00351061      -4.40665684
Ni       8.57584271       5.75860424       0.02627800      -0.00024811       0.00017133      -0.00185551      -6.14119209
Al      10.07915197       7.17267384       1.38968024      -0.00392637      -0.00028962       0.00118954      -4.44719338
Ni       8.62279108       5.76436634       2.84821676       0.00797634       0.00319258      -0.00223779      -6.22401588
Al      10.01358028       7.18457735       4.37776879      -0.00048664      -0.00008127      -0.00373978      -4.27831475
Al       9.98426015       7.17076232       7.10251758      -0.00228811       0.00258399       0.00734544      -4.16034330
Al      10.03374178       7.11339579      10.02517638      -0.00225449      -0.00011739      -0.00634218      -4.33581643
Ni       8.57870658       8.54490092      -0.02467968      -0.00583650       0.00239477       0.00414855      -6.21685831
Al      10.05926249       9.97984324       1.38521757      -0.00365913       0.00239004       0.00514207      -4.55067605
Ni       8.64230860       8.58975023       2.86463745       0.00316285       0.00084084      -0.00317592      -6.23076005
Al      10.05674937      10.00918190       4.37836352       0.00078101      -0.00200582      -0.00872400      -4.28924475
Al      10.05633391      10.01719721       7.08000724       0.00489889      -0.00289006       0.01019274      -4.29085391
Ni       8.66307725       8.61359900       8.59891888       0.00002555       0.00132162      -0.00072949      -6.15203791
Al      10.05870516       9.99553461      10.07589694       0.00247884       0.00491171      -0.00705423      -4.55935335
