250
Lattice="15.611585223123747 -0.3807820350584219 0.13663419133565483 -0.3825518292136531 16.051082917789717 -0.12994503000843768 0.13785814316424305 -0.12944094448284033 16.036026010501022" Properties=species:S:1:pos:R:3:forces:R:3:energies:R:1 rep=5 n_sites=250 energy=-1036.728271484375 stress="0.00035788523382507265 0.00025698859826661646 8.504322613589466e-05 0.00025698859826661646 0.00020237024000380188 9.35519565246068e-05 8.504322613589466e-05 9.35519565246068e-05 0.0004476849571801722" free_energy=-1036.728271484375 pbc="T T T"
Al       0.65056110       0.08970320       0.21213312      -0.00347653       0.00606427      -0.00380273      -3.78318393
Al       2.17731602       1.38043029       2.17220019       0.00670053      -0.00646865      -0.00622638      -4.12470365
Al      -0.37577501      -0.57674692       2.85072230      -0.00810531      -0.00027303       0.00166999      -3.64187896
Al       0.86208376       1.69592529       4.64960184       0.00081867      -0.00268702      -0.00226909      -4.01971292
Ni      -1.08609063       1.38871754       6.23809408       0.00816369       0.00116578      -0.00274034      -5.80416411
Al       0.90345912       1.37277208       7.61718603      -0.00129452       0.00116924      -0.00155500      -3.93533391
Al       0.41169992      -0.09380817       9.93372229      -0.00209320       0.00161119      -0.00113791      -3.88963246
Al       1.68446872       1.58423088      11.62083837       0.00469580       0.00464726       0.00284741      -3.71822786
Al       0.75947944      -0.86097184      13.62759356       0.00114409       0.00563389      -0.00218619      -3.81324136
Al       1.89798717       1.72478745      14.30366633      -0.00029778      -0.00220108       0.00802612      -3.93286818
Ni       0.82242137       2.62750320       0.45742772       0.00060119      -0.00215182      -0.00095782      -6.06878138
Al       2.04758238       4.16548561       2.03740530      -0.01845032      -0.00596139       0.00457401      -4.16547066
Ni       0.01455512       3.28289681       2.99135339       0.00063530       0.00074780      -0.00989125      -5.85685205
Al       1.22623834       5.00925009       4.44788587       0.00031511       0.00244695       0.00335345      -3.83302712
Al      -0.32395249       3.70056787       6.27212744      -0.00091525       0.00265977       0.00244839      -3.89776421
Al       1.05739232       4.92761321       8.30065336      -0.00015480      -0.00145531      -0.00080170      -3.70851207
Al      -0.22860718       2.87908544       9.88801286      -0.00346926       0.00145494      -0.00364265      -3.88375825
Al       1.64677000       4.67894294      11.07522072      -0.00063328       0.00451057       0.00409720      -3.70591152
Al       0.06872726       3.36945189      12.80685962      -0.00003839       0.00535831      -0.00384754      -3.80031574
Al       1.40678313       4.68184930      15.07660545      -0.00294876      -0.00053242      -0.00609201      -4.17258990
Ni      -0.03056188       6.68565211       0.05116519      -0.01117833       0.00688730      -0.00958425      -5.98912656
Al       2.36504531       7.01074860       0.40797282       0.00425172       0.00100639       0.00128806      -4.12897849
Al       0.39379949       7.00267924       2.42649659      -0.00193213       0.00360927       0.00098731      -4.06769037
Al       1.41593999       8.01923107       4.80003520       0.00163884      -0.00344846      -0.00112222      -3.92102116
Al      -0.28498354       6.51870422       6.37293777       0.00355231       0.00330879       0.00567936      -3.69464529
Al       0.71923930       8.36086409       8.50132205      -0.00250802       0.01276926       0.00433158      -3.60409117
Al      -0.34554406       6.43709501      10.14179337      -0.00608641      -0.00006017      -0.00237827      -3.74643970
Al       1.06524312       8.59056330      11.33190930       0.00591066      -0.00469053      -0.00030074      -3.93271679
Al       0.07435769       6.15527527      12.76360131      -0.00710861       0.00340103       0.00143414      -3.80628836
Al       1.17706940       8.04125693      14.23033298       0.00679800      -0.00916401       0.00705370      -3.92349905
Al       0.22243990       9.09554639       0.61990144      -0.00115462       0.00739244      -0.00131859      -4.15276200
Al       0.74477491      11.49650996       1.71150636       0.00077209      -0.00503686       0.00231984      -4.04293829
Ni       0.22234161       9.43422503       3.14593864      -0.00138780      -0.00364833      -0.00326630      -6.05153716
Al       1.41566210      10.85623604       4.71778633       0.00034024       0.00019227       0.00220887      -3.89934248
Al      -0.53340921       9.64487068       6.52002955      -0.00180116      -0.00463516       0.00210689      -3.67651939
Al       1.57984833      11.17491518       8.05015237      -0.00937044       0.00691395       0.00058060      -3.67613077
Al      -0.95136045      10.60395511       9.03049757       0.00683604      -0.00355452      -0.00537715      -3.68946540
Al       1.73266528      11.43614992      10.98363551       0.00431584      -0.00957207       0.00238501      -3.86529821
Ni      -0.79557042       8.72929335      12.85108903       0.00225759       0.00315844      -0.00769242      -6.01282358
Al       0.37092473      10.58102872      14.11368840      -0.00034860       0.00924480       0.00423055      -4.15328169
Ni      -1.16246586      11.38368380      -0.00571203       0.00260776       0.00428782       0.00195273      -5.96360791
Al       1.38950431      14.27688568       1.54575201      -0.00275736      -0.00572937       0.00361480      -3.69115245
Al       0.30594132      13.25184501       3.83330961      -0.00137540      -0.00479026       0.00188401      -3.70170367
Al      -0.44715952      15.33704213       5.48751875      -0.00038517       0.00181437       0.00002775      -3.91883945
Al      -0.04846954      12.57864636       6.43132389       0.00118241       0.00059381       0.00442608      -3.70874977
Al       1.39736376      14.78540046       7.48992310       0.00114984      -0.00234053       0.00299437      -3.67782485
Al      -0.13459570      13.20830024       9.32617013       0.00249968      -0.00279143      -0.00540645      -3.84678805
Al       1.65753678      14.20218633      11.31375425       0.00136007       0.00210071      -0.00770116      -3.81488633
Ni       0.55108336      12.70743706      12.83058699      -0.00926483       0.00210813       0.00057868      -5.81681138
Al       0.46664161      13.08099388      15.30676465      -0.00566347      -0.00435850      -0.00405119      -4.05304521
Al       3.58378486       0.03558963      -0.31648652      -0.00938606       0.00429523      -0.01077240      -3.77503991
Al       5.64484197       1.69736025       0.59991646      -0.00099750       0.00137364       0.00181392      -4.20232463
Al       2.36210373      -0.71697454       4.11520332       0.00149556       0.00122255      -0.00276992      -3.68938518
Al       4.74882607       1.25803860       3.85043580       0.00310706       0.00060195       0.00055295      -4.04645389
Al       3.17740250       0.79906810       6.16830194      -0.00066498       0.00802564      -0.00782732      -3.82897627
Al       4.73829921       1.92807216       8.21367365      -0.01036371       0.00910385       0.00414002      -3.87059450
Al       3.09138189       0.08092996       9.65182439       0.00343390       0.00383849       0.00166994      -3.70712078
Al       4.47272203       2.00214034      11.17970003      -0.00115365      -0.00524685      -0.00093970      -4.14847487
Al       3.43026872      -0.11284340      12.96880314      -0.00224748       0.00278498      -0.00424168      -3.78519726
Al       5.12241184       1.82036900      13.90849622       0.00227405      -0.00259379       0.00808200      -4.02304149
Al       3.37585234       3.17684880      -0.12866270      -0.00035781      -0.00457108      -0.00259125      -4.08903575
Al       4.65056926       5.17462089       1.16320298      -0.00213761      -0.00374499       0.00742042      -4.26893634
Ni       4.13423924       2.88252584       2.16286379       0.00491941      -0.01092298      -0.00009940      -5.77348667
Al       3.88053292       4.24419896       4.15382782      -0.00188333       0.00634343       0.00929874      -4.02507579
Al       2.47501836       3.40325252       6.46817768      -0.00217692       0.00430369       0.00478173      -3.63845062
Al       4.35456687       4.71351357       8.11479953       0.00182152      -0.00583705       0.00263163      -4.00615370
Al       2.51497973       2.84760146       9.28764111       0.01065707       0.00074847      -0.00030779      -3.69403315
Al       4.38731390       4.98957067      10.84532481      -0.00509703      -0.00028719      -0.00566209      -4.04998296
Al       3.37777513       3.87132112      13.17167258      -0.00014195       0.00075611       0.00006126      -4.06093216
Al       6.49884970       3.98433063      14.96171389       0.00308487       0.00108534       0.00018211      -4.24433821
Ni       3.71994584       5.62320150      -1.05668263       0.00129288      -0.00015133      -0.00539328      -5.97742075
Al       4.90286128       7.92229482       1.58147749      -0.00254554      -0.00557326      -0.00115496      -4.00742519
Al       3.04078115       6.60212851       3.02365933       0.00079757      -0.00237276       0.00004940      -3.70199800
Al       4.39650898       7.88456560       4.98568299       0.00755965       0.00028908      -0.00153825      -3.86706579
Al       2.70717013       6.24820648       6.50620267       0.00098032       0.00206175       0.00257179      -3.87059230
Al       5.02443377       7.40780163       7.74519452      -0.00283480       0.00369996       0.00010866      -4.07846540
Al       2.61565556       6.75211285       9.51914313       0.00204055       0.00221846       0.00054934      -3.66115344
Al       4.80711559       7.64891157      10.95113887       0.00302871       0.00258153       0.00497875      -3.79152000
Al       2.92664456       6.62445951      12.76557075       0.00512369      -0.00058013      -0.00179809      -3.78911042
Al       4.49944432       7.95163191      14.80927539       0.00407681      -0.00611275      -0.00075103      -4.25002563
Al       2.52606998      10.00532362      -0.46132044      -0.00124492       0.00071323       0.00324607      -3.64368153
Al       4.60100077      10.65937866       1.45058032       0.00191551       0.00586663       0.00176597      -3.79488015
Al       2.52694881       9.29252211       2.43834546      -0.00140417       0.00147239      -0.00010014      -3.94341743
Al       4.11060402      10.76465125       5.11264216       0.00163348       0.00534844      -0.00329118      -3.63664174
Al       2.84181471       9.05983751       6.90606265      -0.00651538       0.00374365       0.00740367      -3.60972130
Al       4.42643087      11.16281582       7.91148566       0.00319593      -0.00221974      -0.00539579      -3.70273674
Al       3.16772570       9.41829214       9.67300389       0.00007783       0.00118957      -0.00047152      -3.71261108
Al       4.61944970      11.42558084      10.87971333       0.00589674      -0.00126608      -0.00552344      -3.70336163
Al       3.37386210       9.53611765      12.70732375       0.00089348       0.00480201      -0.00054583      -3.72119308
Al       5.03363682      10.86455434      14.69171187       0.00502583      -0.00129317      -0.00169776      -3.89938635
Al       3.02396201      12.58257085       0.25939539      -0.00272461       0.00284038       0.00271838      -3.63602650
Al       3.91391839      15.04005565       1.97456859       0.00296120       0.00811328       0.00067660      -3.84798062
Al       3.05982617      12.65741542       3.14043416      -0.00603062       0.00165346       0.00707656      -3.73427308
Al       4.74603540      14.79680478       4.71906081       0.00305680      -0.00119089      -0.00647360      -3.89677572
Al       2.81953674      13.03290147       5.96745682       0.00501853      -0.00605202       0.00928654      -3.67034447
Al       4.20910090      14.99844734       7.48064175      -0.00188999      -0.00183673       0.00020508      -3.88123679
Al       3.04504930      13.21203689       9.19778524       0.00200620      -0.00048247      -0.00533818      -3.73126078
Al       4.44550881      13.98141169      11.56491048      -0.00111373      -0.00200614       0.00420493      -3.89564455
Al       2.78916673      12.19577579      13.51401363       0.00165215       0.00489797      -0.00162955      -3.89441878
Al       4.75470901      13.83894409      14.45734195      -0.00165516      -0.00808926      -0.00645976      -3.81352854
Ni       5.99362228      -0.72076990       0.31194271       0.00111020       0.00376017       0.00144179      -5.98820013
Al       8.19639639       0.50317643       0.53722085      -0.00415814      -0.00866269       0.00239930      -4.13923973
Al       6.86833477      -0.60275697       2.63771475      -0.00098303      -0.00152685      -0.00464907      -3.83027864
Al       7.73013220       1.21227936       4.97906194       0.00064069      -0.00115583       0.00442962      -3.95644748
Ni       5.62284983       0.82870081       6.21698147       0.00381713       0.00035749      -0.00402893      -6.03947616
Al       7.39873694       1.94276610       7.83175703       0.00546838       0.00076377       0.00148657      -3.82237804
Al       5.99871485       0.09186211       9.81844783       0.00343282      -0.00651392       0.00540221      -3.90961838
Al       7.34272517       1.92290892      12.02100509      -0.00653496       0.00047879      -0.00234263      -4.31331116
Ni       5.74031660       0.10456689      12.20836158       0.00911525       0.00449412      -0.00546905      -5.84942359
Al       9.06089843       2.01902294      14.52681117       0.00089783       0.00281639      -0.00100889      -4.20233345
Ni       7.78747628       2.91779288       0.59451400      -0.00196672      -0.00503700      -0.00148982      -5.79750973
Al       7.57993296       5.23635061       1.28088400       0.00052378       0.00077377       0.00115860      -4.21547967
Al       6.38773004       3.27254086       2.74491115      -0.00214837       0.00244047       0.00389397      -3.99522078
Al       8.18657603       4.33588728       4.80181818       0.00126271      -0.00066721      -0.00265887      -3.75098872
Al       5.74806282       3.20461364       5.77918212       0.00241967       0.00179651       0.00419298      -4.03851807
Al       6.97703353       5.03503471       7.34298822      -0.00318241      -0.00315553      -0.00613515      -3.99933207
Al       6.50551912       3.65880381       9.90256740      -0.00385272      -0.00418043       0.00381610      -3.95957708
Al       8.01241485       4.66576398      12.49255098       0.00270733      -0.00424902       0.00117610      -4.14402801
Ni       5.73373629       3.69790142      12.41067198       0.01236653      -0.00385449       0.00025001      -5.97757506
Al       8.84736387       5.87821191      14.87918228      -0.00436558      -0.00857291      -0.00026748      -3.86881983
Ni       6.19652883       6.58313024      -0.34060470       0.00232893      -0.00098304      -0.00430453      -6.11913776
Al       7.70405775       7.85035824       1.18600316       0.00424752       0.00020236       0.00304141      -4.16097206
Al       5.93670316       6.02692558       3.47368495      -0.00402251       0.00035320      -0.00477493      -4.04146940
Al       7.19693569       7.14190605       5.48732373      -0.00015949       0.00215060       0.00276990      -4.01419020
Ni       5.10133886       5.64287329       5.83830305      -0.00033758      -0.00142752       0.00271941      -6.07649052
Al       7.84608791       7.63641374       8.14224764      -0.00028877       0.00018892      -0.00269382      -3.84863448
Ni       6.20682253       6.09758374       9.42428287       0.00463566       0.00231550       0.00367509      -6.05581832
Al       7.49785351       7.46093608      11.06650339      -0.00742555       0.00438327      -0.00133251      -4.12665665
Al       5.61279642       5.95421308      13.28820174       0.00190945       0.00096875       0.00364934      -4.14450163
Al       7.41993142       8.00284428      14.12466531      -0.00905461       0.00356525       0.00365378      -4.22264683
Ni       6.15160240       9.27806373      -0.03676769      -0.00276370      -0.00166638      -0.00456585      -5.97226888
Al       7.38384374      10.66321999       1.56543636       0.00182806       0.00093423       0.00309794      -3.97282535
Al       6.01917742       9.57762775       3.69511705      -0.00310777       0.00269110       0.00144178      -3.55804169
Al       8.03865968      11.39768527       4.85706175      -0.00132215       0.00380323      -0.00875300      -3.75291944
Al       6.33705013       9.59722553       6.45858695      -0.00149252       0.00394965      -0.00672208      -3.67974293
Al       7.68887571      11.34272106       7.97712968       0.00107700       0.00075225       0.00008691      -3.70340002
Al       6.12512527       9.53058883       9.38816785       0.00266814       0.00453932      -0.00187006      -3.71352065
Al       7.49609057      11.47436763      10.72866386       0.00218865       0.00346948       0.00792525      -3.68473697
Al       6.13618018       9.69522833      12.30667240      -0.00261329       0.00868611       0.00439277      -3.66252673
Al       7.79015979      10.68846161      14.69385021      -0.00509563      -0.00603719      -0.00033049      -3.85770684
Al       5.73329581      13.07709859       0.96773919      -0.00331715      -0.00828514       0.00378157      -3.89440513
Al       7.65968304      13.89293257      -0.73225198       0.00729389       0.00265953       0.00099820      -3.95577055
Al       5.80966775      12.38100849       3.55175761      -0.00431644      -0.01022449       0.00157221      -3.71347165
Al       7.61096513      14.36568118       4.71752978      -0.00270306      -0.00291281      -0.00326091      -3.67293000
Al       5.91881032      12.71469928       6.28541434      -0.00509907      -0.00846403      -0.00341691      -3.71887004
Al       6.86050116      15.26441760       7.16842480       0.00614741      -0.00191781       0.00362115      -3.87110424
Al       5.91628393      13.30357848       9.07829477      -0.00426942       0.00053882       0.00204570      -3.76038742
Al       7.17761603      14.65934578      11.37494531      -0.00444722      -0.00122337      -0.00718178      -3.81991160
Al       6.57828719      12.45375310      13.01631440      -0.00012715      -0.00056816      -0.00182711      -3.56653178
Al       6.76969654      15.85699819      13.98390666      -0.00204287       0.00597873      -0.00178646      -4.24931812
Ni       9.49058283      -0.32085554      -1.39541302       0.00426678       0.00082794       0.00195507      -6.00079894
Al      11.01622245       0.13803666       0.51667806      -0.00027786      -0.00488979       0.00574602      -3.88090801
Al       9.60924742      -0.32400420       2.78857555       0.00006237       0.00484247      -0.00937499      -3.69893920
Al      10.70953661       1.13483864       4.73215052      -0.00305352       0.00173700       0.00346417      -3.71397603
Al       9.82023173      -0.10265057       6.89128432      -0.00318496      -0.00018782       0.00602918      -3.69476485
Al      11.07988897       1.28710153       8.86006404      -0.00518572      -0.00732663      -0.00673356      -3.83201385
Al       8.75542515       0.09922647       9.45943744      -0.00068572      -0.00510032       0.00473189      -3.59829223
Al      11.77896361       1.97783954      11.51134485       0.00748852      -0.00263909      -0.01593167      -4.14785284
Al       9.64908181       0.36502326      12.24431757      -0.00042186      -0.01148221       0.00109440      -4.04043621
Al      11.75767394       0.62495486      13.92194025      -0.00644759      -0.00637463       0.00238275      -4.07547820
Al       9.99660231       3.82881191       0.35884220       0.00168315      -0.00290963      -0.00337233      -3.88568556
Al       9.95714193       4.88112258       2.87704715       0.00346500       0.00071055       0.00307142      -3.83209908
Al       8.87380807       2.30275336       2.69891235       0.00159086       0.00214375       0.00485614      -3.85753256
Al      11.49500577       3.75502779       4.76604524       0.00210937       0.00742730       0.00172648      -3.68555987
Al       9.78646164       2.64838652       6.75530762      -0.00277601      -0.00434666       0.00459741      -3.58388352
Al      11.23529836       4.32905059       9.00545020      -0.00789270       0.01249650      -0.00799283      -4.05787235
Al       9.11853465       2.78866513       9.97855100       0.00133228      -0.00033165       0.00988030      -3.84858280
Al      10.53811785       5.11948478      11.62680114      -0.00284697      -0.00797560      -0.00388908      -4.13417011
Ni       9.60918989       2.82690187      12.31740721      -0.00299058       0.00911466      -0.00134130      -5.81942546
Al      11.28219893       3.68637975      13.84245084      -0.00383923       0.00255880       0.00566533      -4.01265746
Al      11.41092388       6.00731952      -0.48329936       0.00331408       0.00265127       0.00152382      -3.84578574
Al      10.38746388       7.42518935       1.90988398       0.00187242       0.00473784      -0.00082657      -4.01260948
Ni       8.32671794       6.58050276       3.27752620      -0.00551681       0.00333488       0.00720333      -5.98692906
Al      10.00898631       7.05428543       5.11376915       0.00059710       0.00003284       0.00236464      -3.81307065
Al       9.64741721       5.25030890       6.99539819       0.00614688       0.00100579       0.00020614      -3.55160320
Al      10.79957337       7.20570145       8.39768309       0.00608158       0.00171939      -0.00019515      -3.78549159
Al       8.62877219       5.43508028       9.54098605       0.00100374      -0.00332905      -0.00315366      -3.79264116
Al      10.84479857       7.77742313      11.09158059      -0.00094901      -0.00341317       0.00138347      -4.07245737
Ni       9.14562827       6.96130154      12.67966885      -0.00160554       0.00185905      -0.00724583      -5.78548318
Al      10.84742376       8.11279621      13.95988773      -0.00324984       0.00176745       0.00723461      -4.08087736
Al       9.67206288       9.45260005       0.19675466       0.00613138      -0.00313994       0.00209738      -3.81610203
Al       9.90108243      11.04539192       2.70631252       0.00052565       0.00173669      -0.00084810      -3.85227251
Al       8.62169464       8.93952559       3.70024022       0.00041769      -0.00570041      -0.00530237      -3.87933767
Al      10.96016952      11.34347465       5.25572070      -0.00532401       0.00356236      -0.00652208      -4.06193733
Al       9.37168777       9.39302025       6.60404993      -0.00403465      -0.00055913      -0.00474253      -3.65683353
Al      10.52116017      11.71767385       8.22980779       0.00558465      -0.00345856       0.00305806      -3.84969562
Al       9.18721200       9.52548839       9.52901062       0.00700818      -0.00415902       0.00278400      -3.72511578
Al      10.16651586      11.82797396      11.04571975      -0.00453241      -0.00192358      -0.00104757      -3.83701277
Al       8.97990620       9.50846061      12.33553533      -0.00296763       0.00637835      -0.00457734      -3.90623993
Al      10.50513758      11.07684434      14.05689795       0.00731078       0.00052407      -0.00542702      -3.85162091
Al       9.37618410      12.11987337       0.31591695      -0.00096926       0.00936436      -0.00286026      -3.58669043
Al      11.18478365      13.41896306       1.93389753       0.00179721       0.00314501       0.00083797      -3.86607027
Al       8.22973077      13.17609179       2.44544848       0.00575272       0.00104323      -0.00153311      -3.65359151
Al      10.35934207      14.17297099       4.52749202       0.00388415      -0.00056683      -0.00247264      -3.90910518
Al       9.01670803      13.28941828       6.70786307       0.00143331      -0.00427102       0.00157728      -3.80631423
Al      11.24028564      14.57463306       8.66899252       0.00186312       0.00388809       0.00204714      -4.02365023
Al       8.72466202      13.51109448       9.43860740      -0.00075060       0.00714687       0.00399925      -3.59685445
Al      11.63685824      14.82584097      11.45089574       0.00589129       0.00109699       0.00236243      -4.00548989
Al       9.30692288      13.72099897      12.84179804      -0.00233579      -0.00062203       0.00299424      -4.01701862
Al      10.95737354      13.79905318      14.97785855      -0.00222680      -0.00291532      -0.00536358      -3.99676055
Al      13.54273721      -1.11525296       0.71835195       0.00177011      -0.00039275       0.00099958      -3.63612151
Al      14.36792021       1.42433200       1.68483379       0.00388792       0.00676617       0.00036579      -4.06794149
Al      12.49393493      -0.33366271       3.12657629       0.00132625      -0.00345471       0.00028400      -3.70744097
Al      13.65896185       1.90073293       4.32256943      -0.00282183      -0.00074129       0.00368732      -4.09481579
Al      12.62545201      -0.40771036       6.07866991       0.00075711       0.00026657       0.00045985      -4.18209106
Al      13.83530133       0.52974868       8.71886658       0.00017167      -0.00259934      -0.00335430      -4.16916847
Ni      13.89322232      -1.55732495      10.04175194      -0.00963984       0.00709990       0.00067124      -5.90813011
Al      14.29509599       0.48275088      12.05304032      -0.00626919      -0.00700156       0.00552812      -3.97786605
Al      13.67074468      -1.18614855      14.12104524       0.00591332       0.00467413       0.00442362      -3.58573604
Al      14.82846913       1.22697226      14.93208848       0.01175686      -0.01061356       0.00794122      -4.10309291
Al      12.43869108       2.48218076      -0.13711734      -0.00712524      -0.00387499       0.00496402      -3.83504617
Al      14.96477295       4.19866560       1.18778477       0.00627169      -0.00330344      -0.00467235      -4.23607326
Al      11.55184087       2.08326525       2.38689842      -0.00158376      -0.00230054      -0.00535818      -3.71092713
Al      14.19793813       4.67996872       4.02860509      -0.00827709       0.00077388       0.00530879      -3.90646756
Al      12.67534406       2.52492894       6.99172882      -0.00608030      -0.00272223      -0.00471956      -4.12023664
Al      13.91070162       4.62211827       8.49838134       0.00563994       0.00364989       0.00507984      -4.00514060
Ni      12.94610221       2.65361200       9.47220310       0.00356066       0.00054097       0.00950788      -5.76179570
Al      13.49747949       4.04243423      11.45808606       0.00132675      -0.00105081      -0.00283061      -4.15540844
Ni      13.35567094       2.43989726      13.46701249       0.00141927       0.00224792      -0.00211833      -6.01538002
Al      13.94622436       4.48270204      14.65649367       0.00407698      -0.00702971       0.00252265      -4.05160260
Al      12.30580603       4.50292749       1.68032526      -0.00148369      -0.00597341       0.00044094      -3.60364211
Al      13.44038073       6.88907808       1.43763993       0.00040141       0.00274351      -0.01683933      -3.94732499
Al      12.13671448       6.28598623       3.71890928      -0.00915901      -0.00290249       0.00301106      -3.58864582
Al      14.19774021       7.70554391       4.49361608       0.00244755       0.00728019      -0.00053273      -3.88717538
Al      12.46280026       5.79172124       6.35200515      -0.00162227       0.00105834       0.00059002      -3.67028797
Al      13.61247138       7.41243795       8.30875284       0.00287522       0.00052607       0.00525247      -3.89767289
Ni      12.55551635       6.13458346      10.23433063       0.00011318      -0.00538695      -0.00063753      -6.17649925
Al      13.68579839       8.30014026      10.85163301       0.00544062      -0.00815570       0.00928010      -4.05491108
Al      12.92661250       6.41654896      12.62228948      -0.01321612      -0.01048256      -0.00871217      -3.95626235
Al      13.96803849       7.14592713      14.90116289      -0.00251964      -0.00042005       0.01957737      -4.08315927
Ni      11.87613466       8.33244861       0.09019286       0.00347734       0.00231804      -0.00110364      -5.95096737
Al      13.68272995       9.57518444       2.05219876       0.00104596       0.00135681      -0.00406980      -4.20280534
Al      11.59881344       9.08143183       3.79280360      -0.00304274      -0.00387534       0.00748930      -3.85228080
Al      14.15983741      10.61405170       4.47501325       0.00221734       0.00242614      -0.00180057      -4.06602460
Al      12.15029857       8.68743599       6.39709601      -0.00103555       0.00033183      -0.00503132      -3.67602086
Al      13.02424447      11.23788887       7.12652873       0.00038907       0.00230356      -0.00224058      -3.83449984
Al      11.93215956       9.67305577       9.17870262      -0.00262108       0.00945842      -0.00265385      -3.69619405
Al      14.75631458      10.61430021      11.89208443       0.00399861       0.00168334       0.00315735      -3.98679370
Al      12.04781559      10.21375150      12.05205570       0.00432693      -0.00789034       0.00377344      -3.84073865
Al      13.23485892       9.59570986      14.46133529       0.00254814      -0.00616206      -0.00468829      -4.10775846
Al      11.92090946      10.91517269       0.63159945       0.00309637      -0.00635140       0.00498033      -4.16157061
Al      13.97627734      12.64836010       1.82330060       0.00012027      -0.00038433      -0.00246910      -4.07003123
Ni      12.26556398      11.35524162       3.08667463       0.00441545      -0.00079675      -0.00284989      -6.00680774
Al      13.05009927      13.21741145       4.52528552      -0.00098115       0.00491261       0.00319609      -4.14327741
Ni      11.52873878      13.29014287       6.52829616      -0.01271377       0.00152756      -0.00533061      -6.06540966
Al      13.66556538      13.83693360       7.61704068       0.00782257      -0.00166228       0.00297049      -4.01344979
Al      12.71405768      12.19544735      10.08976330      -0.00310142      -0.00129560      -0.00592706      -3.95026511
Al      14.15596836      13.37473701      12.02509133       0.00489353       0.01230364       0.00633849      -4.14940012
Ni      11.68565933      12.73269812      12.78192940      -0.00419405      -0.00125956      -0.00462051      -6.07076859
Al      13.34211400      12.29908426      14.63890275       0.00973300      -0.00017496      -0.00906511      -4.09826249
