114
Lattice="11.436715536709434 0.0008164561520554675 0.003527555050804951 0.0008168354318876009 11.421674700802182 0.004558299673721328 0.0035274846958581797 0.004558348832956091 11.415850480352232" Properties=species:S:1:pos:R:3:forces:R:3:energies:R:1 energy=-597.9693511302451 stress="-0.001278706470714263 -4.173903478331044e-05 -0.0003921673858779362 -4.173903478331044e-05 0.000373349535625922 -0.00048661152602618156 -0.0003921673858779362 -0.00048661152602618156 0.0010023025641102763" free_energy=-597.9693511302451 pbc="T T T"
Ni       0.02671816      -0.02096468       0.01059471      -0.00154128      -0.00090531       0.00125320      -6.22047645
Al       1.39071120       1.47236584       1.44429819      -0.00735198      -0.00546082       0.00493956      -4.48140123
Ni       0.00691688      -0.04939862       2.85376206       0.00081926      -0.00067812      -0.00665858      -6.22515176
Al       1.39813069       1.46557804       4.23357264       0.00699008       0.00661237      -0.00448887      -4.59155367
Ni       0.04851059       0.02846551       5.70681858       0.00101938      -0.00247818       0.01422323      -6.22631580
Al       1.48332734       1.44296955       7.17818147       0.00452206      -0.00600076       0.00057795      -4.48669559
Ni      -0.00177346       0.01016279       8.56895691       0.00106014      -0.00499676      -0.00809009      -6.22082909
Al       1.42674372       1.48348323      10.00265481       0.00898754      -0.00833228      -0.00285593      -4.36879939
Al       1.46318929       4.29000077       1.46500687      -0.00542240       0.00750187      -0.00692444      -4.42525634
Al       1.40056815       4.32448735       4.23229527       0.01081888      -0.00055316       0.00977459      -4.32387786
Ni       0.02670056       2.83075734       5.74289881       0.00558016      -0.00223577      -0.00080520      -6.14934321
Al       1.40716445       4.26822556       7.14114463      -0.00825761      -0.00730583      -0.00034578      -4.54222614
Ni      -0.02531311       2.84893810       8.53205928       0.00128956       0.00781759      -0.00317998      -6.14348449
Al       1.44111037       4.19995120       9.98312442       0.00282429      -0.00145402       0.00152360      -4.47200872
Ni       0.07642269       5.72711687       0.01437175       0.00548980      -0.00355615       0.00890653      -6.15514263
Al       1.51450859       7.11352772       1.41379661      -0.00439635      -0.00544419       0.00861134      -4.61123378
Ni      -0.02880740       5.75344824       2.78734622       0.00541227       0.00191374      -0.00053666      -6.07051583
Al       1.50740189       7.05980264       4.28424710      -0.00821368       0.00276765      -0.01137524      -4.23529614
Al       1.37873251       7.17189727       7.08131632      -0.00405443       0.00560775      -0.00347116      -4.20310123
Ni       0.02327638       5.71172664       8.63137470       0.00216543      -0.00055162      -0.00150439      -6.24621168
Al       1.49331074       7.19467601       9.94721026       0.00037133      -0.00041705      -0.00340316      -4.59676044
Ni       0.03032329       8.53757221      -0.02271358      -0.00252931       0.00668529      -0.00602762      -6.26778108
Al       1.43701881       9.96846850       1.42874092      -0.00812258       0.00091342       0.00021659      -4.66666772
Ni       0.07069645       8.48402387       2.85724965      -0.00234439       0.00295092       0.01051183      -6.20869967
Al       1.42706464       9.93562914       4.32639526      -0.00280327      -0.00627281       0.00047421      -4.49124970
Al       1.46066274       9.97492784       7.14660519      -0.00290118       0.00520700      -0.00175463      -4.17295572
Ni       0.00330467       8.57587999       8.57283370      -0.00407800      -0.00141297       0.00456381      -6.12607489
Al       1.47841775      10.00894686       9.96126040       0.00282136       0.00266769      -0.00491017      -4.48689473
Ni       2.82488076       0.03092355       0.02628125       0.00141099       0.00422044       0.00114865      -6.15729760
Al       4.34783325       1.38962706       1.44457555      -0.00166556      -0.00223821       0.00222659      -4.47464329
Ni       2.82462123      -0.00778506       2.86157538      -0.00687376       0.00321573      -0.00190755      -6.23662005
Al       4.31888423       1.40248303       4.25319029      -0.00496948       0.00121334       0.00014280      -4.59139748
Ni       2.82865293       0.02262452       5.67897013       0.00416801       0.00105558      -0.00205016      -6.15623316
Al       4.21415746       1.44301488       7.16465648      -0.00423267      -0.00702963       0.00230945      -4.48715299
Al       4.30465516       1.39578906      10.00714918      -0.00898608       0.00509285       0.00701977      -4.37920354
Ni       2.91382460       2.82903658       0.04407069      -0.00635166      -0.00559455      -0.00753023      -6.16667019
Al       4.24692942       4.33356713       1.45675737       0.00696722       0.01259872      -0.01006095      -4.60902753
Ni       2.90241029       2.82574265       2.84770588      -0.00045162      -0.00116394       0.01484965      -6.16015672
Al       4.27884563       4.36930982       4.29536961      -0.00040580       0.00587283       0.00710618      -4.51350357
Ni       2.83231411       2.90339269       5.63395933       0.00433723      -0.00369275      -0.00447752      -6.24507966
Al       4.28844992       4.25255969       7.18155846       0.00155986      -0.00384227      -0.00438710      -4.39995424
Al       4.28258378       4.27222992       9.88528698      -0.00399401      -0.00865393       0.00849889      -4.48095870
Ni       2.87053175       5.67714899      -0.12691788       0.00937054      -0.00381193       0.00013333      -6.24121954
Al       4.23401223       7.09961102       1.44771047       0.01039712      -0.00858821       0.00391474      -4.61383050
Al       4.25472760       7.08920833       4.35586760       0.00707916       0.01574444      -0.00372953      -4.31587312
Ni       2.85099668       5.68914328       5.82146658       0.00482313       0.00396560      -0.01165210      -6.02174073
Al       4.26258175       7.17846979       7.13835262       0.01281199       0.00231057       0.00945586      -4.30900880
Ni       2.81511725       5.72636536       8.48512149      -0.00343363       0.00638454       0.01243424      -6.14057679
Al       4.28641879       7.14845199       9.88493946      -0.00676467       0.00541902       0.00401580      -4.47308166
Ni       2.91938360       8.61189565       0.00258453       0.00222579       0.00573910      -0.00504066      -6.22173236
Al       4.34371951      10.03435487       1.44518177      -0.00673209      -0.00220852       0.00095280      -4.47435506
Ni       2.88219519       8.59983673       2.86061217       0.00257309       0.00013328       0.00719643      -6.14882003
Al       4.28048292       9.99811410       4.30256712      -0.00058033      -0.00276173      -0.00209070      -4.51532967
Al       4.19414643      10.01513119       7.16508834      -0.00079391      -0.00110120       0.00290338      -4.30721979
Al       4.30392514      10.06818040      10.00131150       0.00331516      -0.00584671       0.00522004      -4.36529796
Al       7.09374144       1.40710620       1.45149408       0.00082692      -0.00059271      -0.00031736      -4.45454610
Al       7.11583461       1.41020106       4.25860136       0.00770723       0.00695808       0.00025099      -4.57724742
Ni       5.66933634      -0.00413420       5.76581617      -0.00294753       0.00002923      -0.00539549      -6.22800465
Al       7.19743279       1.43526292       7.11496833      -0.00422395       0.00334262      -0.00364289      -4.67828822
Ni       5.71924300       0.02092925       8.52320185      -0.00412413      -0.00920814      -0.00646463      -6.14567407
Al       7.12255785       1.39970890      10.03883339       0.01319435       0.00162529      -0.00040043      -4.57880910
Ni       5.70644372       2.92758722      -0.01594353       0.00505865      -0.00961267      -0.00690916      -6.23934751
Al       7.17310449       4.34280728       1.39495948      -0.00075172       0.00472278      -0.00139438      -4.59219131
Ni       5.70095805       2.93395731       2.86406613       0.00063346      -0.00536529       0.00366685      -6.22913108
Al       7.10792020       4.31999921       4.33152721       0.00518141      -0.00971551       0.00336739      -4.57636482
Ni       5.68634657       2.82388127       5.73117785       0.00100713      -0.00070414      -0.00141226      -6.22097213
Al       7.12409268       4.29741217       7.13494528      -0.01045184      -0.00530460       0.00656709      -4.49129957
Ni       5.74322299       2.79130818       8.56067350      -0.00351493       0.00310221       0.00042787      -6.14906485
Al       7.14414677       4.35877132       9.98469803       0.00329383      -0.00363492      -0.00403711      -4.47505402
Ni       5.64906731       5.71581810       0.00691223      -0.00969197       0.00038076       0.00322087      -6.15608997
Al       7.17283390       7.11089400       1.40515541      -0.00005441      -0.00136689       0.00136928      -4.59443405
Ni       5.74924032       5.72433977       2.83130820      -0.00238629       0.00736517      -0.00564276      -6.15248834
Al       7.09649824       7.10650432       4.33810525       0.00394419       0.00545781      -0.00302367      -4.58044935
Al       7.10042619       7.10420418       7.15206865      -0.00471786       0.01189032       0.00148047      -4.48484859
Al       7.13184924       7.08174991       9.96742261      -0.00223241       0.00511421      -0.00160140      -4.46635081
Ni       5.69447288       8.50642870      -0.03455425      -0.00184142      -0.00115221       0.00343112      -6.23078159
Al       7.09456872       9.99689995       1.45712919       0.00186163       0.00037774       0.00250622      -4.45539349
Ni       5.65563337       8.48645084       2.90578455       0.00354387      -0.00420223       0.00019753      -6.22497762
Al       7.09883138      10.01802116       4.25632454       0.00212498      -0.00506214       0.00114865      -4.57478877
Ni       5.70949077       8.60898532       5.76211897       0.00473249       0.00004340      -0.00497415      -6.14747045
Al       7.18596824      10.01385099       7.13877885       0.00027911       0.00538344      -0.00005184      -4.66509367
Ni       5.70877383       8.63981574       8.52938010      -0.00249509      -0.00117473      -0.00165520      -6.14732372
Al       7.11600953      10.03823408      10.02426268      -0.00226151      -0.01449648      -0.00474377      -4.58077783
Ni       8.60555238       0.00802315       0.05248097       0.00207026       0.00121521       0.00143207      -6.22124468
Al      10.05649762       1.46921252       1.44387712       0.00089658      -0.00582531      -0.00004159      -4.45891808
Ni       8.61931905      -0.00911420       2.84917710       0.00599519       0.00383944       0.00316166      -6.21239322
Al      10.04644230       1.46232473       4.23936561      -0.00970557      -0.00759093       0.00964004      -4.57384897
Ni       8.60097569      -0.02068007       5.65108953       0.00193151       0.00746638       0.00020424      -6.25590820
Al       9.98354665       1.42541652       7.13028435      -0.00425533      -0.00530602       0.00922222      -4.67674593
Ni       8.57932831       0.01016302       8.59857309       0.00375919      -0.00530802      -0.00718871      -6.25486707
Al      10.03234264       1.45743215      10.03872622      -0.00292852      -0.00179689      -0.00793915      -4.57702077
Ni       8.53066421       2.81881635       0.03384346       0.00326053      -0.00418138      -0.01222300      -6.15478015
Al       9.99999242       4.29854585       1.38227861       0.00316384      -0.00115086       0.00098663      -4.38571346
Ni       8.54340416       2.88961051       2.83437960       0.00247219      -0.00354679      -0.00176559      -6.22670596
Al      10.10483596       4.28855986       4.27611911      -0.00757068      -0.00230463      -0.00292107      -4.46748692
Ni       8.61459844       2.90014444       5.65866907      -0.00701389      -0.00456795      -0.00253709      -6.26377271
Al      10.04918355       4.31568754       7.11434043       0.00842395      -0.01099478      -0.00447486      -4.58881576
Ni       8.58445360       2.89700518       8.62236003       0.00371208       0.00737387       0.00266001      -6.26934999
Al      10.01558444       4.29279909      10.06990507      -0.00190533      -0.00318188      -0.00800475      -4.46698300
Al       9.96356560       7.12846469       1.38752261       0.00291710       0.00267221       0.00244112      -4.58919351
Ni       8.60659076       5.70340168       2.93354659      -0.00801002      -0.00272399       0.00368290      -6.23774998
Al      10.06779185       7.13313022       4.33537960       0.00117507       0.00884662      -0.00110382      -4.48333958
Ni       8.59338038       5.72706943       5.73040994       0.00084016      -0.00252768      -0.00599188      -6.22511927
Al      10.05461513       7.14913120       7.11922881      -0.00835472       0.00691179      -0.00315574      -4.46291169
Ni       8.62114079       5.70929226       8.50500000      -0.00468011      -0.00038844       0.01330867      -6.15618028
Al       9.97993721       7.10923825      10.03475533      -0.00494128       0.00472193      -0.00402238      -4.59968844
Ni       8.52658049       8.60900164      -0.00404832       0.00008888       0.00014657       0.00245119      -6.20941087
Al      10.02752099       9.94460158       1.44341500       0.00711626       0.00051117       0.00488276      -4.66372760
Ni       8.56192322       8.54274700       2.88563187      -0.00418422       0.00760438      -0.00089505      -6.27148716
Al      10.06244532       9.93123720       4.31283581      -0.00364219       0.01054589       0.00438267      -4.56076871
Ni       8.54571925       8.53329629       5.70508632      -0.00001226       0.00338284      -0.00742757      -6.21927492
Al      10.02017087       9.97840608       7.11943407       0.00460907       0.00581496       0.00439151      -4.57909584
Ni       8.57712039       8.53977372       8.57977871       0.00166778      -0.00519672       0.00493467      -6.27535175
Al      10.01212496       9.99525907      10.00705632      -0.00154878       0.00231665      -0.00990454      -4.66224384
