121
Lattice="11.43331623015012 0.0001670695035882204 0.0007309206156667324 0.00016705283274781295 11.431224429541702 -0.0011713342130955998 0.000730936748964743 -0.0011713009625032643 11.430744687905882" Properties=species:S:1:pos:R:3:forces:R:3:energies:R:1 energy=-655.2882254383148 stress="0.00010981448064261919 9.433833468799221e-05 -0.00018432955585411987 9.433833468799221e-05 0.000172586246567564 6.973537520372557e-05 -0.00018432955585411987 6.973537520372557e-05 0.00040235211235353053" free_energy=-655.2882254383148 pbc="T T T"
Ni      -0.00651361       0.02403635       0.02385618       0.00612980      -0.00623357      -0.00564609      -6.08713932
Al       1.42196408       1.45697485       1.46675466       0.01012880      -0.00044009       0.00033308      -4.63378332
Ni      -0.00157804      -0.00927372       2.86508972       0.00205221      -0.00078505      -0.00019298      -6.31030060
Al       1.40656076       1.48248651       4.34253261      -0.00624894       0.00427733       0.00817530      -4.59571925
Ni       0.00558655      -0.01207541       5.72654356       0.00207576       0.00271788       0.00490359      -5.82514317
Ni      -0.00041186       0.02482904       8.52950837       0.00479435      -0.00544063       0.00383722      -5.49857712
Al       1.42511495       1.35971279       9.97650905       0.00129148      -0.00585182      -0.00887567      -4.58301460
Ni       0.00740386       2.85665454      -0.01323322      -0.00025431       0.00065893       0.00035940      -6.30880011
Al       1.42878986       4.27324903       1.47980908      -0.00083652      -0.00530048       0.01457291      -4.60945536
Ni      -0.01353404       2.91414568       2.91667539       0.00171594       0.00857691       0.00460164      -5.85315802
Ni      -0.04826086       2.97014424       5.60479647       0.00807127      -0.00877020       0.00857668      -5.68694306
Al       1.41198060       4.22889065       7.08028465      -0.00724977      -0.00329042      -0.00580623      -4.56032120
Ni       0.02847270       2.86365069       8.59101531       0.00281711      -0.00783103      -0.00603465      -6.10592215
Al       1.45328801       4.25586904      10.01284812      -0.00247522      -0.00745199      -0.00046655      -4.70950610
Ni       0.01670894       5.69846983      -0.02619857      -0.00194734       0.00109141       0.00458194      -6.29684672
Al       1.40084611       7.11553515       1.45872176       0.00252145       0.00054160      -0.00026468      -4.67825251
Ni      -0.00924054       5.64429890       2.92661641      -0.00009524      -0.00141161       0.00116680      -5.83046952
Al       1.40818700       7.11236903       4.29594506      -0.00698359      -0.00726688       0.00757612      -4.61540823
Ni      -0.01077326       5.65252518       5.65694724       0.00133172      -0.00742408      -0.00549722      -5.85961958
Al       1.39759340       7.11725060       7.11594560      -0.00646529       0.00410113       0.00137052      -4.71441147
Ni       0.02204676       5.69029100       8.59043679      -0.00039457       0.00127981      -0.00235480      -6.31508088
Al       1.41231103       7.19980500       9.98844369       0.00265477       0.00829555      -0.00459705      -4.59986891
Ni      -0.00420905       8.56290926       0.01970765       0.00637964       0.00304627      -0.00588561      -6.06719978
Al       1.43978348      10.01805373       1.38433850       0.00221316       0.00483606      -0.00626099      -4.59050346
Ni       0.00343582       8.60015923       2.86452992       0.00057777      -0.00366365      -0.00229598      -6.29469497
Al       1.43544833      10.02457855       4.29679595      -0.00243684       0.00321711       0.00262612      -4.71601567
Ni      -0.00853971       8.59146843       5.72458475      -0.00211892       0.00262354       0.00284556      -6.10938596
Al       1.38910693      10.03173614       7.18593404      -0.00884141       0.00993570       0.00543196      -4.50026211
Ni      -0.01704565       8.56015115       8.52756047       0.00570409       0.01108363       0.00808427      -5.81094079
Ni       2.87233101       0.05627652       0.04665849       0.00019636      -0.00992472      -0.00937380      -5.99846458
Ni       2.84309781       0.02467163       2.85638942       0.00285031      -0.00072844       0.00111312      -6.08466113
Al       4.27016966       1.42504967       4.27433114      -0.00783229       0.00914930      -0.00794731      -4.59698798
Ni       2.82991296       0.02190950       5.74102239      -0.00195516       0.00023836      -0.00135494      -6.10444583
Al       4.25265245       1.44025091       7.16210045      -0.01171131       0.00208408       0.00006645      -4.65461388
Ni       2.84178314       0.01465606       8.55146893      -0.00741784      -0.00072483       0.00230390      -5.81951052
Al       4.27727373       1.43266079      10.01617886       0.00008245      -0.00069592       0.00762610      -4.60740837
Ni       2.85060004       2.83078557       0.02179272       0.00321153      -0.00110480      -0.00109914      -6.08572280
Al       4.28789842       4.24528951       1.41787192       0.00241955      -0.01172614       0.00416754      -4.59260123
Ni       2.86861747       2.84570914       2.85969545       0.00279324      -0.00261101      -0.00189074      -6.00376526
Al       4.25592979       4.26278494       4.28812179      -0.01298410      -0.00547041      -0.00088307      -4.61708003
Ni       2.86488848       2.85341550       5.71905128      -0.00984152       0.00131612      -0.00205986      -5.80627651
Al       4.27728045       4.27514176       7.15778748       0.00188546      -0.00495894      -0.00484771      -4.68494608
Ni       2.82096459       2.83982216       8.55933882       0.00168063       0.00174031      -0.00086381      -6.10402905
Al       4.29252664       4.25885479       9.99764120       0.00452949      -0.00648773       0.00128882      -4.62005689
Ni       2.83806236       5.71362887      -0.00211092       0.00412339      -0.00068038       0.00419988      -6.28972780
Al       4.28393702       7.13036244       1.41683348       0.00075603      -0.00235790      -0.00228345      -4.69193029
Ni       2.86794033       5.70446878       2.86509966      -0.00103669       0.00058283       0.00018974      -6.07160832
Al       4.27674962       7.14163078       4.29040500      -0.00407514      -0.00611316      -0.00357279      -4.64509937
Ni       2.85633045       5.70068925       5.70920055       0.00015078      -0.00259073      -0.00020001      -6.07902144
Al       4.27836946       7.12530776       7.15952505      -0.00503802       0.00267448       0.00210663      -4.69207775
Ni       2.82542440       5.70511859       8.57291632       0.00277705      -0.00260443      -0.00315029      -6.29391550
Al       4.27801907       7.13780124       9.99491334       0.00576360       0.00252884       0.00277559      -4.65813518
Ni       2.85088220       8.55161378       0.01456091       0.00147874       0.00821567      -0.00745222      -6.05831585
Al       4.27810834      10.03933823       1.42676844      -0.00092265       0.00500738      -0.00409124      -4.57278795
Ni       2.84627696       8.57220968       2.86233250       0.00076306      -0.00117298       0.00176937      -6.28587500
Al       4.26967006      10.02950805       4.29355676      -0.00556149       0.00381360       0.00297389      -4.67788222
Ni       2.84889436       8.57035543       5.71803534       0.00173768      -0.00135112      -0.00014600      -6.29143179
Al       4.26347991      10.01294340       7.15008412      -0.00604043       0.00745703       0.00446442      -4.67831680
Ni       2.84503250       8.56592870       8.55872064      -0.00172285       0.00663782       0.00828696      -6.07683861
Al       4.20500425      10.02746947      10.00730921      -0.00671439       0.00726246      -0.00495763      -4.60538624
Ni       5.71473149       0.00434626      -0.01434804      -0.00290630       0.00353028       0.01047378      -6.07223172
Al       7.13308002       1.44515202       1.42304363      -0.00875126       0.00803898       0.00291391      -4.59824162
Ni       5.71220318       0.01898712       2.85541226      -0.00244267       0.00014480      -0.00169312      -6.06387481
Al       7.16062689       1.42229056       4.29571039       0.00728351       0.00483814       0.00282744      -4.69059582
Ni       5.71479899       0.01341343       5.73952153       0.00165841      -0.00047868      -0.00641781      -6.28880600
Al       7.17916592       1.44204321       7.14519261       0.00623969       0.00275121      -0.00318673      -4.70105290
Ni       5.71450500      -0.00646497       8.57158843       0.00210931       0.00405176      -0.00596675      -6.30035563
Al       7.16520387       1.43976413       9.98936844       0.00000651       0.00108267      -0.00125362      -4.61558347
Ni       5.72322314       2.85191906      -0.01743440      -0.00073320       0.00110946       0.00608885      -5.98933256
Al       7.14443479       4.27112892       1.39937408      -0.00516345       0.00296787      -0.00053334      -4.59342478
Ni       5.70024891       2.83542064       2.85151101       0.00095879      -0.00044914       0.00385472      -6.08476951
Al       7.13149759       4.26789306       4.27397536       0.00895099       0.00063835      -0.00010668      -4.62299511
Ni       5.71470466       2.84281483       5.72599894       0.00209849       0.00607699      -0.00443138      -6.31076126
Al       7.15147587       4.28135263       7.16525863       0.00697813      -0.00133037       0.00065072      -4.59951655
Ni       5.73461288       2.85334258       8.57819533       0.00307675       0.00751828      -0.00052903      -6.08490802
Ni       5.72549472       5.70475687      -0.01992098      -0.00061934      -0.00393307      -0.00155619      -6.06806393
Al       7.15868002       7.12812308       1.42333970      -0.00161183      -0.00615664      -0.00001610      -4.66056990
Ni       5.71094265       5.71876464       2.85846326       0.00010683      -0.00066243       0.00345251      -6.28762248
Al       7.16218447       7.15347847       4.30013053       0.00736778      -0.00659631       0.00026363      -4.66150400
Ni       5.71244496       5.71079514       5.71190022      -0.00093452       0.00039213       0.00311067      -6.28877908
Al       7.16465348       7.13302105       7.14735302       0.00820925      -0.00432404      -0.00407536      -4.67162841
Ni       5.72799421       5.69841013       8.58867129       0.00584020      -0.00187699      -0.00154639      -6.06847256
Al       7.16458006       7.13723038       9.98518641       0.00025896       0.00265876      -0.00030215      -4.59298487
Ni       5.71785684       8.58502899      -0.01645363      -0.00492656      -0.00056621       0.00292681      -6.27859887
Al       7.14181424      10.01600037       1.42454013      -0.00669126      -0.00242177      -0.00578342      -4.64937810
Ni       5.71514386       8.56901871       2.85596622      -0.00086809       0.00217210       0.00523854      -6.26769210
Al       7.15152262      10.01845307       4.29433580      -0.00342720      -0.00240807      -0.00631134      -4.66460062
Ni       5.70267454       8.57560750       5.72565911       0.00328986      -0.00186200      -0.00637835      -6.27134856
Al       7.17785961      10.00355100       7.14534159       0.00635091       0.00057482       0.00740273      -4.57720672
Ni       5.70636651       8.59554791       8.58295004       0.00121621      -0.00684643      -0.00723733      -6.28175294
Al       7.17205420      10.01989467       9.99237098      -0.01444816       0.00137444       0.00116667      -4.69585352
Ni       8.60091026       0.00615654       0.00537005      -0.00611074      -0.00689209      -0.00286166      -6.28953003
Al      10.02054316       1.46753103       1.44447910       0.00668877      -0.00444731      -0.00671245      -4.73607917
Ni       8.59365224       0.00720517       2.84898648      -0.00508604      -0.00678829       0.00229602      -6.28797380
Al      10.01639302       1.45038068       4.29959523       0.00492458       0.01239831       0.00353899      -4.61939310
Ni       8.60306777       0.00327872       5.74514714       0.00066125      -0.00984132      -0.00269807      -6.08701180
Al      10.08859928       1.46490973       7.11593772       0.00257489      -0.00899596       0.00552067      -4.63743589
Ni       8.61669966      -0.00312164       8.53753727      -0.00149754      -0.00513566       0.00052637      -6.10352563
Al      10.02118167       1.42233166       9.97729896       0.00111472      -0.00386828      -0.00267148      -4.70497022
Ni       8.58392530       2.85693015      -0.01919487      -0.00508872       0.00635688      -0.00125320      -6.08158321
Al      10.00580608       4.28536521       1.45032246      -0.00010911      -0.00252143       0.01436085      -4.61213336
Ni       8.58139180       2.87030695       2.88075896      -0.00265330       0.00072218       0.00204738      -6.09297690
Ni       8.58399393       2.88649813       5.68957051       0.00392203      -0.00076881      -0.00196249      -6.10301073
Al      10.01409049       4.28205896       7.12641724       0.00558684      -0.00301276      -0.01528379      -4.63840498
Ni       8.58433526       2.86420304       8.57367362      -0.00432589       0.00111907       0.00758479      -6.09930151
Al       9.98856281       4.27199925       9.99366733       0.00328483      -0.00490232      -0.00793059      -4.62121213
Ni       8.57401899       5.70329266      -0.02029768      -0.00128548      -0.00064063      -0.00092887      -6.07654439
Al      10.02233977       7.10338335       1.44293278      -0.00074752       0.00633184      -0.00792012      -4.70055116
Ni       8.56758294       5.69310266       2.87885357       0.00546047       0.00232745       0.00316454      -6.08038035
Al      10.01218751       7.11864099       4.29217785       0.00175026      -0.01353203       0.00543341      -4.60134687
Ni       8.57509287       5.68096139       5.68956144       0.00421374       0.00319660      -0.00013718      -6.09357480
Al      10.01895521       7.11518004       7.12996318       0.00387728       0.01574799       0.00576104      -4.66586280
Ni       8.57852669       5.69400111       8.58186208      -0.00652996       0.00043741       0.00743334      -6.09031727
Al      10.01191895       7.14602941       9.98973935      -0.00216746       0.00262804      -0.00252633      -4.67593229
Ni       8.59112639       8.58082616       0.00446509      -0.00217991       0.00386335      -0.00504445      -6.27908991
Al      10.01808328      10.00673912       1.42402026       0.00269218       0.00136928      -0.00216874      -4.65733265
Ni       8.58566242       8.57889987       2.84869117      -0.00543851       0.00042159       0.00243522      -6.27800863
Al      10.00876466      10.01569776       4.33033767       0.01279001       0.00132105       0.01260323      -4.61502836
Ni       8.60022542       8.57901881       5.73481104      -0.00228429       0.00873149      -0.00372832      -6.07747166
Ni       8.60975093       8.58890361       8.55125278      -0.00201530       0.00137971      -0.00062099      -6.08662207
Al      10.08672924      10.01742710       9.95324033       0.00104435       0.00045983      -0.01332600      -4.57744918
