103
Lattice="11.390975546556003 0.02067432189096396 0.02240733521672854 0.020696775769634274 11.27868177092682 0.006251791006570968 0.022423843098863284 0.006249723106152462 11.329209243848556" Properties=species:S:1:pos:R:3:forces:R:3:energies:R:1 energy=-519.6108568324586 stress="-0.0003899517574376364 -8.712890586182655e-05 -0.00015633982732535812 -8.712890586182655e-05 0.00021313060593731927 -2.9323829907428275e-05 -0.00015633982732535812 -2.9323829907428275e-05 4.606694215010733e-05" free_energy=-519.6108568324586 pbc="T T T"
Al       1.45162636       1.29088401       1.36912728      -0.00222432       0.00076907       0.00877292      -4.42933392
Ni       0.06532446      -0.06743891       2.75761728       0.00830651       0.00614062      -0.00135054      -6.05928034
Al       1.39978857       1.34801842       4.24037918       0.00031336       0.00482414      -0.01468258      -4.52439717
Al       1.43943427       1.42237390       7.10810601      -0.01000303       0.00196401      -0.00587560      -4.55301739
Al       1.45345801       1.34621231       9.95100944      -0.00360702       0.00624795      -0.00022966      -4.38882532
Ni       0.03169139       2.85684012      -0.05041759      -0.00710357       0.00063384      -0.00293510      -6.13814733
Al       1.35514509       4.33205456       1.42102421      -0.00978720       0.00124439      -0.00227067      -4.18074514
Ni       0.00062581       2.72324530       2.72548329      -0.00314962       0.00088657       0.00382710      -6.24877937
Al       1.42061855       4.27953794       4.18797518       0.00869419      -0.00614066      -0.00152498      -4.41933579
Ni       0.04085804       2.88917683       5.70743486       0.00271889       0.00286312      -0.00818565      -6.22942723
Al       1.47959648       4.28353922       7.09680954       0.00497467      -0.00541987       0.00377399      -4.51867862
Ni       0.04118535       2.80626953       8.58775941       0.00388120      -0.00299243       0.00042458      -6.11793211
Al       1.45037679       4.33021621       9.96192534      -0.00004232      -0.00346563       0.00827908      -4.40687718
Al       1.46046742       7.02748698       1.40036079       0.00348716       0.00745735      -0.00025827      -3.61691717
Al       1.50134553       7.02506582       4.19191566       0.00691522      -0.00448082      -0.00431963      -4.18494363
Ni       0.02308410       5.62695497       5.64389783      -0.00055881       0.00163314       0.00538073      -6.12032471
Al       1.48605210       6.97770080       7.07923266       0.00258351       0.01275590       0.00313430      -4.50150873
Al       1.41230941       7.03185264       9.97923656      -0.00250331       0.00539829       0.00109713      -4.02932978
Al       1.54867233       9.81865033       1.34414604       0.00002326      -0.00318994       0.00019923      -3.84248950
Ni       0.04849771       8.52490991       2.80420734      -0.00132934       0.00175623       0.00146888      -6.05684474
Al       1.45747542       9.90430742       4.26172974      -0.00136727      -0.00140498       0.00043488      -4.46838338
Ni       0.08290057       8.36229778       5.65400471      -0.00108263       0.00489275      -0.00127106      -6.24108864
Al       1.40969272       9.91318980       7.08303447      -0.00287271      -0.00304679       0.00840615      -4.53666408
Ni       0.05246090       8.47524752       8.50963351       0.00402098      -0.00537755       0.00045609      -6.12386767
Al       1.42383051       9.91379186       9.96851934       0.00020935      -0.00436886      -0.01272426      -4.01214987
Al       4.34685987       1.45729789       1.42103225       0.00036210       0.00179098       0.00566797      -4.17625787
Al       4.28223859       1.38620011       4.18510348      -0.00032190       0.00487537      -0.00503667      -4.27202238
Ni       2.85461354       0.01868479       5.69955990       0.01102148       0.00426517      -0.00089326      -6.12533602
Al       4.29792630       1.46166031       7.04472451      -0.00387572       0.00282358       0.00217366      -4.54796100
Ni       2.89454989      -0.00464452       8.51238538       0.00505520       0.00547310      -0.00440727      -6.15901358
Al       4.24960517       1.41113354      10.04276167       0.00406605       0.00071198       0.00049370      -4.40010649
Ni       2.79517691       2.82465069       0.11674526      -0.01209693       0.00498475      -0.00440522      -6.12789272
Al       4.15491421       4.35015654       1.44114516      -0.00354179       0.00628060       0.00095784      -4.38833205
Ni       2.80543059       2.85645422       2.78373604      -0.00174345      -0.00063708       0.00322984      -6.14066847
Al       4.30734188       4.25700072       4.21598810      -0.00095416      -0.00332034       0.00739303      -4.11371993
Ni       2.86374812       2.78771425       5.55080387      -0.00338679       0.00069328       0.00311136      -6.13130758
Al       4.29880125       4.22381725       7.04018752      -0.00649682      -0.00460290       0.00549449      -4.37095382
Ni       2.86821198       2.87096851       8.58313894      -0.00843676      -0.00392123       0.00637808      -6.30113866
Al       4.29507988       4.21855468      10.05832842       0.00841896      -0.00349958      -0.00178137      -4.51679075
Al       4.17614351       7.14204471       1.44889528       0.00609251       0.00678169       0.00378274      -4.19313597
Al       4.25647021       7.04800345       4.23256923      -0.00608089       0.00548957      -0.00806636      -4.25080475
Al       4.31550687       7.03549381       7.09509614      -0.00214363      -0.00185508       0.00150542      -4.52461467
Ni       2.92618959       5.65039241       8.55049632       0.00226087      -0.00682567       0.00164033      -6.13123523
Al       4.26263041       7.07071985       9.98254858       0.00298394       0.01250656       0.00423400      -4.56559972
Al       4.25528013       9.94644327       1.38229874      -0.00575455      -0.00299304       0.00409677      -4.04282297
Al       4.29544494       9.94175071       4.24605883       0.00255354      -0.00523477       0.00025327      -4.44878132
Ni       2.90034994       8.51618542       5.66337067      -0.00389476      -0.00594434       0.00495046      -6.15674013
Al       4.33991022       9.90937324       7.09334628       0.00071031       0.00003022       0.00151158      -4.61599362
Ni       2.80481668       8.45577474       8.53683238      -0.00267274      -0.00462324       0.00330732      -6.23826722
Al       4.27596476       9.88845519       9.99899822      -0.00221617      -0.00763105      -0.01183529      -4.40568699
Al       7.19202793       1.39822059       1.45730099      -0.00028587       0.00225170      -0.01166148      -4.08063338
Ni       5.67734964       0.00204978       2.80590399      -0.00584760       0.00029096      -0.00371549      -5.89914311
Al       7.10529042       1.39698307       4.19887843       0.00894416       0.00070177       0.00707904      -4.30147354
Al       7.13583209       1.42863805       7.12135638      -0.00338231      -0.00054952      -0.01206934      -4.32566276
Ni       5.65419801       0.11158565       8.55451439       0.00886969      -0.00810745       0.00452017      -6.12046729
Al       7.12592444       1.44471971      10.02785678      -0.00307397       0.00049573      -0.00682635      -4.15919698
Al       7.08010397       4.16609249       1.40492686      -0.00749136       0.00126490       0.00683969      -4.31141504
Al       7.05642181       4.22248742       4.27912000       0.00314506      -0.00124575       0.00768742      -4.38956771
Al       7.14202610       4.15753978       7.11829289      -0.00199179       0.00002482      -0.00015968      -4.41488684
Ni       5.69878757       2.78222291       8.55853062      -0.00410346      -0.00521985       0.00178929      -6.12577412
Al       7.16260212       4.20077685      10.01613515      -0.00324026       0.00362827       0.00246890      -4.16836743
Ni       5.66195351       5.68012173       0.09722718      -0.00141545      -0.00230005      -0.00523213      -6.12934188
Al       7.19542895       7.06003017       1.39985123       0.00606678       0.00288977       0.00045271      -4.65874065
Ni       5.68312559       5.68735129       2.76715857      -0.00178957      -0.00104001       0.00859152      -6.06438510
Al       7.12486732       7.03572267       4.27827324       0.00421674       0.00530698      -0.00039677      -4.63888776
Al       7.10255542       7.03435063       7.08187840       0.00418683       0.00140935      -0.00060289      -4.62730610
Ni       5.71497190       5.56314195       8.59585285       0.00173666      -0.00174290      -0.01058304      -6.24482771
Al       7.17149758       7.04713781       9.97475897      -0.00605165       0.00400656       0.00013861      -4.66503224
Ni       5.69215858       8.44342484       0.03818692       0.00056555      -0.00035446       0.00134596      -6.16084380
Al       7.16370808       9.93785156       1.43187821      -0.00566646      -0.00893595       0.00456161      -4.57546860
Ni       5.71129590       8.53096751       2.82784402      -0.00418388      -0.01055838       0.00064504      -6.24954085
Al       7.17310311       9.94698378       4.24318358       0.00178533      -0.01281364       0.00110566      -4.53138468
Ni       5.69076237       8.46450553       5.65266617       0.00122974       0.00513530       0.00283572      -6.21780839
Al       7.13920931       9.95368353       7.12224640       0.00800115      -0.01561341       0.00523670      -4.49232878
Ni       5.73200184       8.51663864       8.55374545      -0.00428059      -0.00261085       0.00163799      -6.28309419
Al       7.13610837       9.95822504       9.92634506      -0.01011401      -0.01198027      -0.01152459      -4.53578969
Ni       8.58141508      -0.00344238      -0.03715884      -0.00630461       0.00270786       0.00535042      -5.90090325
Al       9.95057527       1.38813624       1.37542248       0.01136719       0.00389104       0.00575449      -4.40634238
Al      10.01661333       1.35804111       4.23221002       0.00440841       0.01102302      -0.01028758      -4.56186893
Ni       8.56226306       0.07731572       5.71525514      -0.00444671      -0.00495420      -0.00361519      -6.05244102
Al      10.02916078       1.40355173       7.13979515       0.00648514       0.00224129       0.00785912      -4.26465784
Al       9.96544616       1.42968015       9.93719065       0.00091899       0.00468964      -0.00705731      -4.15059547
Al       9.96180592       4.27701321       1.36795188       0.00410245      -0.00178577      -0.00528666      -4.31005079
Ni       8.58131596       2.89778521       2.84553446       0.00036397      -0.00167014      -0.00249174      -6.06670764
Al      10.03600298       4.24065096       4.22275673       0.00179036      -0.00441643      -0.00297505      -4.65285931
Ni       8.56283703       2.75462911       5.62836700       0.00007047       0.00217083       0.00330172      -6.15595122
Al       9.99190093       4.21872927       7.18030083       0.00201326      -0.00428863      -0.00501871      -4.50952356
Al       9.95725053       4.29641921       9.93553737       0.01111790      -0.00277604      -0.00280775      -4.14156839
Al      10.03308287       7.02875205       1.38510648       0.00824835       0.01115496       0.00083148      -4.20320817
Ni       8.51502925       5.59843539       2.84933733       0.00234548       0.00907092       0.00009466      -6.17483998
Al      10.01288938       7.03076607       4.22974374      -0.00163373       0.00875023       0.00079778      -4.66654431
Ni       8.59229816       5.57660611       5.70571468       0.00110444       0.00493649       0.01015407      -6.22515249
Al      10.01496025       7.02926186       7.12651650       0.00124564       0.01012026      -0.00049633      -4.65046390
Ni       8.52083336       5.65423222       8.51483725      -0.00189319       0.00103963      -0.00259569      -6.04960331
Al      10.03365947       7.04106874       9.97793849       0.00676345       0.00198678       0.00623109      -4.17952813
Ni       8.57680227       8.57195052       0.00415723      -0.00115088      -0.00048216      -0.00194098      -6.17043088
Al      10.01194854       9.92619182       1.41580784      -0.00912999      -0.00426031      -0.00840583      -4.51292566
Ni       8.62366567       8.40710197       2.81035830      -0.00346035       0.00357576       0.00092300      -6.23768334
Al      10.00608584       9.93085961       4.27649063      -0.00315805      -0.00645558      -0.00223426      -4.53177102
Ni       8.54262088       8.53102576       5.68223309       0.01026628      -0.00880007       0.00079026      -6.27198838
Al      10.02688574       9.91661042       7.08850268       0.00006670      -0.00613928       0.00427497      -4.37472371
Ni       8.62242647       8.43723582       8.55327083      -0.00107220       0.00242536      -0.00008053      -6.23863539
Al      10.06108995       9.94760066       9.89141930      -0.00666327      -0.00328747       0.00098277      -4.28404706
