128
Lattice="12.51687142304429 -0.04534619279611192 -0.17008535388864587 -0.04582127384513505 12.082448254204792 0.10810201708091484 -0.1685967606386539 0.11086774996248198 12.18142282412169" Properties=species:S:1:pos:R:3:forces:R:3:energies:R:1 energy=-612.618486386925 stress="-0.0008623140388139722 0.0006363657607844083 0.0002641479001783448 0.0006363657607844083 -0.0008840955356493257 -0.00026927192839453276 0.0002641479001783448 -0.00026927192839453276 0.0012142833638010692" free_energy=-612.618486386925 pbc="T T T"
Ni      -0.79673959      -0.36400183      -0.32453160      -0.00022992       0.00200178      -0.00367531      -5.60432164
Al       2.03656825       2.26250515       1.36864221       0.00150154       0.01025625       0.00204258      -4.39363467
Ni       0.21507850      -0.21320439       3.06847900      -0.00758001      -0.00599755       0.00421682      -5.96327264
Al       1.54434512       0.90192516       4.75965023      -0.00135985       0.00855503      -0.00039922      -4.25858748
Al      -0.76077169       0.68104317       6.41402285      -0.00076467       0.00255831      -0.00195380      -4.02517213
Al       0.44225916       2.40561572       8.11916575      -0.00829223       0.00290601      -0.00285588      -4.17902813
Ni      -0.12953224       0.08052340       8.63042170      -0.00102620      -0.00006940       0.00359609      -5.92264705
Al       1.77184773       2.68061251      10.80642047      -0.00469147       0.00186265       0.00124270      -4.54556116
Ni       0.08874373       3.38559044       0.20129830       0.00066330      -0.00384415       0.00529306      -6.01188411
Al       1.58006708       4.80731332       1.71044740      -0.00064861      -0.00568490       0.00530942      -4.00130346
Al       0.49368259       3.48353376       3.67314054       0.00854250      -0.00372681       0.00331217      -4.15544881
Al       2.61553211       5.16920755       4.21546723       0.00149918       0.00240798       0.00308709      -4.30922570
Ni      -0.43482102       3.03543232       5.85386711       0.00196045      -0.00111688      -0.00427718      -6.14767010
Al       1.78117798       5.24474043       8.59459447       0.00136144       0.00455420      -0.00611659      -4.47803055
Ni      -0.07437383       3.88140357       9.86145131       0.00031168      -0.00245841      -0.00549789      -5.80362806
Al       0.98371287       5.47629304      11.29984447       0.00141240       0.00469647      -0.00360641      -4.37257907
Ni      -0.57580406       7.10893544      -0.27235959       0.00140768       0.00651350      -0.00394851      -5.96344462
Al       1.12841638       7.34683841       1.53213313       0.00215410       0.00001802       0.00105083      -4.22019615
Ni       0.00415397       5.89327515       3.45887976       0.00425909      -0.00048989       0.00484724      -6.07634319
Al       1.28297204       7.83348628       4.69195619       0.00078248      -0.00085584      -0.00074874      -4.25903244
Al       0.41579381       5.40328714       5.85204088       0.00472394       0.00333328      -0.00752326      -4.12805108
Al       0.96581523       7.74506294       7.68656648       0.00450365      -0.00118573       0.00162442      -4.35047529
Ni      -0.36213488       6.25881739       9.16578148       0.00159621       0.00501576       0.00128724      -6.06586432
Al       1.03501471       7.91213487      10.46207249      -0.00280147       0.00752703      -0.00093913      -4.28263954
Al      -0.29683766       9.48969810      -0.39948292       0.00330906      -0.00219053       0.00479911      -4.17454881
Al       1.24108077      11.44137489       1.05359006       0.00180427      -0.00195428       0.00471189      -4.34885133
Al       0.34648874       9.49544931       2.72741188      -0.00572891       0.00493212       0.00367044      -3.89563327
Al       2.22661609      10.57760562       4.17447961       0.00450683      -0.00107024      -0.00055520      -4.33463398
Ni      -0.47985705       8.98887582       6.28198595       0.00583836       0.00742638      -0.00914925      -5.69003994
Al       0.94706899      10.73723899       6.96837862      -0.00903466      -0.00384320      -0.00564607      -4.29303495
Ni       0.26010935       9.70834409       9.09670662       0.00456971      -0.00234039       0.00116450      -5.90434847
Al       1.18464384      11.56279536      10.63320482       0.00311356       0.00963790       0.00019090      -4.27574982
Ni       3.12843498       0.53566902      -0.06724245      -0.00395308      -0.01007274       0.01340472      -5.93069513
Al       4.85623483       1.30656130       1.55602224      -0.00957617       0.00475960       0.00999831      -4.45298193
Ni       2.74817421       0.38422279       2.55027613      -0.00079215      -0.00704532       0.00381431      -5.85584930
Al       4.35837189       0.67178565       4.33533841      -0.00144755      -0.00028216      -0.00062728      -4.35801913
Ni       3.24674768      -0.55117202       6.15583075       0.00025921       0.00382338       0.00719714      -5.91146508
Al       4.46450998       1.75286192       7.06834485      -0.00569294      -0.00557226      -0.00065857      -4.19718440
Al       2.32586452       0.51869578       8.18770596       0.00290861       0.00314518      -0.00075923      -4.14877410
Al       4.10458438       1.59123154      10.17774598      -0.00235711       0.00569642      -0.00148082      -4.28747760
Ni       3.97297202       3.01314384      -0.09285368      -0.00390418      -0.00317574       0.00658933      -5.94133127
Al       4.19214852       3.94372407       2.18973936      -0.00103373       0.00437813       0.00045633      -4.27740793
Ni       2.86143759       2.71136368       3.77661211      -0.00929504      -0.00177262      -0.00576344      -6.03386062
Al       5.01985691       3.36259408       4.72767540      -0.00337226       0.00283580       0.00514412      -4.24359939
Al       2.04588435       3.16596500       6.08060992      -0.00627015       0.00142594       0.00639075      -4.19254965
Al       4.05057449       4.66721227       7.08325327       0.00679546      -0.00102759       0.00049969      -4.12482249
Ni       2.80160053       2.94386692       8.42381445       0.00238242      -0.00105825      -0.00127478      -6.06844357
Al       4.00244656       4.46314367       9.98538588      -0.00197447       0.00143600       0.00169808      -4.20022491
Al       4.17583459       5.57459416       0.10585468      -0.00629713      -0.00032344       0.00076692      -4.22348166
Al       5.29209910       8.13221330       1.93709372       0.00216661      -0.00101745      -0.00194527      -4.37136613
Ni       3.47192788       6.38616402       2.19393619      -0.00266332      -0.00457135      -0.00183757      -6.04263029
Al       4.00435038       7.36492679       4.43100137      -0.00599944      -0.00619186       0.00106346      -4.30182701
Ni       2.62459553       6.52824359       6.31230130       0.00756714      -0.00976213      -0.00382111      -6.05634919
Al       4.05359309       7.22897608       8.20296188       0.00460591       0.00641949       0.00448874      -4.21043943
Ni       3.11541200       6.78670910      10.39424843       0.00545113       0.00328736      -0.00015952      -5.86878135
Al       5.28961568       7.82201280      10.66717268       0.00231576      -0.00932919      -0.00271900      -4.26466088
Al       3.37543613       8.34706777       0.12068451       0.00949753       0.00080158      -0.00599193      -4.13063623
Al       4.12556075      10.74347361       1.51724733      -0.00248804      -0.00100289       0.00126482      -4.36094887
Ni       2.85741717       8.80176482       2.64722534       0.00418779       0.00665426       0.00689169      -6.01719616
Al       4.87776203       9.91859669       4.04940767       0.01061962       0.00143866      -0.00252612      -4.27417797
Al       3.07594943       9.10115814       6.45408135       0.00049415       0.00429147      -0.00497006      -4.00235621
Al       4.86406070      11.12341272       7.94594818      -0.00303967       0.00030078       0.00179950      -4.30200171
Al       2.74624685       9.49752148       9.25176110      -0.00171934       0.00334786      -0.00430263      -3.78681441
Al       4.16196740      11.08211086      10.86729819       0.00438923       0.00069029       0.00045451      -4.08838407
Al       6.77338156      -0.10846845      -0.32939522       0.00088386      -0.00901399       0.00443365      -4.09161244
Al       7.61214334       1.53627005       1.61608083      -0.00456604       0.01540388       0.00389948      -4.22631010
Ni       6.25895696      -0.33481561       2.97471570      -0.00471191      -0.00236619      -0.00063674      -5.98895246
Al       7.06599952       1.33377507       4.51585016       0.00089456       0.00176591      -0.00140545      -4.37341435
Ni       6.06069748      -0.69534865       5.61736047      -0.00324394       0.00167633       0.00325202      -6.01683784
Al       7.08165217       1.07040139       7.28775120      -0.00307194      -0.00036150       0.00272571      -4.29819436
Ni       6.10646883       0.45094824       9.49730118      -0.00225488      -0.00539467       0.00103206      -5.91768990
Al       8.31606999       1.41507241      10.33849053       0.00086750       0.00689424      -0.00807079      -4.35961980
Al       6.26029604       3.49426059       0.23515943       0.00122843       0.00734151      -0.00809661      -3.93329336
Al       8.59276854       4.47563114       1.92001930       0.00821788       0.00801147      -0.00129264      -4.45587487
Ni       6.60200822       3.40183686       2.77446554      -0.00146804       0.00123075       0.00173513      -6.00485004
Al       7.68104722       3.98637844       4.83108502       0.00041039       0.00202847      -0.00380811      -4.31194319
Ni       6.21775896       3.64491534       6.85364555       0.00082071      -0.00336377      -0.00950490      -6.05291127
Al       8.40611316       3.70542322       7.90523201      -0.00163929      -0.00221725      -0.00748094      -4.32730692
Al       6.18519055       2.89314084       9.24018689      -0.01024698       0.00170613      -0.00603917      -3.94039606
Al       8.06251011       4.38879479      10.70941306      -0.00905066      -0.00101820       0.00184653      -4.11720511
Al       6.89335368       6.11955175       0.17132362       0.00292577      -0.01136150      -0.00032443      -3.88805184
Al       7.99278733       7.60934034       2.19617760      -0.00549011      -0.00094862      -0.00321555      -4.26383937
Al       5.96010527       5.70714562       2.92806832      -0.00281943      -0.00299598       0.00200797      -4.24108852
Al       8.65581286       7.12006579       4.71063295       0.00157278       0.00769262      -0.00098364      -4.28862642
Al       6.43231975       6.03671209       5.96308874       0.00420896      -0.00298757       0.00550340      -4.11697942
Al       8.42161191       7.46707418       7.39625477      -0.00543186      -0.00097251       0.00772430      -4.47474691
Al       6.25669856       5.55064046       8.64318937       0.00365272       0.00418402      -0.00014392      -4.01888638
Al       8.10346951       6.93996316      10.07033762       0.00040674      -0.00611237       0.01057934      -4.26335683
Ni       5.85477133       9.60270143       0.05229398      -0.00400450      -0.00712074      -0.00445220      -6.01473861
Al       7.72866872      10.38338736       1.62380153      -0.00093949      -0.00498937       0.00473743      -4.18432072
Ni       6.33183665       7.71573522       4.14392974      -0.00377921      -0.00158622       0.00649025      -5.99792178
Al       7.55500252       9.86914985       4.45918337      -0.00169219       0.00134565       0.00214438      -4.48922542
Al       5.66334186       8.69292888       6.30317294       0.00008139      -0.00914730       0.00411342      -4.06247256
Al       7.62931004       9.99898051       7.28465505       0.00097151       0.00612570       0.00147688      -4.37580649
Ni       6.41057228       8.04262620       8.50509424       0.00201758      -0.00268396       0.00959211      -5.95345581
Al       6.56234210      10.15091601       9.91021680      -0.00279239       0.00134417      -0.00238622      -4.51135340
Ni       9.28829467       0.36445215       0.36699249       0.00292899      -0.00245281       0.00373913      -5.89869298
Al      11.81240398       1.31569445       1.19354748      -0.00511685       0.00880496       0.00357643      -4.22112363
Al       9.02310564      -0.06165816       3.17406418      -0.00022045      -0.00490067      -0.00536424      -4.05227269
Al      11.19972479       1.50361622       3.80450984      -0.00253886      -0.00033276      -0.00237285      -4.06423205
Al       9.12927233      -0.27051219       6.02732650       0.00758001       0.00559609      -0.00118881      -3.96621863
Al      10.08996915       1.18804037       8.25449312      -0.00844095       0.00279844       0.00289459      -4.16503125
Ni       8.41730476      -0.43347267       8.67732298       0.00223458       0.00103179      -0.00397676      -5.95470615
Al      11.70240602       1.65824410      10.39157164      -0.00481378      -0.00602534      -0.00227531      -4.47762337
Al       9.98172376       2.78394703       0.03846491       0.00015772       0.00098414      -0.00805787      -4.02566901
Al      11.40762174       5.21362469       1.21696989      -0.00066002      -0.00626232      -0.00219816      -4.45705952
Ni       8.93797767       2.47326771       3.46162694       0.00687566       0.00285695       0.00064640      -5.85262279
Al      10.50080055       4.60035333       4.30903009       0.00184715      -0.00117969       0.00526116      -4.41595216
Al       9.66465928       2.46794415       5.82718193       0.00288712      -0.00810064      -0.00142667      -4.08156017
Al      11.14708407       4.25966029       7.60293481      -0.00498299      -0.00275558      -0.00263277      -4.63049847
Ni       9.89095827       3.20092733       9.71815237      -0.00344749      -0.00330601      -0.00646098      -6.02534326
Al      10.69644729       5.24547849      10.77224894       0.00307682       0.00227012      -0.00295441      -4.61167326
Ni       9.27770410       6.32973996       0.27222111       0.00223109      -0.01066793      -0.00148189      -6.13423125
Al      10.63170261       8.10347285       1.28325639       0.00584354       0.00568068       0.00547929      -4.36429065
Ni       9.96547246       6.33078279       2.77010022      -0.00263380       0.00456997      -0.00548508      -5.74634947
Al      11.20154478       7.83828500       4.12833858       0.00893904       0.00097564      -0.00369826      -4.41027035
Ni       9.07481896       5.31095249       6.26216346      -0.00247602      -0.00960710       0.00153278      -5.99641496
Al      10.91259897       6.94452363       6.90171725      -0.00350202       0.00188651       0.00375865      -4.37780651
Ni       9.61584628       5.71261705       8.68909693       0.00267465      -0.00802701       0.00163994      -5.98319537
Al      10.73947230       8.03184207       9.65641706       0.00966836       0.00017604      -0.00768373      -4.40868776
Al       8.19019101       8.66964479      -0.34872664       0.00009442      -0.00313734      -0.00111163      -3.98161257
Al      10.71798807      10.84262057       1.61172808       0.00510869       0.00485435       0.00061201      -4.37915282
Ni       9.52253247       9.38225481       3.11828837       0.00243720      -0.00465013      -0.00346681      -6.14896899
Al      11.21991241      10.65831437       4.55578109      -0.00014974       0.00333492      -0.00539803      -4.40082100
Ni       9.57001050       9.23003055       5.80429831      -0.00190834      -0.00154726       0.00276037      -6.05617961
Al      10.53712690      10.26580232       7.97502390       0.00912467      -0.00522209       0.00437557      -4.52128975
Ni       8.65562286       9.18717453       9.39205754       0.00254893       0.00099084      -0.00435196      -5.88548133
Al       9.50803495      10.93194135      10.82941978      -0.00675347      -0.00064764      -0.00778198      -4.40055203
