108
Lattice="11.236446135790546 -0.2186262219383283 -0.09183782524139095 -0.2170610673851637 11.022301126529644 -0.02136968109102261 -0.09391570992413406 -0.019918369249839394 10.995677422813511" Properties=species:S:1:pos:R:3:forces:R:3:energies:R:1 energy=-582.6941577482467 stress="0.0004374346967783271 0.0007018418696196734 -3.922114298163946e-05 0.0007018418696196734 0.0011119951219749902 -6.986638247431987e-05 -3.922114298163946e-05 -6.986638247431987e-05 -0.0012990660601213146" free_energy=-582.6941577482467 pbc="T T T"
Ni      -0.11497536       0.06039187      -0.00510478       0.00384102      -0.00260811       0.00294121      -5.78826240
Al       1.49398882       1.32034481       1.36303782      -0.00975971       0.00144772       0.00730462      -4.65516704
Ni      -0.25929230       0.16806312       2.50130032       0.00050354       0.00248625       0.01154774      -5.88733825
Al       1.21585863       1.03823424       4.22146116       0.00344547      -0.00383555      -0.00581619      -4.88540657
Ni      -0.36307381      -0.38918834       5.80825145      -0.00088482       0.00396602       0.00070736      -5.90453556
Al       1.09385072       1.15974801       6.91670882      -0.00674440      -0.00619224      -0.00033778      -4.65705242
Ni      -0.49424960      -0.33883362       8.38479548      -0.00183981      -0.00214604       0.00071178      -5.86207074
Al       1.13826393       1.22961602       9.54036701      -0.00352274       0.00456699      -0.00175615      -4.60576441
Ni       0.06590655       2.76946561      -0.05589873       0.00064399      -0.00323179      -0.00205529      -6.00905272
Al       1.48595048       4.12825021       1.28090844       0.00602667      -0.00679541       0.00882296      -4.64522348
Ni      -0.10889998       2.64715923       2.69944801      -0.00081277      -0.00427386      -0.00161957      -6.07211493
Al       1.27663683       4.00297386       4.15995354      -0.00258814      -0.00220942      -0.00331618      -4.68932342
Ni      -0.20622259       2.74238500       5.62445347       0.00743587      -0.00161476      -0.00171487      -6.27563684
Al       1.47170679       4.23262375       7.16688966      -0.00144673      -0.00048987       0.00195762      -4.81095644
Ni      -0.24377823       2.73531915       8.17557403      -0.00099247       0.00784952      -0.00013322      -6.07810916
Ni      -0.03400825       5.40244289      -0.04489041      -0.00036648      -0.00250860       0.00462821      -5.69709532
Ni       0.11960279       5.58741693       2.73947146       0.00194755       0.00003996       0.00580528      -5.98255243
Ni       0.07243100       5.57794801       5.52806250       0.00175141       0.00385013       0.00816082      -5.85596965
Al       1.49185306       7.04040632       6.81637608       0.00552204      -0.01717260      -0.00470407      -4.64842516
Ni      -0.09677007       5.67569761       8.22942223      -0.00229602      -0.00177732      -0.00893616      -5.86860409
Al       1.76765225       6.51283778       9.68284285      -0.00728106       0.00190365      -0.00451504      -4.70360639
Ni       0.44473988       7.70835754       0.46104331      -0.01598235       0.00539880      -0.00632589      -5.90241053
Al       1.27357205       9.74116525       1.54533578       0.01448403      -0.00458821       0.00508444      -4.84850593
Ni      -0.07103692       8.10067187       2.85607467      -0.00566368      -0.00408078       0.00820274      -5.87205045
Al       1.87178043       9.25011506       4.25623898      -0.00476499      -0.00771698       0.00020722      -4.77768496
Ni      -0.01059120       8.19765088       5.35238260      -0.00212840      -0.00554134      -0.00317998      -5.70151852
Al       1.24918435       9.56501116       6.93987359       0.00372491      -0.00286486       0.00220539      -4.66369485
Ni      -0.54071694       8.20529383       7.74374872      -0.00386728       0.00211635      -0.00416039      -5.57951739
Al       0.80536373       9.28970430       9.65625945       0.00404112       0.01241703       0.00658466      -4.87881790
Ni       2.81584602      -0.15694148      -0.15207465      -0.00636466       0.00619844       0.00409855      -6.09341482
Al       4.18157343       1.19984713       1.35341134       0.00740644       0.00456347      -0.00130332      -4.67298970
Ni       3.36984579       0.17779884       3.37332973      -0.00688363      -0.00851846      -0.00318814      -5.74248445
Ni       2.98904472       0.07257677       5.82429237      -0.00176624      -0.00139324       0.00487261      -5.77125509
Ni       2.68062259      -0.12814408       8.36151068       0.00450969      -0.00882255       0.00152474      -5.67916735
Al       4.45053664       1.20101941       9.16770867      -0.00506666       0.01035802       0.00071575      -4.82255268
Ni       2.85358412       2.56784173      -0.19456810       0.00341399       0.00039048       0.00850841      -6.02747851
Al       4.22058703       4.16687646       1.30051150      -0.00741943      -0.00270876      -0.00706005      -4.86771721
Ni       2.83159288       2.60942972       2.86219622      -0.00596227       0.00058581       0.00436271      -6.18908250
Al       4.19876190       3.96590625       4.17870031      -0.00859516       0.00730123       0.00589394      -4.64291902
Ni       2.54300983       2.60431617       5.57614190      -0.00885014       0.00746789       0.00602404      -5.95632861
Al       4.37917263       3.66548342       6.76920355       0.00180631      -0.00168737       0.00301776      -4.84449700
Ni       2.66870540       2.46043793       8.17157191      -0.00375361      -0.00957266       0.00384066      -5.90055913
Al       3.79890663       4.26676147       9.39898970       0.00079141      -0.00751298      -0.00371353      -4.66527879
Ni       4.14279328       6.67523632       1.30241851      -0.01646658      -0.00156545      -0.00398739      -5.53370296
Ni       2.76258133       5.32909667       2.86108457       0.00286077      -0.01294189       0.00341133      -5.69004291
Al       3.85008368       7.09406973       4.11219978      -0.00038864      -0.01544764       0.00048562      -4.88763110
Ni       2.75384316       5.36039744       5.49832620       0.00360564       0.00876348       0.00151630      -5.85892356
Ni       3.35424319       6.08463352       7.77180037      -0.00699701      -0.00188253      -0.01112823      -5.74216355
Ni       2.73407957       8.37210056      -0.00570262       0.01385993       0.00207515      -0.00478070      -5.54982982
Al       3.98312129       9.32144524       1.76244952      -0.00145224       0.00024542      -0.00559265      -4.91125749
Ni       2.20695997       7.67096666       2.36410058       0.00923078      -0.00430811      -0.00596623      -5.65642603
Ni       3.37455808       8.60543893       6.16213547       0.00732552       0.00411254       0.00479686      -5.72340938
Ni       2.89976718       8.44257510       8.56376510      -0.00147330       0.01178318       0.00152191      -5.67742739
Ni       5.33157559      -0.29442702      -0.07585484       0.00668378      -0.00262082      -0.00540060      -5.96105962
Al       7.18850612       1.14460780       0.85246451      -0.00885349       0.00202134       0.01120528      -4.98427975
Ni       5.81625514      -0.11290466       2.64877334       0.00285455      -0.00442053       0.00410977      -5.90018996
Ni       5.26677317      -0.61566605       5.11258585       0.00823831      -0.00301152       0.00559064      -5.64778653
Al       6.39473578       1.40123666       6.77162869      -0.00178250      -0.00934603      -0.00109955      -4.90435873
Ni       4.94313552      -0.66095889       7.55890352      -0.00585194      -0.00523333       0.00302129      -5.68688143
Ni       5.44980567       2.56682125      -0.09039084      -0.01097025       0.00419742       0.00524448      -5.94926563
Al       6.87044595       3.89568297       1.40921231       0.00347290       0.00505104       0.00115000      -4.70803130
Ni       5.60273419       2.45876179       2.78978117      -0.00084216       0.00179930      -0.00980747      -6.00695193
Al       6.88230967       4.00658742       4.47537588       0.00026030       0.00669906      -0.00709777      -4.93088986
Ni       4.75254693       1.76059065       4.98220360      -0.00787497      -0.00662109      -0.00365353      -5.56254365
Ni       5.91752850       3.10791525       8.55717429       0.00777583      -0.00478598       0.00053816      -5.74012892
Ni       5.87026161       4.98471942      -0.51564275       0.00570772       0.00439300      -0.00212827      -5.80347851
Al       6.59172262       6.64270774       1.14691055       0.01144014      -0.00377726      -0.00508657      -4.90192935
Ni       5.58054436       5.45047574       2.98258144       0.00211725       0.00176023      -0.00306487      -6.02480598
Ni       5.25815156       5.68233293       5.59667235       0.00207233      -0.00629595      -0.00026355      -5.82461431
Al       7.32985037       6.76706096       6.76857107       0.00932417       0.00301697      -0.00549315      -4.86500670
Ni       5.59766103       5.41382834       7.97525031       0.00478756      -0.01291930       0.00283493      -5.65073603
Al       6.74277613       6.89062066       9.36985365       0.01296564       0.00026007       0.00508209      -4.68430650
Ni       5.11704855       8.11466061      -0.40884274      -0.00464345       0.01020408       0.00958426      -5.74322467
Al       6.71673253       9.38415342       1.13170660       0.00754686       0.00626300      -0.00868564      -4.84673080
Ni       5.67752830       8.06016946       2.89374159       0.01147636      -0.00247485       0.00274013      -5.70293830
Al       7.11846202       9.51890653       4.12679737      -0.00250238       0.00028815      -0.00775155      -4.86394561
Ni       5.64820481       8.11393079       5.45981763       0.00238282      -0.00069651      -0.00136245      -5.63093851
Al       6.88928670       9.70766160       6.74893827      -0.01179746       0.00304036      -0.00306066      -4.67998125
Ni       5.22943530       7.91851658       7.83112764       0.01260851       0.01008316      -0.00243792      -5.79621492
Al       6.34163499       9.57522902       9.29347237       0.00442108       0.00069902       0.00802236      -4.60891527
Ni       8.57036807      -0.61247430      -0.39635333      -0.00222232       0.00117268       0.00940675      -5.59599688
Ni       8.46751053      -0.21095971       2.40954274      -0.00855500      -0.00742730      -0.01187768      -5.94424173
Al       9.63232280       1.00498463       4.16098388       0.00823688      -0.00123467      -0.00223123      -4.71568218
Ni       7.07792618       0.95771084       4.42097054      -0.01171397      -0.00375736      -0.00950370      -5.64983245
Al       9.35442989       0.82436756       6.87646279      -0.00117032       0.00859756       0.00458826      -4.74315430
Ni       6.88132926       0.93024409       9.26138867      -0.00806306       0.00128816       0.00199361      -5.83702333
Al       9.43017464       1.25361972       9.64929783       0.00634332       0.00190877      -0.00149225      -4.80531333
Ni       7.83473264       3.02340746      -0.64373681       0.00199800       0.00562227      -0.00060818      -5.92562201
Al       9.61759153       3.70453843       1.19199757       0.00208923       0.00839373      -0.00768411      -4.84856274
Ni       8.21710387       2.48416226       2.84966538      -0.00146557       0.00332816      -0.01143272      -5.90061181
Al       9.78879386       3.95338944       3.97469914       0.00127768       0.00327779      -0.00061880      -4.66836982
Ni       8.45786041       2.58007255       5.51275412      -0.00480762       0.00199859       0.01258050      -5.66260539
Al       9.54770935       4.31478300       6.73193348      -0.00182184      -0.00076920      -0.00716483      -4.69418819
Ni       8.27207806       2.59990012       7.96270879      -0.00108607       0.00486038      -0.00580297      -5.75031254
Al       9.76399692       3.94955837       9.47191334       0.00704581       0.00054198       0.00320456      -4.51463382
Ni       8.31626630       5.37396775      -0.10433414       0.00562241      -0.00151565      -0.00844921      -6.14685938
Al       9.71541007       6.52890165       1.32611779       0.00539715       0.00361387       0.00222168      -4.66072563
Ni       8.23385970       5.28142136       2.68253865      -0.00054390       0.00286838       0.00035504      -6.11168324
Al       9.56748943       6.63069709       4.28048137      -0.00473501       0.00345516       0.00916398      -4.76344020
Ni       7.19998850       6.68376178       4.39070159       0.00605480       0.00498892       0.00507102      -5.61728232
Ni       7.92830077       5.00600867       8.45059040       0.00174158       0.00246354       0.00751732      -5.76015735
Al       9.73492215       6.82561681       9.52555136      -0.00053073       0.00039502      -0.00574417      -4.84655291
Ni       8.18747061       7.98131177      -0.12170131      -0.00014651       0.00775009      -0.00158017      -5.97549809
Al       9.82444644       9.15880250       1.07194151      -0.00394732      -0.01139236       0.00354966      -4.75191488
Ni       8.22726592       7.96910793       2.54020216      -0.00132912       0.00579144      -0.00618403      -6.20720712
Al       9.77491370       9.37048212       3.80689859      -0.00107422      -0.00068368      -0.00940525      -4.59008561
Ni       8.80722671       8.51635389       5.87088858      -0.00066130       0.00252725       0.00511942      -5.79571409
Ni       8.40182686       8.60914701       8.38489656      -0.00874717       0.00048530      -0.00189457      -5.68774540
