169
Lattice="13.932650378363235 0.11016535266114169 0.10138523501895827 0.11175205963336865 13.776040730648598 0.27843082439808114 0.10279079159906877 0.276941163860359 13.817170384556697" Properties=species:S:1:pos:R:3:forces:R:3:energies:R:1 rep=5 n_sites=250 energy=-781.3984093645905 stress="-0.0002187962078885431 0.00023023944150860726 -0.0005142632342890947 0.00023023944150860726 0.00028289859089993696 -0.000493939823905838 -0.0005142632342890947 -0.000493939823905838 0.00020035628349339345" free_energy=-781.3984093645905 pbc="T T T"
Al       1.69722886       1.34034396       1.81935018       0.00267974       0.00946454      -0.00434442      -3.99465995
Al       1.25230415       1.76634711       4.35671666      -0.00720235       0.00306942       0.00568311      -3.98987476
Ni       0.10249738      -0.00329547       5.58249974      -0.00181050       0.00386271      -0.00349358      -5.76404645
Al       1.42410159       1.47330492       7.00090108      -0.00711856      -0.00122188      -0.00060139      -4.44792693
Al       1.42106925       1.46828257       9.93782318       0.00068331       0.00139462       0.00732709      -4.45777196
Al       1.33897618       1.63480568      12.73542317       0.00717669       0.00582874      -0.00249507      -4.32938938
Al       1.34124870       4.14858466       1.45598500       0.00864817       0.00596302      -0.00083118      -4.21756995
Al       1.86969975       4.50735155       4.16959549      -0.00570986      -0.00027704       0.00080254      -4.09889989
Al       1.50792675       4.34217413       6.94751002      -0.00527424       0.00184492       0.00342278      -4.29600664
Ni       0.07853614       2.95515411       8.41721650      -0.00156209      -0.00240655       0.00442171      -5.99864713
Al       1.46435815       4.44740739       9.77195732      -0.00285652       0.00513852      -0.00527545      -4.61623049
Ni      -0.02276995       3.07617469      11.07510513      -0.00346120      -0.00581904      -0.00213079      -6.12390443
Al       1.44550473       4.46181973      12.52720370      -0.00572945       0.00014625       0.00188786      -4.41545963
Al       1.44666340       6.91899566       1.41738074      -0.00512318       0.00438579       0.00273665      -4.35336305
Ni       0.09008645       5.64199682       2.94544918       0.01080804       0.00897854       0.00786734      -5.91101520
Al       1.34865314       7.15705857       4.39415171      -0.00466188      -0.00485857      -0.01908904      -4.20321399
Al       1.39085774       7.09662012       7.06827610       0.00273285      -0.00270239      -0.00839930      -3.90485514
Al       1.52759717       7.42802152       9.76732485       0.00028124       0.00253505      -0.00711796      -3.89591511
Al       1.46904822       7.36025954      12.53990193      -0.00523314       0.00407858      -0.00281945      -4.22482692
Ni      -0.08759844       8.49945328       0.17625694      -0.00024474      -0.00514663      -0.00585592      -6.07297435
Al       1.56966745       9.68412878       1.45733425      -0.00176922       0.00397211       0.00514458      -4.13440643
Ni       0.02925171       8.28787895       2.83108739      -0.00217332      -0.01725332      -0.00062496      -5.96912937
Al       1.35343680      10.00972297       4.20412995       0.00349993      -0.00409980      -0.00089753      -4.24740985
Al       1.48970166       9.79292246       7.24980719      -0.00335556      -0.00507319       0.00782241      -3.93138063
Al       2.08089748      10.11521919       9.83659185      -0.00233531       0.00277794       0.00819843      -3.58985927
Al       1.06857406      10.07284658      12.23920036       0.00518456       0.00357127       0.00505924      -4.05610966
Ni       0.04218744      11.08780586       0.19105875       0.00332168       0.00028521       0.00155781      -5.89912607
Al       1.43208917      12.38193352       1.76704562      -0.00093552       0.00225160      -0.00167052      -3.96979574
Al       1.96122101      12.83536803       4.41206376      -0.00247892      -0.00137337      -0.00312361      -4.12824433
Al       1.64607412      12.50909300       7.30318301      -0.00371877       0.00414900       0.00030410      -4.17148875
Al       0.77549978      12.61443701       9.98536648      -0.00445115      -0.00543973       0.00779297      -3.88618041
Al       1.89451520      12.64253086      12.82738859       0.00673161       0.00167250       0.00012649      -4.03087738
Ni       2.91360573       0.03389300       0.25361867       0.00091733       0.01004923      -0.01584929      -5.87719210
Al       4.67581461       1.53962157       1.39042253      -0.00988771      -0.00206064      -0.00450557      -3.94988877
Al       4.06354395       1.31381913       4.07474287      -0.00839654       0.00031722      -0.00540062      -3.98953399
Al       4.23192274       1.29746424       6.98601248      -0.00226742      -0.00194907      -0.00002313      -4.35514538
Ni       2.76777427       0.10186315       8.55304994       0.00775768       0.00084305      -0.00261045      -5.86688886
Al       4.38640919       1.40944347       9.76330190      -0.00072943      -0.00525349      -0.00401958      -4.38246883
Al       4.26797456       1.45582605      12.49079048      -0.00154135      -0.00961555       0.01144147      -4.30342904
Ni       2.82455983       2.69951589       0.15726340      -0.00138644       0.00957735       0.00490650      -6.10267308
Al       4.17485400       4.25281969       1.52137896      -0.00143809      -0.00615762      -0.01297763      -4.04882546
Al       4.55150613       4.33461896       4.15190541      -0.00098962       0.00357492       0.00483614      -3.88638707
Ni       3.02534216       2.91358452       5.58785341      -0.00334635      -0.00597131       0.00137573      -5.99441792
Al       4.33021541       4.25347662       7.07782385       0.00170924      -0.00714991      -0.00876191      -4.51219674
Ni       2.81463078       2.80694805       8.41848826      -0.00124086      -0.00553750       0.00289001      -6.24489641
Al       4.29913545       4.28183135       9.78097015       0.00272077       0.00344444       0.00858831      -4.67498745
Ni       2.85396974       2.94491128      11.22007911      -0.00471164       0.00100799       0.00352991      -6.23031404
Al       4.35572649       4.36775604      12.54136430       0.00380756       0.00849751      -0.00270891      -4.67423325
Ni       2.88008461       5.60786103      -0.00570097       0.00669762      -0.00395560       0.00661557      -6.05925544
Al       4.18644972       7.16806948       1.33180805      -0.00250814      -0.00652720      -0.00149518      -4.21677840
Al       4.03299403       7.03468226       4.06360055       0.00636133       0.00107194       0.00260859      -4.10537581
Al       4.22950038       7.04390387       6.88865678       0.01028498       0.00929063      -0.00231220      -4.53617533
Ni       2.89757968       5.80540509       8.46583797      -0.00282093       0.00000101       0.00098195      -6.03437407
Al       4.34927828       7.38399237       9.71519148       0.00739956      -0.00580072       0.00296148      -4.45796182
Ni       2.90473967       5.93252391      11.12836103      -0.00338370       0.00115835      -0.00286838      -6.12484180
Al       4.37027217       7.40679538      12.41755273       0.00007695      -0.00703155      -0.00110941      -4.22552131
Al       4.24364700      10.01027385       1.24568518      -0.00412365       0.00333475       0.00265548      -3.94117071
Al       4.13018402       9.92254385       4.09263458      -0.00441837      -0.00058999       0.00662206      -4.56814390
Ni       2.83580928       8.57509342       5.61877000       0.00643195       0.00692824       0.00879342      -5.98534367
Al       4.43742182       9.82336000       6.98429733       0.00539557      -0.00700278       0.00365513      -4.38377076
Al       4.82418571      10.10614615       9.69774007      -0.00681698      -0.00949113      -0.00412064      -3.88042986
Al       3.82710405      10.07322923      12.28087801       0.00161892       0.00164941      -0.00252578      -3.62313797
Al       4.12292462      12.73060179       2.34051795       0.00295598       0.00038379      -0.00260875      -4.19794005
Al       4.78499394      12.45886346       4.94829009       0.00318790      -0.00207665       0.00186577      -3.97789062
Ni       2.93503216      11.12903483       5.82374808      -0.00465846      -0.00881656      -0.00263933      -5.84850130
Al       4.38155992      12.34945351       7.75801639      -0.00383803       0.00601932      -0.00431268      -3.96880669
Al       3.54281083      12.41222310      10.60465146       0.00344567      -0.00220465       0.00639533      -3.90391315
Al       4.73345627      12.49884780      13.19665611      -0.00095985       0.00261357      -0.00583209      -3.83970703
Al       7.43228488       1.72864002       1.65875170      -0.01034952       0.00720617       0.00705815      -3.99215055
Al       6.80434396       1.08319351       4.29102924       0.00241888      -0.00342137       0.00502368      -4.40755812
Al       6.94407946       1.30200622       7.17856593      -0.00622076      -0.00043864       0.00672068      -4.24811154
Al       7.16657599       1.37762955       9.92696580      -0.00298788       0.00643747       0.00174383      -3.97127211
Al       6.98407980       1.52438371      12.84856783       0.00142048      -0.00036318      -0.00271674      -4.08947839
Al       6.86316725       4.32889940       1.59655586       0.00380745       0.00015060      -0.00085592      -3.93350574
Al       7.23850225       3.91126740       4.11068869      -0.00586831       0.00763244       0.01298169      -4.12599605
Ni       5.60199280       2.69903629       5.57682630       0.00234433      -0.00002220      -0.00111236      -6.07769786
Al       6.97046121       4.25452803       7.03167131      -0.00774012       0.00145770      -0.00187416      -4.43577118
Al       7.10504650       4.26459171       9.74280570      -0.00090512      -0.00025995       0.00782708      -4.36021547
Ni       5.73355116       2.83101349      11.23108652       0.00821070      -0.00360538      -0.00692090      -5.91852707
Al       7.14299023       4.33465091      12.55597840       0.00004029       0.00620432       0.00417625      -4.32028008
Ni       5.65460392       5.67272205      -0.00601968       0.00368950      -0.00234220      -0.00278878      -6.14394220
Al       7.00645991       7.24413438       1.34399026       0.00046614       0.00875027       0.00163267      -4.22350685
Al       6.76780604       6.61527690       4.03442444       0.00829703      -0.01068439       0.00389631      -4.27246527
Al       7.07996580       6.94493434       6.75534406      -0.00674127       0.01071483       0.00193730      -4.38063072
Ni       5.68222310       5.82173288       8.43872175       0.00223631       0.00297836       0.00373746      -6.09104631
Al       7.30288639       7.18104566       9.69214943       0.00450304      -0.00408271       0.00014949      -4.37864827
Ni       5.73688496       5.78951211      11.08935444      -0.00335039       0.00041334      -0.00103459      -6.15838638
Al       7.17242340       7.29481196      12.37344721      -0.00132880      -0.00677191       0.00402908      -4.28275198
Al       7.03099605      10.01810602       1.06397796       0.00076320      -0.00122449      -0.00069502      -3.92636072
Ni       5.54695161       8.51772457       2.74447972       0.01959412       0.00343450      -0.00547263      -5.95198134
Al       7.34437870       9.40870253       3.89472964      -0.00832670       0.00322516      -0.00825462      -4.17438198
Ni       5.62099262       8.35818780       5.38528652       0.00075108      -0.00188307       0.00269650      -6.15839542
Al       7.30385562       9.80254772       6.56107458      -0.00912817       0.00586029      -0.00708944      -4.01933328
Ni       5.92451114       8.48514527       8.15220838      -0.00793569       0.00488626       0.00000270      -5.99637749
Al       7.51758551      10.05709859       9.27846759       0.00133462       0.00511611      -0.00058245      -4.10624595
Al       6.64614866      10.05692502      12.04547305       0.00760942       0.00362417      -0.00341602      -3.85753673
Al       6.90113068      12.81112366       1.72551270      -0.00747320      -0.01036864       0.00190539      -4.28568496
Ni       5.79494475      11.09900450       2.89553162       0.00650797       0.00123491      -0.00528344      -5.88143357
Al       7.46084921      12.00831917       4.53130326      -0.00591485      -0.00019213      -0.00033997      -4.23431770
Al       7.21006583      12.37001859       7.52532704      -0.00608533       0.00428456      -0.00050447      -3.82221631
Al       6.24500321      12.39928170      10.38706874      -0.00035300       0.00355616      -0.00245195      -3.63032290
Al       7.54381168      12.49525074      12.84551834      -0.00471925      -0.00331561      -0.00087014      -3.87255483
Ni       8.60532321      -0.00418175       0.17528687      -0.00439338       0.00477156      -0.00055275      -5.98654339
Al      10.13891659       1.24230647       1.62956504      -0.00583311       0.00464881       0.00624164      -4.39755950
Ni       8.50756217      -0.09127400       2.92795080       0.00371211       0.01081127       0.00357152      -6.04173245
Al       9.58928966       1.65973210       4.17701686      -0.00808314      -0.00952819      -0.01244504      -4.59168556
Ni       8.45213067      -0.06276246       5.63712243       0.00008729       0.00323822       0.00155831      -6.00150468
Al       9.91873306       1.34173215       7.02593548       0.00127032      -0.00166260       0.00308450      -4.32784602
Al       9.96968705       1.59542615       9.82194669       0.00011580       0.00318801       0.00240630      -4.02159527
Al       9.83959668       1.83711962      12.57062975      -0.00216712      -0.00250603       0.00165431      -4.22119476
Al       9.69440302       3.97313084       1.48013004       0.00891106       0.00050984      -0.00169750      -4.28304064
Al      10.20785496       4.58274584       4.15114219      -0.00510814      -0.00738037       0.00518332      -4.37662695
Ni       8.26258257       2.67483494       5.81502184      -0.00803395      -0.00170633       0.00029805      -6.05583093
Al       9.86511107       4.13628905       6.94225173       0.00171132      -0.00395161       0.00352379      -4.29579850
Ni       8.47025350       2.80365103       8.40878797       0.00179314      -0.00463264       0.00116960      -5.90848458
Al       9.83672452       4.52739565       9.62224928       0.00614664      -0.00063160       0.00232546      -3.95471261
Al       9.84540695       4.57000768      12.41625221      -0.00320285       0.00265608       0.00004521      -4.19585169
Ni       8.33474219       5.57112721       0.14697468       0.00492285      -0.00524131      -0.00985730      -6.07875604
Al       9.67214035       6.83395969       1.75694626       0.00037221       0.00044489       0.00673332      -4.10734047
Al       9.65709404       7.29950856       4.37366591       0.00135102      -0.00438949      -0.00223429      -4.00604825
Ni       8.46011472       5.50351371       5.48326539      -0.00680302       0.00102740      -0.00841088      -5.88879094
Al       9.79017470       6.79722616       7.11290320       0.00309641      -0.00227068       0.00434390      -4.00022231
Al      10.02441398       7.41354787       9.70532434       0.00960368       0.00125089       0.00133759      -3.97720661
Al       9.79036440       7.36483456      12.58504606       0.00733356       0.00233623      -0.00451278      -4.49679721
Al       9.60950162       9.51240108       1.98520522       0.00735652      -0.00516585      -0.00376716      -3.83928621
Al       9.74185596       9.95529861       4.72825446       0.01503910       0.00510767       0.00486195      -4.02481717
Al       9.86824824       9.61714206       7.51894931      -0.00548096      -0.00732172      -0.00403122      -4.01481469
Al      10.11449473      10.54380677      10.07514698       0.00453926      -0.00360206      -0.00330464      -4.09297131
Ni       8.58190992       8.82239204      11.07648460       0.00813183      -0.00599543       0.00112041      -5.92551602
Al       9.42809079      10.12876034      12.94443363       0.00587122       0.01278942       0.00191598      -4.18246041
Al       9.94623097      12.16531050       1.76963133      -0.00403220      -0.00160134       0.00753265      -4.10459665
Al      10.35501156      12.62440357       4.59335753      -0.00375138       0.00068246       0.00491627      -4.27353861
Al      10.03316419      12.39181387       7.46626777      -0.00418972       0.00173232       0.00351207      -4.05097462
Al       8.86258281      12.89176479      10.05824760      -0.00384930       0.00066608      -0.00430617      -3.63311284
Al      10.21049530      12.72022088      12.50790223       0.00041874      -0.00043957      -0.00363517      -4.03498953
Ni      11.20295357      -0.02300790      -0.01440775      -0.00075967       0.00046721      -0.00011407      -5.84024493
Al      12.88128643       1.54551192       1.50066280      -0.00140192       0.00094494       0.00606090      -3.87856182
Al      12.40903008       1.05367014       4.19751121       0.00578058      -0.00072313       0.00768124      -4.38133577
Al      12.63540146       1.50437392       7.07232244      -0.00381589       0.00448321       0.00349536      -4.18731418
Al      12.64412027       1.56967067       9.83104394      -0.00269615      -0.00237414       0.00622921      -4.15526869
Al      12.58952732       1.87526441      12.67626504       0.00036114       0.00408586      -0.00340400      -4.18327623
Al      12.52143131       4.37600458       1.55837757      -0.00825857      -0.00329876      -0.00644541      -4.12080419
Ni      11.32773518       2.81664520       2.94807854       0.00693160      -0.00385539      -0.00904061      -5.88540170
Al      13.08925076       3.90242133       4.22610286      -0.00270999      -0.00045755       0.00404347      -4.31237067
Ni      11.27856973       2.81868071       5.49256648       0.00367034      -0.00209219       0.00009011      -5.98764509
Al      12.63807893       4.25349632       6.91259676      -0.00032562      -0.01010314       0.00633840      -3.96159797
Al      12.59310748       4.73337616       9.65560252       0.00172919       0.00048675      -0.00037148      -4.15867567
Ni      11.30774846       3.20260266      11.12160120       0.00201393      -0.00604195      -0.00709076      -5.91196587
Al      12.62701441       4.73619151      12.54807171       0.00593818       0.00277475      -0.00772600      -4.23818402
Ni      11.00164677       5.68743156       0.17165810       0.00920389      -0.00248332       0.00059894      -6.00340393
Al      12.47670831       7.03659910       1.63010402       0.00571871      -0.00059567      -0.00429616      -4.55998952
Al      12.42589597       6.81242455       4.49912370       0.00224335       0.00810761      -0.00235158      -4.24187429
Al      12.58555323       6.84326577       7.34164524      -0.00492570      -0.00030790      -0.00190422      -3.72157420
Al      12.76851156       7.56921412       9.91644147       0.00337674       0.00578119      -0.00156295      -3.70588872
Al      12.63535476       7.42617449      12.64861911      -0.00038955      -0.00235131       0.00463203      -4.25254478
Ni      11.03246697       8.43226664       0.29506015       0.00317874      -0.00428517       0.00110968      -6.05689840
Al      12.40337064       9.90644629       1.77435486      -0.00732621      -0.00282898      -0.00022274      -4.27788007
Al      12.59859865       9.56941412       4.47025717      -0.00239483      -0.00585383       0.01135130      -4.24122226
Ni      11.23707852       8.37477064       5.97443338       0.00517683       0.00570785      -0.00459616      -5.90485507
Al      12.78382656       9.53345205       7.51593795      -0.00120552      -0.00499955      -0.01019301      -3.96142517
Al      12.98659877      10.37301593      10.12937843       0.00330264       0.00231839       0.00582451      -3.84813842
Ni      11.19595141       8.86670339      11.30191785      -0.00189308       0.00408816      -0.00313438      -5.95451519
Al      12.26474831      10.38036418      12.83712931      -0.00556647       0.00330883      -0.00570907      -4.40169947
Al      12.66626269      12.59510204       1.89169384      -0.00415227      -0.00161637      -0.00627877      -3.93861526
Al      13.07453967      12.18503198       4.62003123      -0.00082502       0.00477255       0.00420277      -3.98916844
Ni      11.43239274      10.94982492       6.08260360       0.00079207      -0.01072024      -0.00131262      -5.90459112
Al      12.86722054      12.37177772       7.47816256      -0.00323418      -0.00248991      -0.00246154      -4.05599567
Al      11.66423295      12.90748134       9.90834187       0.00738803      -0.00030181      -0.00292773      -3.70839529
Al      13.02466999      12.96097351      12.49455173       0.00380482       0.00215735       0.00222319      -4.04267722
