91
Lattice="11.216594500310048 -0.005552436353391095 0.0143055678677965 -0.005551915241128438 11.22692512229207 0.020884129291504416 0.014294849609105733 0.020882541355044155 11.21256831843745" Properties=species:S:1:pos:R:3:forces:R:3:energies:R:1 energy=-432.890346434437 stress="-0.00010708568599480672 -8.72629765330705e-05 -0.0006159435835060003 -8.72629765330705e-05 -0.00025844011354537826 -0.0009420901312451235 -0.0006159435835060003 -0.0009420901312451235 0.00020034616984922107" free_energy=-432.890346434437 pbc="T T T"
Al       1.42474154       1.42360601       1.50296582       0.00313070      -0.00436579      -0.00213153      -4.25097666
Ni       0.03411275      -0.04087309       2.84633781       0.00996742      -0.00764100      -0.00266424      -5.99839680
Al       1.44417184       1.38417243       4.30279182       0.00689290       0.00030606       0.00046408      -3.93846002
Al       1.39186713       1.47949506       7.06305065       0.01374792       0.00539472      -0.00953341      -4.11779133
Ni      -0.00855779      -0.04606525       8.37933993       0.00959175      -0.00926736       0.00453938      -5.90836271
Al       1.40433582       1.34478615       9.78836109       0.00145522       0.00726342       0.00653240      -4.37741051
Al       1.26927255       4.18957465       1.38218579      -0.00249955       0.00637249       0.00533010      -3.64771058
Al       1.46245153       4.19607054       4.11496882       0.00263341       0.00931420      -0.00190431      -3.93688376
Ni      -0.00547809       2.92478469       5.58585635      -0.00362497       0.00253858       0.00271082      -6.01927080
Al       1.46042248       4.22034215       7.05478409      -0.00171184       0.00388637      -0.00482481      -4.37803519
Al       1.35165270       4.26441940       9.81139838       0.00566551      -0.00369915       0.00752120      -4.23911893
Al       1.47993872       6.92464428       1.43014529      -0.00161900       0.00053542      -0.00952378      -3.93757196
Al       1.46878640       6.93686124       4.15505280       0.00231080       0.00121379       0.00838398      -4.10290069
Ni       0.03943656       5.58997534       5.63108578       0.00036743       0.01946184      -0.00012498      -6.15458520
Al       1.48682729       7.00376043       6.98649508      -0.00724718      -0.00599434      -0.01036713      -4.49318373
Ni      -0.05140899       5.66701505       8.40772126      -0.00709105      -0.00065787      -0.00255916      -5.99158791
Al       1.43343154       6.99375253       9.87516069       0.01055445      -0.00619290       0.00744384      -4.27114993
Ni      -0.04023670       8.33320211       0.12042153       0.00634417      -0.00465458      -0.01183062      -6.13019341
Al       1.45425865       9.84594956       1.38920671       0.00238361      -0.00968398       0.00571239      -4.36383167
Ni       0.06780003       8.43905563       2.82360541       0.00665806      -0.00320187       0.00821832      -6.16194692
Al       1.51333109       9.81381603       4.25503721      -0.01187882      -0.00408461      -0.00396298      -4.11424433
Ni       0.01420627       8.33020522       5.52512516      -0.00516638      -0.00051870      -0.01160802      -6.15565797
Al       1.44479116       9.85783769       6.96318677      -0.00344929       0.00144205      -0.00252680      -4.28353559
Ni       0.07030943       8.44018737       8.41690173      -0.00043723       0.00396419       0.01270430      -6.28060191
Al       1.46164414       9.84076289       9.89624799      -0.00448274      -0.00325631      -0.01480582      -4.43299094
Ni       2.89301018       0.08484063       0.07637990      -0.01175058       0.00551726       0.00004338      -6.01509693
Al       4.27001333       1.50593907       1.40981671       0.00238258       0.01420500       0.00168834      -4.37732739
Al       4.20424465       1.41318934       4.20599978      -0.00525535      -0.00258604      -0.00298290      -3.95971459
Al       4.14444075       1.45512179       6.99553026      -0.00051215       0.00226835      -0.00109332      -4.24428638
Al       4.27716616       1.44104294       9.73895379       0.00148940      -0.00606131      -0.00739095      -4.53302416
Ni       2.74082383       2.80312613      -0.05051488      -0.00396493       0.00164655      -0.00822709      -6.01860439
Al       4.02822336       4.26243106       1.47734920      -0.00747105       0.00102756       0.00761447      -4.26994175
Al       4.11759102       4.17834086       4.35130929       0.00978452       0.00038158       0.01029694      -4.12206512
Al       4.30311438       4.23569330       7.11805275      -0.00043941       0.00001725      -0.00290459      -4.07997081
Ni       2.85799568       2.89180797       8.48966693       0.00256522       0.00703332       0.00006589      -5.90238987
Al       4.27265861       4.30144314       9.92422756       0.00172014       0.00094205       0.00425568      -3.90273839
Al       4.21641573       7.03211661       1.45827383      -0.00601558      -0.00318306       0.00194840      -3.92861649
Al       4.12984832       7.09100711       4.23107491       0.01183457      -0.00825385      -0.00213319      -3.93256636
Al       4.21736477       6.97592577       7.00838389      -0.01419854       0.00528208       0.00516107      -4.25807411
Al       4.17189386       6.97927254       9.92185429       0.00467517       0.00284024       0.00145565      -4.12972077
Al       4.20094610       9.78061490       1.47644954       0.00275061       0.00756707       0.01144210      -4.13669095
Al       4.22438478       9.81772151       4.18472430      -0.00033723       0.00010528       0.00777037      -3.67218466
Al       4.13976058       9.81146032       6.97024163      -0.00864938      -0.00571986      -0.00148796      -4.37739670
Ni       2.84945206       8.37545493       8.39972925       0.00372533       0.01204593       0.00386205      -6.06689550
Al       4.14543308       9.85079415       9.82191369       0.00563274      -0.01463497      -0.01216732      -4.60461638
Ni       5.57967341      -0.04298771      -0.04475354      -0.00066288      -0.00071371      -0.00592081      -6.19060946
Al       6.90786655       1.42161901       1.42019927       0.00960187       0.00005514       0.00550318      -4.59331641
Al       6.97607543       1.41763445       4.24880797       0.00484849      -0.00483756      -0.00480763      -4.45557583
Ni       5.57507798       0.00008657       5.67658070       0.00456116       0.00051498      -0.00102361      -5.91857630
Al       7.08683619       1.42855509       6.96996409       0.00029456      -0.00045497       0.01153174      -4.22836400
Ni       5.66446753      -0.01737591       8.28615267      -0.00242535      -0.00300619      -0.00246388      -6.13506636
Al       7.02212903       1.44425390       9.73839121       0.00880286      -0.00100400      -0.00110438      -4.32268870
Al       6.92433770       4.26269671       1.32440565       0.00459918       0.00391464      -0.00998101      -4.37114027
Ni       5.56849280       2.94161613       2.83077091       0.00197955      -0.01151017       0.00498534      -6.00189553
Al       7.06869655       4.26788727       4.25829124       0.00769773      -0.00844285       0.00729166      -4.56663677
Al       7.03935539       4.22349859       6.98356758       0.00754672       0.00007024       0.00405571      -3.89860472
Al       6.97788410       4.21053457       9.74155500      -0.00385757       0.00179485       0.00646433      -3.64096558
Al       6.99493675       6.97030113       1.52548014       0.00094062      -0.00656863      -0.01049561      -4.21176665
Ni       5.54073775       5.57641090       2.92355155       0.00077784       0.00010872       0.00072212      -6.03678845
Al       7.01450051       7.14006845       4.26356797      -0.00481292      -0.00564448       0.00798951      -3.92866157
Ni       5.58501482       5.65691013       5.57928731       0.00838689      -0.00238146      -0.01174963      -5.92274699
Al       7.01834309       6.98131457       7.06329291      -0.00770872       0.00885925      -0.00358881      -3.93917530
Al       7.02124069       6.93089383       9.80814748      -0.00262838      -0.00099749      -0.00143786      -4.10500800
Ni       5.68825815       8.39015185       0.01141956      -0.00387504       0.00966490      -0.00093125      -6.06889949
Al       6.98415741       9.82106604       1.51029949      -0.00299131      -0.00797600       0.00232522      -4.48600669
Al       7.01880291       9.88385245       4.22869972      -0.00954172      -0.00217598       0.00146421      -3.93840088
Al       7.05101727       9.71480592       6.96317347      -0.00075237      -0.00159747       0.00607909      -4.09769360
Ni       5.54788918       8.40774891       8.47235015      -0.00371106       0.00433563       0.00504361      -6.08012614
Al       7.08264867       9.83089227       9.76207183       0.00523119       0.00038863       0.00158908      -4.60956839
Ni       8.35311936       0.04687655       0.04047992       0.00063033      -0.00612786      -0.00007023      -6.17162472
Al       9.92164719       1.44516726       1.37886585      -0.00472421       0.00671022      -0.00987064      -4.46929075
Ni       8.48680105       0.05201183       2.79999420      -0.00716427      -0.00513091      -0.00341387      -6.06803231
Al       9.90033877       1.44527978       4.17587569      -0.00260172       0.01417632       0.00308524      -4.55071734
Al       9.86396899       1.36845267       7.00009070      -0.00116971       0.01093188      -0.00463359      -4.22535081
Al       9.85540360       1.40105475       9.78936767      -0.00245996       0.00482878       0.01098244      -4.19238289
Ni       8.41720942       2.80391228      -0.00142313      -0.00053271      -0.00033391      -0.00738828      -5.98207726
Al       9.79040474       4.27240563       1.38284553      -0.00696870      -0.00102386       0.00317091      -3.87110946
Ni       8.35644813       2.82535614       2.78491804      -0.00148556       0.00111190      -0.00249104      -6.18411933
Al       9.84558383       4.29099999       4.10944149      -0.00633614      -0.00725407      -0.00593238      -4.36861609
Ni       8.52268069       2.82654478       5.59501993      -0.00393100       0.00097038       0.00435900      -5.99564085
Al       9.76038892       4.25557376       7.05969823      -0.00222146      -0.00817479      -0.00301504      -4.36488459
Al       9.79490295       4.22528065       9.80908128      -0.00783189       0.00302578       0.00834287      -4.02907274
Al       9.76810423       6.94605047       1.52293607       0.00250136      -0.00425386      -0.00515814      -4.06417379
Al       9.73959328       6.97876637       4.20757992       0.00962364      -0.00079297      -0.00499670      -4.06328897
Al       9.73164966       7.04263233       7.00735076      -0.00625909       0.00261135       0.01197763      -4.27426693
Al       9.77253999       7.01482872       9.83304833      -0.00246837       0.00057210      -0.01056144      -4.36196948
Ni       8.37410521       8.34750039       0.05439224       0.00287741       0.00008443      -0.00477795      -6.12151466
Al       9.80270097       9.82164292       1.43874079      -0.01639019       0.00245629      -0.00864951      -4.62115176
Al       9.77298941       9.80065197       4.27638851       0.01254718       0.00044551       0.00695319      -4.35298776
Al       9.77685621       9.80036177       6.98627340      -0.00306361      -0.00093165       0.00321748      -4.08701675
Al       9.83092355       9.84707556       9.87723047       0.00466590      -0.00521219       0.00891951      -4.50445391
