128
Lattice="10.945425643966061 0.26486588402603756 0.0064496100566254115 0.2576720023419555 12.890958668722446 0.0009023293982645907 0.0022313423966764316 0.03178956160260268 10.145725784372011" Properties=species:S:1:pos:R:3:forces:R:3:energies:R:1 energy=-726.3773059698254 stress="-0.00037284760441613204 0.0011799118273770675 0.00033475296555627237 0.0011799118273770675 0.00017756616597075885 0.0010846951680472628 0.00033475296555627237 0.0010846951680472628 0.001005107431619213" free_energy=-726.3773059698254 pbc="T T T"
Ni      -0.32336862      -0.38640030       0.00911151       0.00434610      -0.00475798      -0.00066058      -5.79957417
Ni       1.06970568       1.24091577       1.25670153      -0.00074907       0.00309366      -0.00251819      -5.74923657
Ni      -0.33078816      -0.36192559       2.53328519       0.00636971      -0.00246917       0.00168452      -5.81803915
Al       1.15835061       1.23500328       3.81917104       0.00696987      -0.00164533       0.00146934      -5.07777808
Ni      -0.32214810      -0.36593444       5.08842228      -0.00417434       0.00011460      -0.00367513      -5.81725446
Ni       1.07648093       1.26220788       6.36632746       0.00237021       0.00323331       0.00435820      -5.76101389
Ni      -0.31005120      -0.37530706       7.60657177      -0.00290027      -0.00150601       0.00196346      -5.79640897
Ni       1.05892197       1.27440962       8.87812444       0.00815086      -0.00412137      -0.00151663      -5.72640918
Ni      -0.01431507       3.09395218       0.02647124       0.00066751       0.00215022      -0.00667354      -5.84976964
Ni       1.40222099       4.74082542       1.27112636       0.00069919      -0.00306244      -0.00443254      -5.79086059
Ni      -0.03412155       3.02620673       2.54632125      -0.00173775      -0.00241985      -0.00302326      -5.90829850
Al       1.35571315       4.73172664       3.79598634      -0.00295167       0.00217255       0.00113794      -5.12604683
Ni      -0.04274859       3.05231392       5.07420425       0.00376015       0.00115908       0.00210198      -5.91438311
Ni       1.36152125       4.76094871       6.34480700       0.00836861      -0.00254939      -0.00103229      -5.78971312
Ni      -0.02613126       3.13146648       7.59108182      -0.00292162      -0.00105611      -0.00216693      -5.84945563
Ni       1.36687514       4.76070588       8.89323109      -0.00334226       0.00004978      -0.00004973      -5.73169126
Ni       0.26428853       6.54774334       0.02159376      -0.00398666      -0.00155532      -0.00160524      -5.89590895
Ni       1.66939843       8.23171226       1.28881953      -0.00266449      -0.00191200      -0.00552495      -5.78464093
Ni       0.27926858       6.62373023       2.56359562      -0.00305855      -0.00299123      -0.00840055      -5.85967630
Ni       1.66757091       8.25772962       3.80519092       0.00185777      -0.00129924      -0.00140781      -5.69574246
Ni       0.27115639       6.62051177       5.05021431       0.00376802      -0.00326623      -0.00271818      -5.86319340
Ni       1.61964410       8.23915395       6.32728774       0.00064606      -0.00029361       0.00255149      -5.87497185
Ni       0.25191969       6.56146738       7.59576890      -0.00126264       0.00227239       0.00304501      -5.90173271
Al       1.63389301       8.24097128       8.87267198      -0.00276188       0.00560958      -0.00071295      -5.13244832
Ni       0.56420392      10.09106411       0.00609153       0.00419861      -0.00195721      -0.00179267      -5.83823725
Ni       1.90568185      11.72250540       1.26210925      -0.00919346      -0.00478836       0.00225758      -5.75260004
Ni       0.56397241      10.08883019       2.54328349      -0.00705195      -0.00084484      -0.00251451      -5.73408566
Ni       1.89592989      11.71447064       3.81000084      -0.00495023       0.00740278      -0.00229904      -5.76633928
Ni       0.54848650      10.09786322       5.07303622      -0.00242865       0.00317628      -0.00335831      -5.73573025
Ni       1.93630483      11.73853227       6.34553377      -0.00207009      -0.00083026      -0.00036001      -5.70923558
Ni       0.56636836      10.12018034       7.60067382      -0.00235695      -0.00616518       0.00116330      -5.83826502
Ni       1.93076970      11.74719827       8.88252730      -0.00073608       0.00302135      -0.00027794      -5.71610153
Ni       3.04176725       0.47981788      -0.04147600       0.00043115      -0.00672279      -0.00389624      -5.80208610
Al       4.48576828       2.10570229       1.14670261       0.00198204       0.00603983       0.00449300      -5.04242471
Ni       3.07725735       0.45620557       2.49219759      -0.00303301       0.00337569      -0.00027092      -5.95345737
Al       4.44479489       2.10939538       3.80918614      -0.00364917      -0.00002739       0.00023088      -4.95777071
Ni       3.07986410       0.48859481       5.14440787       0.00314037      -0.00182789       0.00379814      -5.85562969
Al       4.38139357       2.15716327       6.47231852       0.00089006       0.00445884       0.00875925      -5.01139781
Ni       3.05382619       0.47292376       7.63378265      -0.00447243       0.00500542       0.00220236      -5.74089877
Ni       4.45813827       2.14439583       8.87559571       0.00399364       0.00566392       0.00142871      -5.80332091
Ni       2.44558170       2.89807320      -0.01114282       0.00201051       0.00317009       0.00461875      -5.74028152
Ni       3.87898965       4.54522590       1.26326575       0.00581760      -0.00269303       0.00256634      -5.75364409
Ni       2.48574074       2.89783771       2.49152540       0.00116531       0.00428931       0.00094510      -5.90287391
Ni       3.86040070       4.56107892       3.80486607      -0.00180358      -0.00321806       0.00306086      -5.77108162
Ni       2.46099456       2.93025655       5.11296806      -0.00214766       0.00517953       0.00333822      -5.90787953
Ni       3.85251380       4.57221304       6.35275601       0.00341133       0.00061381       0.00247063      -5.74795887
Ni       2.41795574       2.93097910       7.64487208       0.00293972       0.00164898      -0.00064129      -5.73944187
Ni       3.85763127       4.56044210       8.87796611       0.00225227      -0.00214513       0.00476414      -5.70117384
Ni       2.75617212       6.36905464       0.01635880       0.00313981       0.00499168      -0.00556813      -5.71233253
Ni       4.14491038       8.04834077       1.28206962      -0.00461378       0.00082957       0.00061826      -5.72073367
Ni       2.77307593       6.39942326       2.53582111      -0.01025413      -0.00009380       0.00174024      -5.71039907
Ni       4.14922209       8.05722069       3.79483139      -0.00064623       0.00022630       0.00092620      -5.73338501
Ni       2.73999368       6.39399365       5.06246589      -0.00486239      -0.00385151      -0.00234408      -5.78632075
Al       4.05874326       8.04265748       6.35095147       0.00053831       0.00681411       0.00319698      -5.09459179
Ni       2.73845115       6.36879566       7.62047840       0.00306500       0.00347909       0.00243316      -5.78406961
Ni       4.12137090       8.03626761       8.90101876      -0.00134790      -0.00190619       0.00112771      -5.86932459
Ni       3.02463711       9.85774354      -0.01541994      -0.00118042      -0.00003673       0.00254406      -5.79560407
Al       4.35308153      11.52718915       1.15389855       0.00292904       0.00276595       0.00217323      -5.02726714
Ni       3.03701747       9.89831264       2.53331301      -0.00207545      -0.00138549      -0.00499546      -5.80058936
Al       4.33488388      11.54887264       3.89901013      -0.00704334       0.00063192       0.00766377      -4.98248591
Ni       3.00965797       9.88594479       5.09057653      -0.00061643       0.00059827       0.00453750      -5.74298334
Ni       4.42990046      11.52914334       6.38613202       0.00324760       0.00115164      -0.00796929      -5.77944691
Ni       3.03285269       9.91352661       7.61836698      -0.00076436      -0.00603109      -0.00537953      -5.79445383
Ni       4.43242799      11.53581972       8.85177886       0.00525375      -0.00171964       0.00629279      -5.73032461
Ni       5.60007159       0.24712497      -0.03423982      -0.00058476      -0.00778939      -0.00380080      -5.83483924
Ni       6.97968905       1.91787988       1.26409497      -0.00694797       0.00414597       0.00173050      -5.72666199
Ni       5.59919573       0.19727600       2.51314670       0.00420662      -0.00818260       0.00727424      -6.09784519
Ni       6.95122458       1.89279392       3.78621655       0.00004148       0.00230155      -0.00134745      -5.83873210
Ni       5.58555401       0.27790959       5.09537285      -0.00187318      -0.00318165       0.00320695      -6.09973582
Al       7.06761206       1.92099470       6.35189430      -0.00267326      -0.00232462      -0.00000741      -5.07914151
Ni       5.57623983       0.31353979       7.63447100       0.00010083      -0.00290696      -0.00011231      -5.84227836
Ni       6.98276501       1.95142562       8.88742988      -0.00642325       0.00378339       0.00091372      -5.78941830
Ni       5.86305849       3.74947574      -0.04833677      -0.00231148      -0.00680270       0.00076348      -5.74054706
Al       7.18379102       5.33442678       1.18375996       0.00186811      -0.00271853      -0.00053267      -5.01693368
Ni       5.85252166       3.74419941       2.54389734      -0.00415361      -0.00630123      -0.00009513      -5.92006737
Al       7.24819632       5.43174500       3.89068109       0.00255080       0.00600532       0.00319751      -5.05786084
Ni       5.82835126       3.73694063       5.10190272      -0.00055590       0.00509923       0.00388498      -5.92116952
Ni       7.24195797       5.40251737       6.35204259      -0.00095862       0.00527731       0.00326066      -5.84455092
Ni       5.87077825       3.77285043       7.60278162      -0.00238003      -0.00514281       0.00695654      -5.81132825
Ni       7.24196062       5.39077425       8.85215806      -0.00313958       0.00173412       0.00126952      -5.80763816
Ni       5.22614284       6.19187615       0.01298784       0.00082978       0.00282816      -0.00939527      -5.89165135
Al       6.61470661       7.93177187       1.39774733      -0.00145187      -0.00144878       0.00698995      -4.97529190
Ni       5.25271067       6.18589261       2.54494567      -0.00298055      -0.00219403       0.00853172      -5.87893285
Ni       6.64426228       7.87829746       3.80685250       0.00501308       0.00027457       0.00243969      -5.86026672
Ni       5.21224519       6.20563097       5.07678290       0.00911577      -0.00148903       0.00532914      -5.85644244
Al       6.74838993       7.81990727       6.22509821       0.00104845      -0.00594223      -0.00283734      -5.03024737
Ni       5.24813556       6.20753013       7.59593288       0.00894548       0.00060728      -0.00102777      -5.89760325
Al       6.63097085       7.80068024       8.88741799       0.00773611      -0.00266365      -0.00030253      -4.96361579
Ni       5.52644073       9.66058310      -0.02289335       0.00021218       0.00593358       0.00280143      -5.92281891
Al       7.05748994      11.27669659       1.14939117       0.00107520       0.00046029       0.00079022      -5.01520000
Ni       5.52663661       9.80402474       2.56314338      -0.00108028       0.00265753      -0.00042572      -6.02244089
Al       7.05802224      11.33808118       3.81201715       0.00189962       0.00043140       0.00028124      -4.91434987
Ni       5.55414591       9.70946918       5.07298694      -0.00285615       0.00336182       0.00248622      -5.99925079
Al       6.95620721      11.31594584       6.46208984      -0.00222505      -0.00189522      -0.00678912      -5.02053830
Ni       5.52696064       9.63487078       7.61346206       0.00176276       0.00106465      -0.00227509      -5.90017797
Ni       6.94741348      11.32500463       8.87682262      -0.00410617       0.00172471      -0.00135901      -5.85704897
Ni       8.10544698       0.10168586      -0.00048768      -0.00071786      -0.00131001      -0.00477638      -5.86246834
Ni       9.49645605       1.71902303       1.26672792       0.00093816       0.00144210      -0.00341084      -5.78164111
Ni       8.09912090       0.05867880       2.50167486      -0.00012858       0.00308284      -0.00118674      -5.82189964
Al       9.40510282       1.70308622       3.80845220       0.00493976      -0.00049849      -0.00574012      -5.08525642
Ni       8.11579854       0.04562003       5.10404770       0.00368664      -0.00042396      -0.00039957      -5.88014946
Ni       9.53851819       1.71873144       6.36178954      -0.00201893       0.00283925       0.00468050      -5.86582188
Ni       8.11424467       0.09088543       7.63803391       0.00316756       0.00084717      -0.00382257      -5.96367082
Al       9.51751642       1.76092397       8.88152727      -0.00977561      -0.00224208      -0.00457634      -5.11635412
Ni       8.38564521       3.56044508       0.02151854      -0.00531410       0.00520909       0.00285153      -5.94526553
Al       9.88942508       5.18820508       1.39802756      -0.00548518      -0.00071194      -0.00811200      -4.98978899
Ni       8.34813057       3.58701250       2.52853174       0.00029052      -0.00261119      -0.00512912      -5.89924485
Ni       9.79563735       5.20115089       3.80532311       0.00870498      -0.00036302       0.00204668      -5.94912841
Ni       8.36976843       3.55820617       5.06146240       0.00581183       0.00028207       0.00065288      -5.77869605
Al       9.78848956       5.22769576       6.22554553      -0.00110957      -0.00214622      -0.00119419      -5.05900766
Ni       8.39105451       3.61115847       7.60746427      -0.00192617      -0.00360696       0.00069437      -5.91279064
Al       9.80170200       5.19390268       8.89528409      -0.00149243       0.00470280       0.00099103      -4.99661895
Ni       8.66467519       6.98611803       0.02535900      -0.00572363      -0.00377550      -0.00089273      -6.03794210
Al      10.10626690       8.70155064       1.27698719       0.00042112       0.00536580      -0.00559379      -5.07222651
Ni       8.65625498       7.03365600       2.54526996       0.00602913       0.00353619       0.00146738      -6.01547507
Ni      10.11786256       8.73309271       3.80456108      -0.00068073      -0.00115629      -0.00653927      -5.78675255
Ni       8.72544959       7.09864770       5.01864569      -0.00021786      -0.00506662      -0.00112789      -5.91827585
Al      10.08627053       8.72115214       6.35127130       0.00178760      -0.00104553       0.00412866      -5.07789637
Ni       8.67678988       7.02154710       7.61793983       0.00173880      -0.00210712      -0.00364127      -5.93603527
Ni      10.09050448       8.68065929       8.88248115       0.00401217      -0.00121523       0.00098419      -5.93736473
Ni       8.07161328       9.40209677      -0.01287757      -0.00077169       0.00621222       0.00307179      -5.91337080
Ni       9.52191924      11.13971484       1.29078728       0.00289509      -0.00085204      -0.00461468      -5.84930108
Ni       8.10649899       9.49684942       2.57008743      -0.00337656      -0.00178334      -0.00283658      -5.86849339
Ni       9.53507402      11.15178012       3.80836756       0.00158011      -0.00273725      -0.00150527      -5.75788025
Ni       8.09929934       9.52666267       5.05990922      -0.00401298      -0.00089480       0.00332594      -5.87691501
Ni       9.49759080      11.15323010       6.34647797       0.00694319      -0.00012087       0.00047409      -5.84491540
Ni       8.06009134       9.44735099       7.63349385      -0.00133677      -0.00091572      -0.00534220      -5.92096821
Al       9.48236578      11.13034278       8.89582359       0.00286617       0.00211757       0.00339534      -5.12058861
