179
Lattice="14.029089212366534 0.023270262308297526 -0.01873905832962861 0.023286788909225146 14.005613018566242 0.007549278860623051 -0.01875279102913536 0.007550731975389338 14.006321003749463" Properties=species:S:1:pos:R:3:forces:R:3:energies:R:1 rep=5 n_sites=250 energy=-854.6661172792143 stress="0.00015580919865716897 -0.00022236231881447055 0.0008273678301668707 -0.00022236231881447055 -7.381862130127e-05 -0.00014910459821264628 0.0008273678301668707 -0.00014910459821264628 -0.0005266094992538435" free_energy=-854.6661172792143 pbc="T T T"
Al       1.32035050       1.33908445       1.56888182      -0.00332137       0.00353482       0.00014318      -4.08470289
Al       1.48533892       1.41111754       4.33894794       0.00053007       0.00893967      -0.00486383      -3.92034759
Al       1.41435988       1.37051962       7.06252665      -0.00216040      -0.00901676       0.00348963      -4.24274039
Al       1.39168164       1.38660455       9.83619726       0.00241178      -0.00397386       0.00425139      -3.89912949
Al       1.27563851       1.40969613      12.59262970      -0.00085064       0.00198172       0.00349995      -3.91073331
Al       1.38808617       4.18220843       1.41623258       0.00145720       0.00048737      -0.00255810      -4.45417436
Al       1.39128452       4.23172999       4.22703521       0.00676351       0.00107153      -0.00437813      -3.95816070
Al       1.45746806       4.20159014       6.95637026      -0.00270434      -0.00772316       0.00027680      -3.66548543
Ni      -0.03189228       2.77498132       8.35703718       0.00237455      -0.00067755       0.00139829      -5.91759374
Al       1.39791410       4.14258309       9.77068037      -0.00195846      -0.00034840      -0.00705837      -4.25437992
Al       1.42632507       4.18989757      12.71486408       0.00218918      -0.00465129      -0.00274537      -4.36926852
Ni      -0.04240983       5.67400046       0.06248623      -0.00610815      -0.00113485       0.00131823      -6.20090709
Al       1.44288242       7.05874501       1.46993208       0.00412142       0.00230927       0.00096137      -4.36933081
Ni      -0.00802011       5.57168100       2.75509927      -0.00326922      -0.01183609       0.00350438      -5.91168859
Al       1.39808777       7.03601974       4.21562690      -0.00123397      -0.00024091       0.00061560      -4.17235753
Al       1.34710307       6.96761681       6.97882136      -0.00305990       0.00370006       0.00365776      -3.98034532
Al       1.41152796       7.04132581       9.77824250       0.00520114       0.00820763      -0.00285884      -4.38862709
Ni       0.10031606       5.63581058      11.26112079      -0.00457773      -0.00874922      -0.00279101      -6.08192054
Al       1.51300232       7.05499831      12.66976737       0.01009037       0.00212966       0.00698493      -4.49449482
Ni       0.01030330       8.40130940      -0.02203158      -0.00583398       0.00408702      -0.00423976      -6.13075164
Al       1.46281334       9.77573445       1.45760023       0.00769711      -0.01261937      -0.00084998      -4.43043005
Al       1.47454378       9.79375169       4.15024536       0.00464758      -0.00653360      -0.00867271      -4.48252765
Ni      -0.07068813       8.48500269       5.60639963      -0.00517382      -0.00244360      -0.00143988      -6.02356485
Al       1.47100683       9.73702859       6.98281290      -0.00526314      -0.00064226      -0.00420564      -4.38128971
Al       1.34615521       9.77583355       9.72414380      -0.00241846      -0.00564547      -0.00360837      -4.21358161
Ni      -0.05726349       8.42194835      11.23416823      -0.00284922       0.00234980       0.00536677      -6.16599001
Al       1.52571370       9.79757296      12.57616350       0.00126554      -0.00267345      -0.00687131      -4.46447064
Ni       0.06267956      11.14871175       0.02423978       0.00370258       0.00241241       0.00601042      -6.25312064
Al       1.38642875      12.65493269       1.46167352      -0.00059364      -0.00176757      -0.00125598      -4.32602007
Ni      -0.04603981      11.25085647       2.83016913      -0.00179778       0.00489920      -0.00101607      -6.14979957
Al       1.46122295      12.65655678       4.18712710      -0.00084523      -0.00193029      -0.00501239      -4.37670150
Ni       0.06903426      11.17210799       5.56719600       0.00048380      -0.00084928       0.00546011      -6.07486121
Al       1.41076155      12.50285338       7.12439985       0.00155791      -0.00531848      -0.00436495      -4.36115662
Al       1.42931574      12.57675589       9.86200859      -0.00458973      -0.00113120       0.00353509      -4.03795931
Ni      -0.01502850      11.17230803      11.19543679       0.00044885      -0.00110143       0.00127153      -6.04644199
Al       1.37342626      12.66271638      12.58966309       0.00164609      -0.00302736      -0.00618095      -4.31346619
Ni       2.78352100       0.04510572       0.01263021       0.00117485       0.00435452      -0.00904410      -6.14774375
Al       4.24824870       1.39385031       1.51169751       0.00364070      -0.00479052      -0.01431739      -4.60684533
Al       4.22850529       1.33099384       4.31328505      -0.00213801       0.00431508       0.00096856      -4.56840746
Ni       2.84989618      -0.11338464       5.75516781       0.00633864      -0.00161882       0.00928021      -6.06591506
Al       4.26876385       1.33413799       7.08293407      -0.00567058       0.00181402       0.00011928      -4.61938366
Ni       2.81686593      -0.07785375       8.44653239       0.00741184       0.00797333      -0.00203916      -5.98986823
Al       4.13421961       1.38428555       9.87278330       0.00204340      -0.00293610      -0.01184970      -4.45615058
Al       4.23018583       1.47314588      12.65554292      -0.01042876       0.00272718       0.00314786      -4.52784796
Ni       2.74004470       2.68279520       0.10421282      -0.00758262      -0.00858267      -0.00275654      -6.01276507
Al       4.22854057       4.22390454       1.38574420       0.00008522       0.00341540      -0.00216873      -4.53973212
Ni       2.83320348       2.82140089       2.84446399      -0.00211120       0.00143862       0.00339096      -6.00103564
Al       4.17325085       4.25230251       4.32985281      -0.00412001      -0.00157311      -0.00233114      -4.26428678
Al       4.17791021       4.20965223       7.09502114      -0.00187542       0.00365712       0.00230853      -3.89614768
Al       4.18983334       4.22951474       9.85431213       0.00058033       0.00910445      -0.00396250      -4.27893697
Al       4.19382740       4.18823987      12.66708800      -0.00314126       0.00088924       0.00258168      -4.21112427
Al       4.22820340       7.10179587       1.36662015      -0.00684021       0.01437171       0.00713723      -4.31326720
Al       4.22820330       6.95709221       4.25601014      -0.00136628      -0.00617946       0.00174638      -3.96475909
Al       4.13386311       6.91122834       6.96134806      -0.00440733       0.00072333      -0.00014141      -3.72168141
Al       4.21251234       7.01199528       9.80380464      -0.00393746       0.00341072       0.00209925      -4.15655193
Ni       2.74878712       5.56236055      11.18251982       0.00558353       0.00091511      -0.00546684      -5.90915268
Al       4.25141338       6.97660689      12.52769524      -0.00473671       0.00226061      -0.00074884      -4.17818032
Al       4.26728383       9.93259677       1.57037468      -0.00045339      -0.00203242       0.00533080      -3.98165386
Ni       2.92292209       8.40255202       2.85941492       0.00647751       0.00319869      -0.00403550      -5.76408458
Al       4.36063909       9.72588237       4.36046676      -0.00503120      -0.00873732       0.00321537      -4.00989192
Al       4.32715839       9.76411120       7.09964647       0.00285402       0.00398857       0.00543628      -3.99725793
Ni       2.81905125       8.36364016       8.37078775      -0.00330384      -0.00579382       0.01121629      -5.78254756
Al       4.04811269       9.84702208       9.89674809      -0.00102456       0.00107604      -0.00360810      -3.94098339
Al       4.37539673       9.81785618      12.80476976       0.00239968      -0.00073632       0.01397497      -4.13723585
Ni       2.83153739      11.27690441       0.00474673       0.00432511       0.00202128       0.00103447      -5.99849621
Al       4.14621935      12.61936882       1.51234231       0.00437445       0.00238756      -0.00086549      -4.30100569
Al       4.29393150      12.52030752       4.23164592       0.00836421      -0.00768499       0.00022198      -4.35853681
Ni       2.87701194      11.22168929       5.64744653       0.00141102      -0.00047924      -0.00148146      -6.00618417
Al       4.32490883      12.45148028       7.14469887      -0.00395293       0.00752167      -0.00251313      -4.46231612
Al       4.20895875      12.53819441       9.95124165      -0.00634201      -0.00934458       0.00070046      -4.06571235
Al       4.22724951      12.63089687      12.62398089       0.00188406       0.00015998      -0.00055710      -4.31017021
Ni       5.62573527      -0.00824498       0.11694786      -0.00578833       0.00894056       0.00124984      -6.11893345
Al       7.11385688       1.36427966       1.46128518      -0.00285865       0.00617614      -0.00291518      -4.34226538
Ni       5.69757148      -0.13284352       2.80706390      -0.00120039       0.00190286      -0.00143323      -6.08359439
Al       7.04315347       1.30896273       4.23647141       0.00250999       0.00235207      -0.00244089      -4.67233985
Ni       5.76357079      -0.16165187       5.71176952       0.00091517       0.00289548      -0.00017214      -6.21853517
Al       7.10688985       1.34072714       7.15404690       0.00600644      -0.00383791       0.00122254      -4.60878366
Ni       5.66138644      -0.11074563       8.57275824      -0.00330448      -0.00505967      -0.00265767      -6.14931576
Al       7.18363545       1.36213670       9.87568971      -0.00092916       0.00297949       0.00299692      -4.26774880
Ni       5.67740858       0.03787906      11.27160119       0.00012845       0.00366251      -0.00199251      -6.14336126
Al       7.06563732       1.55199960      12.73177444       0.00182000       0.00492903      -0.00247598      -4.06922720
Al       7.00571784       4.13874514       1.36162950       0.00399908      -0.01247156       0.00936236      -4.60988080
Ni       5.59198648       2.84456790       2.96239576       0.00148425      -0.00026039       0.00102942      -6.24419558
Al       7.01131540       4.31498463       4.34915093       0.00611444      -0.00758382       0.00781571      -4.63308002
Ni       5.66281670       2.81408233       5.75103160      -0.00150718      -0.00477464      -0.00115764      -6.13698306
Al       7.11401624       4.16872301       7.10056361       0.01309790      -0.00296891      -0.00137847      -4.34643148
Ni       5.62350863       2.78822818       8.50292931       0.00228032      -0.00504493      -0.00239435      -6.12888143
Al       7.09693254       4.24942103       9.84125790       0.00267903      -0.00135249       0.00051300      -4.21695917
Ni       5.66694022       2.78634207      11.15240017      -0.00395992       0.00262984      -0.00191524      -6.01524690
Al       6.93051680       4.33668486      12.55319297       0.00170030      -0.00912374      -0.00000007      -4.21833349
Ni       5.68919823       5.71946545       0.07367767       0.00481243      -0.01063511       0.00066369      -5.98919575
Al       7.04663735       7.18881841       1.49350365       0.00281672      -0.01018529      -0.00701372      -4.28031814
Ni       5.67713924       5.65018525       2.80963734       0.00431450       0.00030274      -0.00556486      -6.05903755
Al       7.01194187       7.18682901       4.28474385       0.00256970       0.00753168      -0.00027130      -3.94597304
Al       6.82879927       6.92980671       6.97154364      -0.01138997       0.00533810       0.00044031      -3.92854887
Al       6.99004568       7.09916434       9.87708907       0.00152300       0.00598085      -0.00586982      -4.25807074
Al       6.99127738       7.37717377      12.75592562      -0.00551072       0.00373345      -0.00418991      -4.30205319
Al       6.79437053       9.65921611       0.65654800       0.00043063      -0.00500792      -0.00453837      -3.82381298
Al       7.01432505       9.79040121       3.40409487      -0.00501894      -0.00108790       0.00074980      -3.56232359
Al       7.01359560       9.61600026       6.29835486      -0.00658525      -0.00719427      -0.00259813      -3.77532451
Al       6.68052407       9.83089435       9.21759525      -0.00025856       0.01315078      -0.00000990      -3.99745963
Ni       5.60471574       8.53610438      11.16580572       0.00558464       0.00322645       0.00123945      -5.77784377
Al       7.17997722      10.18703756      11.93117428      -0.00226002      -0.00308003       0.00147158      -4.08030269
Al       6.99298416      12.31120186       1.50744805       0.00146461       0.01106388      -0.00461557      -4.23435881
Al       7.13487821      12.38182027       4.30291737       0.00061688       0.00777522      -0.00340902      -4.09885312
Al       7.19127337      12.40570873       7.20782061       0.00224746       0.00296713      -0.00356474      -4.13372204
Al       7.09411670      12.43381964       9.98730056       0.00235478      -0.00716458      -0.00212052      -3.95294701
Al       7.10261786      12.76784636      12.72962197       0.01050740      -0.00429481       0.00745998      -4.20562964
Al       9.86417802       1.51138219       1.43854322      -0.00485477       0.00429600       0.00132660      -4.10037728
Al       9.91566764       1.38527882       4.20284553       0.00168368      -0.00969562       0.00522075      -4.37264354
Ni       8.45717879      -0.06807876       5.71482233       0.00152238       0.00184328       0.00002865      -5.99085663
Al       9.94528075       1.37608287       7.03336942      -0.00051687      -0.00062707      -0.00107360      -4.25537374
Al       9.86112011       1.48959536       9.77380276      -0.00155769       0.00366633      -0.00313096      -3.93947374
Al       9.78608142       1.38807238      12.58027449      -0.00339495       0.00578267       0.00070487      -3.93062855
Al       9.75634416       4.21456451       1.39600720      -0.00379948      -0.00492584       0.01094909      -4.51465128
Ni       8.40672889       2.87889830       2.90132023      -0.00196971       0.00274941      -0.00617524      -6.06988129
Al       9.83265486       4.29369055       4.24556487       0.00665670       0.00479519       0.00506694      -4.38141465
Ni       8.45345131       2.69614283       5.58227698      -0.00472525       0.00336534       0.00409608      -6.06029083
Al       9.79933909       4.16235282       6.95382306      -0.00296657      -0.00697324      -0.01169775      -4.43569360
Al       9.84176324       4.21154975       9.81243986      -0.00620961       0.00030979       0.00788143      -4.11340236
Al       9.66546089       4.16097993      12.51375457       0.00006272      -0.00221542      -0.00218345      -4.08193025
Ni       8.36597424       5.71737331      -0.03464594       0.00436325       0.00035176       0.00150806      -6.13031686
Al       9.83045035       7.10065004       1.35938387       0.00505931       0.00378123       0.00503009      -4.05892125
Ni       8.35281934       5.68232318       2.79998349       0.00243821      -0.00382015       0.00194778      -6.05374220
Al       9.82865931       7.07442918       4.09463514      -0.00459073      -0.00188637       0.00156796      -4.24085709
Al       9.70234726       7.00037334       6.86794782      -0.00809766       0.00542269       0.01159483      -4.64244139
Ni       8.37919295       5.71191139       8.42999422       0.00434168       0.00242433      -0.00156364      -5.98686657
Al       9.77257140       7.04894128       9.78941530      -0.00304291      -0.00163100      -0.00465014      -4.42890707
Al       9.78658947       7.00483802      12.47640619       0.00496010       0.00604889      -0.00001505      -4.20197330
Al       9.60112576       9.82704310       1.51557040      -0.00089500      -0.00133489       0.00462804      -4.13434145
Al       9.74515546       9.89822687       4.21512833      -0.00533894      -0.00304536      -0.00814570      -3.92191046
Al       9.68626916       9.89891913       6.90556330      -0.00431215       0.00091938      -0.00459333      -4.07254133
Ni       8.31603894       8.40813171       8.22827066      -0.00187487      -0.00332960      -0.01330488      -5.96936826
Al       9.56162740       9.92220752       9.76436180      -0.00212690      -0.00511553      -0.00432720      -4.38526605
Al       9.76702718       9.73711772      12.60003666       0.00600830       0.00274189      -0.00748478      -4.35225839
Ni       8.45216144      11.21592028      -0.09701890       0.00009803       0.00290898      -0.00922367      -5.89380532
Al       9.71543033      12.78609362       1.35017509       0.00591226      -0.00204316       0.00613917      -4.36150687
Al       9.83857305      12.66329560       4.21194045       0.00089098       0.00385945       0.00589024      -4.20403543
Al      10.03315314      12.55409980       6.99023498       0.00058780       0.00743172       0.00883159      -3.64023519
Al       9.76681594      12.67787532       9.64407947      -0.00329751       0.00447006       0.00238138      -3.89706042
Al       9.77847628      12.67009541      12.52814659      -0.00094596      -0.00409015       0.00849803      -4.35193573
Al      12.64001915       1.41223199       1.25948963       0.00357922      -0.00772733       0.00985399      -3.93219553
Ni      11.26464219       0.01440519       2.77932534       0.00319491      -0.00742154       0.00959289      -5.90875040
Al      12.77642357       1.49179604       4.04029770      -0.00321672      -0.00372695       0.00219837      -3.70242470
Al      12.67958358       1.46209689       6.76764885      -0.00081094       0.00154057      -0.00492361      -3.90483441
Al      12.65501586       1.33005669       9.71306473      -0.00299385       0.00015266       0.00861297      -4.26293828
Ni      11.18874599      -0.04045065      11.10132955      -0.00453194       0.00554002       0.00480206      -5.91560741
Al      12.57094445       1.42750483      12.49195359       0.00225055      -0.00055801       0.00205669      -3.92012728
Ni      11.21237613       2.87664814      -0.08486362      -0.00370570      -0.00334586      -0.00453282      -5.91891336
Al      12.57783419       4.17613974       1.41536405       0.00902226       0.00288182       0.00915037      -4.38918423
Al      12.61732179       4.21143684       4.18108825       0.00223006      -0.00203115      -0.00235276      -3.94955329
Al      12.73742841       4.30289530       6.91463375      -0.00067456       0.00280884      -0.00464542      -4.39250360
Ni      11.37318812       2.85979846       8.35719183      -0.00215833      -0.00625045       0.00216661      -6.02447669
Al      12.69007676       4.29069849       9.80486535       0.00466740       0.00923800       0.00706467      -4.34851788
Al      12.62446630       4.22421380      12.52930577       0.00121246      -0.00092684      -0.00012388      -4.39610630
Ni      11.12208114       5.53594276      -0.05821969      -0.00257396      -0.00493235      -0.00314971      -6.15712046
Al      12.52998741       7.05690424       1.41118515      -0.00481520       0.00646900      -0.00281621      -4.24841346
Al      12.68619092       7.01692863       4.15685423       0.00063723       0.00419869       0.00344164      -4.38033368
Ni      11.24487068       5.68534858       5.60552506      -0.00331594      -0.00582473      -0.00473162      -5.99698749
Al      12.65942624       7.09153903       7.05812824      -0.00222964       0.00221845       0.00252882      -4.47719214
Ni      11.16447057       5.58858115       8.31028550       0.00665673       0.00754783      -0.00093093      -6.17591861
Al      12.58671309       6.99764092       9.78145360      -0.00071983       0.00049740      -0.00450298      -4.51264960
Al      12.50149348       7.04144748      12.57829012       0.00092501       0.00203198       0.00099748      -4.56593586
Al      12.56217620       9.76907562       1.39544275       0.00376750      -0.00408579      -0.00581334      -4.46511440
Al      12.53253099       9.85438130       4.15043408      -0.00470661      -0.00257030       0.00150108      -4.54660368
Ni      11.21066015       8.40978197       5.58742831       0.00256037       0.00163881      -0.00189254      -6.07880158
Al      12.54481002       9.95939541       6.99412531       0.00291371      -0.00189292      -0.00521776      -4.39599289
Ni      11.06459916       8.49313381       8.33557183       0.00055324       0.00393841      -0.00002782      -6.18262609
Al      12.58997867       9.85670387       9.66945580      -0.00766540      -0.00123600       0.00407616      -4.43089273
Ni      11.14403898       8.54049642      11.06969843       0.00291184      -0.00257260       0.00111726      -6.07156297
Al      12.53182194       9.83416515      12.63170368       0.00397389      -0.00360273      -0.00220773      -4.67562033
Ni      11.05427663      11.21420395       0.04914087       0.00365060      -0.00302331      -0.00090008      -6.23202226
Al      12.62485442      12.68053945       1.30220729       0.00025982       0.00644847       0.00018717      -4.43780822
Ni      11.18271969      11.33861273       2.73417632       0.00823117       0.00249528       0.00016742      -6.07078689
Al      12.65317740      12.70627675       4.25448610      -0.00361503       0.00180946      -0.00183937      -4.36486720
Al      12.73031285      12.74179465       6.98243619       0.00135958       0.00276286       0.00851113      -3.65833578
Al      12.67237943      12.63042859       9.69653336      -0.00237526       0.00305955      -0.00405568      -4.07917363
Ni      11.19864701      11.28619387      11.11837170      -0.00487694      -0.00304126       0.00347698      -6.17191797
Al      12.60101349      12.64646860      12.61554319       0.00048954       0.01133714       0.00312574      -4.46414454
