128
Lattice="11.293149203851364 0.0011049963185198112 0.006435591105935056 0.0008423928895597361 12.346621439184995 0.015232761470909397 0.006628998174151881 0.014200214445376919 11.55898382169393" Properties=species:S:1:pos:R:3:forces:R:3:energies:R:1 energy=-658.0519442598949 stress="-0.000555723570611302 -2.7855500992303348e-05 -2.282073855705066e-05 -2.7855500992303348e-05 -0.00020270178044181305 -5.1026744383402075e-05 -2.282073855705066e-05 -5.1026744383402075e-05 0.0008401675077002985" free_energy=-658.0519442598949 pbc="T T T"
Ni       0.04186596      -0.12247008      -0.02452979       0.00109472       0.00232451       0.00557295      -6.30649472
Al       1.42824517       1.41599088       1.51544111       0.00512580       0.00387322      -0.00311524      -4.41083844
Ni       0.04790029       0.08163836       3.06347717       0.00445679      -0.00236871      -0.00158650      -6.15515930
Al       1.35150197       1.71594132       4.39369517       0.00184310      -0.00409668       0.00533515      -4.47541333
Ni       0.13673788      -0.04322256       5.78232539      -0.00413227       0.00136236       0.00583263      -6.25158533
Al       1.38401874       1.74773648       7.32094587      -0.00416469      -0.00187046      -0.00784765      -4.46350004
Ni       0.11896516      -0.09461941       8.47752339       0.00037188       0.00442714      -0.00819451      -6.14792687
Al       1.45699803       1.30887354       9.94941263      -0.00459250      -0.00268458       0.00896126      -4.34087809
Al      -0.03340218       2.98128811      -0.21324930      -0.00510442      -0.01210745      -0.00429041      -3.68208270
Al       1.41540227       4.48197633       1.44876446       0.00424361      -0.00479268       0.00042584      -4.14250830
Ni      -0.05005322       3.00806149       2.81307805      -0.00954311      -0.00277197       0.00237085      -6.25137960
Al       1.40497046       4.39094783       4.43838956       0.00077824       0.00408673       0.00080386      -4.40010318
Ni      -0.08624432       3.14141613       5.97901134      -0.00711293      -0.00083376       0.00196541      -6.11414509
Al       1.40549326       4.72437889       7.26532945      -0.00063737       0.00049003       0.00637813      -4.49805673
Ni      -0.10364663       3.18570126       8.80136465       0.00006419      -0.00101554      -0.00491274      -6.28166893
Al       1.41428374       4.89712177      10.04729822       0.00239405      -0.00226790      -0.00311225      -4.36710270
Ni       0.01560325       6.16742972       0.21987207       0.00218871      -0.00303669      -0.00684987      -6.29484259
Al       1.44585951       7.83147856       1.43011756      -0.00420687      -0.00281191       0.00474876      -4.27774081
Al      -0.02257754       6.15696234       2.97151932      -0.00522635       0.00442685       0.00343511      -3.74996394
Al       1.41086344       7.89420318       4.40645568      -0.00636337      -0.00000796      -0.00167568      -4.41979746
Ni      -0.00014045       6.14707671       5.55465709      -0.00065593       0.00522905       0.00109442      -6.25010572
Al       1.40423141       7.69303245       7.13876581       0.00696739      -0.00155601       0.00603130      -4.54016753
Ni       0.00539888       6.35960790       8.65466453       0.00257971       0.00466245      -0.00537976      -6.14564568
Al       1.45865573       7.67340706      10.18778268       0.00190707      -0.00197784      -0.00340387      -4.47150260
Al       0.01642855       9.48945664      -0.00650179      -0.00400051      -0.00369499       0.00969712      -3.71937747
Al       1.48578095      10.95458061       1.62592135       0.00300635       0.00655415       0.00043934      -4.48448567
Ni      -0.01016411       9.28336163       2.83977303       0.00179508       0.00261842       0.00168902      -6.31502786
Al       1.37253696      10.70439299       4.30281956      -0.00395677       0.00167267      -0.00499788      -4.49559105
Ni      -0.01955607       9.30721113       5.79877886      -0.00369725       0.00083515      -0.00263766      -6.17254226
Al       1.39215882      10.57929408       7.27121810       0.00978337       0.00918572       0.01400925      -4.48643048
Ni      -0.00115803       9.14743961       8.73556822      -0.00078536       0.00461991       0.00389015      -6.25899137
Al       1.52408944      10.85871453       9.96234278       0.00702623       0.00223130      -0.01631889      -4.47513519
Ni       2.80353228      -0.06463689       0.00928505      -0.00236267      -0.00122073      -0.00295842      -6.19834503
Al       4.26559938       1.39815821       1.45730628       0.00613677       0.00392257       0.00640671      -4.45474093
Ni       2.83306774       0.11560127       3.10287585      -0.00894892       0.00039140      -0.00578620      -6.25076007
Al       4.31802933       1.69675527       4.39654266       0.00487269       0.00251431      -0.00365498      -4.48666418
Al       2.79301741      -0.02600130       5.80091515       0.00405020      -0.00072458       0.01178347      -3.88331960
Al       4.25451132       1.57939490       7.27200503       0.00599416       0.00593067       0.00278359      -4.30356055
Ni       2.82674716      -0.05875296       8.43311693      -0.00030831      -0.00696002      -0.00078906      -6.26380756
Al       4.24677642       1.22826197      10.03740360       0.00835029      -0.00580370      -0.00102960      -4.33283246
Al       2.91166655       3.01215446      -0.20431969       0.00683360       0.00540221       0.00364114      -3.72908728
Al       4.34086781       4.53871123       1.43125737      -0.00708721      -0.00493334      -0.00439711      -4.37923097
Ni       2.86257511       3.02186285       2.85363139      -0.00334041       0.00204101       0.00102594      -6.24316457
Al       4.33478952       4.44862055       4.38607874       0.00514278      -0.00647414       0.00188827      -4.45729582
Ni       2.88834613       3.15429796       5.93880633       0.00331959      -0.00082146      -0.00598960      -6.16990950
Al       4.20615576       4.86339414       7.19664444       0.00089599      -0.00264858      -0.00028645      -4.48433314
Ni       2.90714795       3.21781883       8.80045531      -0.00502812       0.00226999      -0.00503290      -6.27108598
Al       4.24536829       5.00649205      10.16333581      -0.00231018       0.00123752       0.00104735      -4.34013079
Ni       2.78834315       6.14801852       0.22899965      -0.00092333      -0.00608768       0.00277427      -6.26926642
Al       4.26692700       7.87818643       1.42391614       0.00162118       0.00493981       0.00327221      -4.46625925
Al       2.89251868       6.14823838       2.95418266      -0.00262516      -0.00923965      -0.00828379      -3.76624415
Al       4.29731427       7.84739123       4.36667327       0.00625968       0.00737769      -0.00158968      -4.47223707
Ni       2.78901378       6.14124422       5.60020244      -0.00266643       0.00356107      -0.00213743      -6.24708405
Al       4.25195781       7.70151274       7.14561684      -0.00168216       0.00298077      -0.00288311      -4.56189565
Ni       2.82262126       6.33153510       8.62889685      -0.00141414      -0.00362856      -0.00061331      -6.14861994
Al       4.24015002       7.77962689      10.22186071       0.00037108      -0.00270564       0.00355420      -4.53336511
Ni       2.75419201       9.40220719       0.02262068       0.00005707      -0.00055587      -0.00239133      -6.25786162
Al       4.21095240      10.84694735       1.52351002      -0.00571883       0.00004175       0.00057699      -4.53769771
Ni       2.81409261       9.24361547       2.87665425       0.00373704       0.00599184      -0.00652613      -6.23348200
Al       4.25153462      10.71539159       4.28694090      -0.00566322      -0.00144393      -0.00181874      -4.50492941
Ni       2.84311327       9.27439463       5.78082320       0.00649655       0.00237434      -0.00995509      -6.25777662
Al       4.25489357      10.61498009       7.29875738      -0.00677013      -0.00164427       0.00433454      -4.50807103
Ni       2.82350773       9.10005384       8.70466858       0.00076883      -0.00112260       0.00443784      -6.18025258
Al       4.22784669      10.73575454      10.06511426      -0.00609619       0.00821985       0.00076398      -4.53011228
Ni       5.59949465      -0.17764182      -0.00553163      -0.00156452       0.00793996       0.00038356      -6.17353874
Al       7.00229785       1.33750237       1.45105696      -0.00631474       0.00034585       0.00127193      -4.46586713
Ni       5.60857745       0.03891642       3.01748427       0.00033172       0.00469738      -0.00438984      -6.17640476
Al       7.05032387       1.57955370       4.42435144      -0.00254373       0.00361150       0.00382073      -4.52685444
Ni       5.53860900      -0.09195629       5.77230326      -0.00082951      -0.00102684       0.00153669      -6.25884350
Al       7.01011375       1.35249777       7.16064660       0.00029373       0.00283145       0.00541855      -4.43342155
Ni       5.59863150      -0.13237714       8.55355071      -0.00194473       0.00647864       0.00170541      -6.20920680
Al       6.98982220       1.20032391      10.07421609      -0.00573725      -0.00513830      -0.00575040      -4.29572678
Ni       5.68608387       3.00227677      -0.15991349       0.00363355      -0.00102269       0.00119681      -6.36670560
Al       6.98589842       4.55290562       1.42365819       0.00555415       0.00191618      -0.00082762      -4.37199522
Ni       5.68339298       2.95758601       2.77416112       0.00037363      -0.00803450      -0.00069878      -6.10998343
Al       7.02757073       4.38286070       4.38190301       0.00849533       0.00550995       0.00216139      -4.43949668
Ni       5.70425122       3.17282687       6.06599442      -0.00014567      -0.00096520      -0.00282708      -6.22994218
Al       7.08687114       4.93440497       7.16070416       0.00494219       0.00982366      -0.00838185      -4.43870451
Al       5.65392469       3.22219830       8.79748322       0.00116001       0.00146211      -0.00132333      -3.85704795
Al       7.06017439       4.99622503      10.20903278       0.00074333      -0.00406441       0.00668861      -4.29265341
Ni       5.65041781       6.29171919       0.18968637      -0.00063233      -0.00071204      -0.00285921      -6.12875813
Al       7.03866112       7.90990760       1.42263593      -0.00402525      -0.00008606       0.00175216      -4.46912289
Ni       5.66474707       6.17197613       2.91100955       0.00429136       0.00053325      -0.00440803      -6.27215078
Al       7.01729967       7.91168301       4.37208712      -0.00222812       0.00569847       0.00257455      -4.47087685
Ni       5.67243565       6.17568796       5.59692816       0.00077579       0.00049080       0.00471408      -6.13115815
Al       7.07142775       7.75011931       7.14172130      -0.00515391      -0.00517241       0.00226115      -4.56321202
Ni       5.67905427       6.34816658       8.68216241      -0.00241102      -0.00234250      -0.00575113      -6.22219521
Al       7.07891550       7.81200897      10.22152463      -0.00304942       0.00047931       0.00371741      -4.53180615
Ni       5.63986008       9.38124675       0.03102703       0.00011235      -0.00677165       0.00125700      -6.18649969
Al       7.06530135      10.86469783       1.50655292       0.00314483      -0.00036633       0.00432610      -4.56362248
Ni       5.66102564       9.33352270       2.86792271       0.00162633       0.00841793      -0.00082511      -6.19473267
Al       7.04879371      10.81736667       4.35480490       0.00288929       0.00023346      -0.00408279      -4.56943671
Ni       5.64067312       9.31545218       5.79657407      -0.00433825      -0.00726444      -0.00629267      -6.20284650
Al       7.05019051      10.73113415       7.23084968       0.00104783       0.00029756       0.00431401      -4.57065358
Ni       5.66403560       9.15807833       8.68827227       0.00155415      -0.00524979       0.00237206      -6.19587878
Al       7.05616306      10.74394867      10.06774273       0.00078542      -0.00489869      -0.00282421      -4.54732813
Ni       8.50950575      -0.08779361      -0.03557180       0.00096728       0.00026449       0.00059596      -6.24028177
Al       9.89697398       1.35531157       1.51309197       0.00166342      -0.00100178      -0.00111461      -4.41827165
Ni       8.44509750       0.06324948       3.03473842       0.00766624      -0.00026292      -0.00431625      -6.17658629
Al       9.85816286       1.56640598       4.43019362      -0.00144398      -0.00242205       0.00501407      -4.51872934
Ni       8.44851588      -0.06097599       5.76788512      -0.00126157      -0.00302740      -0.00115679      -6.17705877
Al       9.93555843       1.37342260       7.16909389       0.00606338      -0.00874135       0.00285618      -4.45530604
Ni       8.42122667      -0.07237947       8.54818685      -0.00013133      -0.01359669      -0.00196818      -6.22798456
Al       9.94129149       1.21231784       9.96046375      -0.00026707       0.00313679       0.00449270      -4.30591473
Al       8.39846889       2.93441208      -0.16054908       0.00272719       0.00763714      -0.00135349      -3.70282461
Al       9.84363995       4.52223752       1.43325157      -0.00905755      -0.00227552       0.00060516      -4.14931402
Ni       8.44680942       2.95495517       2.76618249      -0.00089070       0.00386179       0.00263535      -6.24350917
Al       9.81244680       4.34494240       4.41656527      -0.00117092       0.00290652       0.00501169      -4.40688141
Ni       8.43363685       3.08649749       6.07348744       0.00078470      -0.00079555      -0.00376782      -6.23135600
Al       9.92209678       4.89926627       7.18972810       0.00538814      -0.00261824      -0.00255333      -4.46357392
Al       8.53973270       3.13250909       8.65741738      -0.00488765       0.00295977       0.00135436      -3.85656868
Al       9.89818816       4.97704390      10.12427520       0.00491836      -0.00250710      -0.00606247      -4.31155519
Ni       8.48815033       6.21618672       0.22507181       0.00001881      -0.00648937      -0.00793620      -6.26874782
Al       9.84156474       7.85453455       1.43588598       0.00366538       0.00274879       0.00102227      -4.28766663
Al       8.38431634       6.17718581       2.96589919      -0.00014631       0.00359009       0.00203960      -3.79097364
Al       9.87013055       7.94322135       4.39875034       0.00299629       0.00147208       0.00042808      -4.40312751
Ni       8.49546023       6.19699420       5.53728542       0.00352415       0.00193998       0.00170546      -6.24571010
Al       9.88042680       7.73595502       7.15470191      -0.00159749      -0.00185095      -0.00144649      -4.54629999
Ni       8.46097978       6.35094898       8.67079573      -0.00491537       0.00033051       0.00479785      -6.19625126
Al       9.84025109       7.72546942      10.17816079      -0.00060049      -0.00852784       0.00070036      -4.46013825
Ni       8.54962087       9.42397367       0.02004536       0.00050082      -0.00294116       0.00185414      -6.25688142
Al       9.84755687      10.96100113       1.62159471      -0.00354486      -0.00182152       0.00272162      -4.48781688
Ni       8.47878482       9.33536028       2.88509901       0.00090617       0.00047035       0.00207550      -6.23818713
Al       9.89453137      10.84610963       4.37261316       0.00434717      -0.00598919       0.00043272      -4.54451403
Ni       8.47896680       9.34574572       5.80423962      -0.00118703       0.00198701      -0.00107048      -6.20696429
Al       9.89076431      10.76678541       7.21584404      -0.00406004       0.00529886       0.00294888      -4.55070068
Ni       8.47953402       9.18553049       8.66566897      -0.00075113       0.00671099       0.00039496      -6.18296341
Al       9.83909833      10.84700827       9.93701234      -0.00446922      -0.00198478      -0.00169618      -4.46299931
