169
Lattice="13.931562207371012 0.09528243773557922 0.05682143120098772 0.09574436036178288 13.825967444344794 0.14319907209370403 0.05718569905439862 0.14325085922270248 13.827753852725467" Properties=species:S:1:pos:R:3:forces:R:3:energies:R:1 rep=5 n_sites=250 energy=-781.5685465789819 stress="0.0003642371398821768 0.00035691471037934677 7.534303338530906e-05 0.00035691471037934677 9.921590355609895e-05 -4.5187568884406595e-05 7.534303338530906e-05 -4.5187568884406595e-05 0.0005602229290707218" free_energy=-781.5685465789819 pbc="T T T"
Al       1.81599381       1.58068479       1.53229961      -0.00240387      -0.00203730      -0.00476510      -3.84845429
Ni      -0.01762647       0.26682419       2.52033145       0.00542102      -0.00288958       0.00594117      -5.78094560
Al       1.07987142       1.62025389       4.28820837      -0.00122270      -0.00307453       0.00078462      -4.02879916
Al       1.94939139       1.56313790       7.14299753       0.01010135      -0.00822999       0.00006580      -4.15195721
Al       1.76924352       1.45678170       9.88266717      -0.00087378       0.00190183      -0.00503988      -3.94421002
Al       1.07967654       1.15277539      12.70806697       0.00230634       0.00349894       0.00502993      -3.82382568
Al       1.01200007       4.17258352       1.23790279      -0.00426918      -0.00407833       0.00151604      -4.08427633
Al       1.87617521       4.29565816       4.07243290       0.01052377       0.00114315      -0.00300151      -4.02614934
Al       1.56448083       4.18621629       6.87183710      -0.00351854       0.00548000      -0.01114535      -4.24903261
Ni       0.17416217       2.76665784       8.36426769       0.00808897       0.00235549       0.00303790      -5.97738068
Al       1.45367156       4.25200494       9.81350945      -0.00747310      -0.00745683       0.00459065      -4.35668845
Ni       0.15658694       2.72681233      11.09308064       0.00129594       0.00811631      -0.01348395      -5.90570505
Al       1.91130585       3.83095661      12.43873469      -0.00336073      -0.00135681       0.00662259      -4.13531296
Al       1.63787243       6.95744777       1.49870428      -0.00409008       0.00415262      -0.00586123      -3.91505896
Ni       0.14406349       5.62286254       2.94814469       0.00136102      -0.00591620      -0.01031608      -5.90896230
Al       1.52844224       7.20209958       4.21373986       0.00480781      -0.00283401      -0.00551845      -3.90426044
Ni       0.18975842       5.60507778       5.50346651       0.00249319      -0.00099380       0.00204873      -6.06108592
Al       1.53947221       7.06182850       6.94907768       0.00089515      -0.00681835       0.00750319      -4.26936186
Ni       0.11843347       5.57355195       8.25607216       0.00198044       0.00354666       0.00251011      -6.27492917
Al       1.52590759       7.01206672       9.77490676       0.00657189      -0.00184523      -0.00756700      -4.53671458
Al       1.36120281       6.69461462      12.59283762       0.00044811      -0.00096066       0.00048921      -4.24233167
Al       1.35862491       9.75490034       1.58863850      -0.00223528       0.00028960      -0.00344100      -3.64285007
Al       1.46914454       9.90041433       4.23368582       0.00518385       0.00069377       0.00492791      -3.67440592
Al       1.53026657       9.76120923       6.97718106       0.00345561      -0.00390374       0.00357249      -4.27246491
Ni       0.02851183       8.37832451       8.42992499      -0.00144024      -0.01010138      -0.00593622      -6.16413891
Al       1.39783073       9.83873388       9.84042835       0.00237738       0.00631658      -0.00036122      -4.67525564
Ni       0.14558263       8.35746547      11.28094128      -0.00224361      -0.00430026       0.00805047      -5.96149685
Al       1.56570261       9.57621746      12.78762881      -0.00972502       0.00003337       0.00916783      -4.34792450
Al       1.33276078      12.68166623       1.20306172      -0.00099808      -0.00615401       0.00061647      -4.11412013
Al       1.45361561      12.68589922       4.08484570       0.00598173       0.00294883       0.00454779      -4.15205854
Ni       0.04996209      11.25996635       5.59597291      -0.00702794      -0.00128912       0.00342340      -5.98324865
Al       1.48405429      12.68826343       6.88732840       0.00881406       0.00130083       0.00134509      -4.39979807
Ni       0.10063777      11.20884598       8.29479301      -0.00488127       0.00371882       0.00167178      -6.17000249
Al       1.41350329      12.69895652       9.76962992      -0.00153198      -0.00170706      -0.00054199      -4.08389938
Al       1.12735024      12.30941778      12.40925032       0.00523718      -0.00191056       0.00949368      -3.95379061
Al       4.47273662       1.30344771       0.82668758      -0.00199481      -0.00725143       0.00193860      -3.60625010
Al       3.91404429       1.33628982       3.49971541      -0.00549530      -0.00217617       0.00263236      -3.91103021
Ni       2.82979328       0.23772415       5.33996101      -0.00561591      -0.00512579       0.00533246      -5.78597001
Al       4.68168027       1.52021060       6.31648686      -0.00178411      -0.00022133      -0.00651498      -4.09910166
Al       4.42149677       1.88067812       9.21948620      -0.00645951      -0.00061581       0.00887266      -4.19503503
Al       3.83959636       1.61041651      11.96990318      -0.00281973      -0.00118952       0.00420818      -4.06635837
Al       3.76361173       3.76446835       1.88279001      -0.00805816      -0.00174665       0.00124149      -3.89215037
Al       4.62646279       3.80489301       4.42773682      -0.00083878       0.00819535       0.00083342      -3.84780517
Al       4.27135397       4.06825951       7.23657917       0.01010415      -0.00268061      -0.00214027      -4.00415528
Al       4.15183516       4.44184366      10.22153033      -0.00003664      -0.00435462       0.00126705      -4.13648835
Al       4.64031770       4.00747891      13.11218387       0.00527515       0.00022008      -0.00124292      -4.14583150
Ni       2.84995816       5.29704257       0.16232870       0.00625859      -0.00035626      -0.01251594      -5.78051210
Al       4.41419553       6.60341048       1.48768305       0.00877104      -0.00002448       0.00647703      -4.09717444
Al       4.17553281       6.70364131       4.27098639      -0.00922824       0.00341142      -0.00163892      -4.10794224
Al       4.23570880       6.94701782       7.08085951       0.01389645       0.00095688      -0.00610599      -4.37593355
Ni       2.87845533       5.56560869       8.45969118      -0.00093950       0.00705925       0.00286430      -5.87711129
Al       4.35108278       7.08925636       9.78025911      -0.00100812      -0.00499190       0.00248082      -4.12728253
Al       4.17929658       6.85402877      12.52755100      -0.00557781       0.00627543      -0.00885743      -3.95727903
Al       4.08245253       9.54376614       1.45904387       0.00291607       0.00393103      -0.00468575      -4.39679784
Al       4.11748719       9.63411970       4.26658851       0.00317887      -0.00082190      -0.00014016      -4.10397469
Al       4.27133986       9.95186108       6.95566556      -0.00248781       0.00062693       0.00020458      -4.27864071
Al       4.23438985       9.78140325       9.70597183      -0.00787923       0.00261502       0.00140725      -4.34969711
Ni       2.83926046       8.39081270      11.23364210      -0.00033925      -0.00728920      -0.00796946      -5.96594025
Al       4.41586822       9.71029093      12.47902984       0.01232973       0.01192926       0.00663034      -4.39191150
Ni       2.80377516      11.12094337       0.02671766       0.00021697      -0.00491553       0.00685715      -5.99643974
Al       4.04041646      12.52116719       1.59604364       0.00409275      -0.00611676       0.00148826      -4.16160955
Al       4.22640731      12.35311256       4.37047797      -0.00295012       0.00328287       0.00157305      -4.15731583
Al       4.20523963      12.73969071       7.09393498      -0.00542768      -0.00076837      -0.00247758      -4.13445767
Ni       2.81804646      11.29204635       8.45791098      -0.00829652      -0.00064064      -0.00362724      -6.00072975
Al       4.28631386      12.71848875       9.78531910       0.00059321      -0.00347564       0.00283957      -4.47919229
Ni       2.89437747      11.17309384      11.17385741      -0.00082409       0.00429395      -0.00475256      -6.12249397
Al       4.17890494      12.79231963      12.52618477      -0.00431427      -0.00885364      -0.00213040      -4.34079692
Al       7.08416740       1.25385354       1.65290712      -0.00233973      -0.00103393      -0.00268967      -3.96359514
Al       6.61500134       1.69490225       4.23173150      -0.00003399       0.00134050       0.00152361      -3.79458420
Al       7.53049543       1.42826650       6.88078815      -0.00865353       0.00260219       0.00086668      -3.84592338
Ni       5.76427598       0.25141760       8.13579065       0.00244753       0.00743913      -0.00029560      -5.90328080
Al       7.22977321       1.71508030       9.56514346      -0.00402204       0.00380049      -0.00356267      -4.48476565
Ni       5.64544287       0.32539352      10.83352327       0.00383396       0.00273666      -0.00952144      -6.07677830
Al       6.80256366       1.44104627      12.74163874      -0.00343413      -0.00753740       0.00024018      -4.51560313
Al       6.69902683       4.12617278       1.67192928      -0.01135850       0.00107800      -0.00460992      -4.14175625
Al       7.51179678       4.21590721       4.70954929      -0.00233006       0.00521529      -0.00104578      -4.34853666
Al       7.03526700       4.10159042       7.35234042      -0.00745258       0.00054630       0.00500537      -3.94325741
Al       7.06414360       4.52855049      10.06706709       0.00178356       0.01127834      -0.00324593      -4.24839252
Ni       5.72327603       2.94025105      11.17098682      -0.00661295       0.00142754      -0.00184299      -5.96695978
Al       7.26423770       4.40109117      12.78078222       0.00219494      -0.00624352       0.01025925      -4.09802720
Al       7.10497773       6.88741422       1.51441071      -0.00306099      -0.00785038       0.00863372      -4.16978956
Al       6.99869290       6.87499489       4.23665061       0.00959262       0.00623704      -0.00533858      -4.36169705
Ni       5.68620240       5.44952518       5.74766750      -0.00072966      -0.00086270      -0.00217680      -5.87978693
Al       7.08792651       6.90361446       7.06624076       0.00040156       0.00524291       0.00071092      -4.36508692
Al       7.17083640       7.24146518       9.77488591       0.00302884       0.00871938      -0.00066462      -3.93909108
Al       6.87165006       7.07204506      12.47076470       0.00195515       0.00316500      -0.00534519      -3.75054864
Al       6.97820323       9.62195479       1.41409575      -0.00601780       0.00552903       0.00493941      -4.47204777
Ni       5.51540654       8.26780356       2.91111094       0.00423145      -0.00367257       0.00018284      -6.00253182
Al       7.00264399       9.75328525       4.23936570      -0.00425886       0.00137636      -0.00259853      -4.37113951
Ni       5.62156671       8.27523144       5.66046372      -0.00388264       0.01082411       0.00748404      -6.16633956
Al       7.12994185       9.80934829       6.92323933       0.00140109       0.01149213       0.00036382      -3.91121805
Ni       5.70577291       8.50318047       8.29961337      -0.00602116      -0.00598411      -0.00265820      -5.91042782
Al       6.99655164       9.99032573       9.76394927      -0.00673266      -0.00196246       0.00340364      -3.68029890
Al       7.20552161       9.87735860      12.50319278       0.00079101       0.00575982       0.00164060      -3.95977075
Ni       5.42703988      11.08148061       0.11214830      -0.00802264      -0.01095131      -0.01176522      -6.00822032
Al       6.88410290      12.53138306       1.27175751       0.00707734       0.00857418       0.00393247      -4.13223156
Ni       5.60208121      11.09002399       2.78758818       0.01221774      -0.01061985      -0.01091067      -6.07398398
Al       6.90907091      12.81534338       4.06224670       0.01168493       0.00723524      -0.00700620      -3.92393748
Al       6.96489277      12.51577269       6.76364495      -0.00430841       0.00397261       0.00075906      -3.69561000
Al       7.20493033      12.64423244       9.58693467       0.00632359       0.00580773      -0.00845766      -4.10846039
Al       6.84863621      12.50985834      12.38045758      -0.00972271      -0.00775953      -0.01073526      -4.24073500
Al      10.10707745       1.56370124       1.74382007      -0.00349403      -0.00057498       0.00231285      -4.02037733
Al       9.35159586       1.72845717       4.76824074       0.00307066      -0.00422475      -0.00207240      -4.17818683
Al      10.34505818       1.55313073       7.52214156      -0.00232493      -0.00601970       0.00215628      -3.78128104
Al      10.13752002       1.58035551      10.24273659      -0.00184625      -0.00051115      -0.00039473      -4.02076611
Ni       8.33901173       0.12118291      11.11682704       0.00837892       0.00196087       0.00302812      -6.00726913
Al       9.63664463       1.00278796      12.94369334      -0.00261137       0.00059548       0.00291382      -4.22687692
Ni       8.42588947       2.64761454       0.25192623       0.00452899      -0.00285687      -0.00495610      -6.03831932
Al       9.66885317       4.36930404       1.25834078      -0.00063356       0.00902209       0.00753521      -4.16714514
Ni       8.39718915       2.91182303       2.86681610      -0.00088777      -0.00319962       0.00181073      -6.01187219
Al      10.30075178       4.19052208       3.99722117      -0.00052912       0.00346595       0.00891968      -4.04897711
Al       9.78398381       4.18013465       6.90260849       0.00055893      -0.00257540       0.00479355      -3.94067427
Al       9.76150358       4.21166678       9.95834474      -0.00102042       0.00042827       0.00393301      -4.35869277
Ni       8.37625252       2.74564734      11.42547528       0.00605514       0.00469831      -0.00271976      -6.08547989
Al      10.25528997       3.74804732      12.59598964       0.00061314      -0.00846778      -0.00219964      -4.30674534
Al       9.92092839       7.03855914       1.56897304      -0.01204846      -0.00422567       0.00322943      -4.19586758
Ni       8.48140542       5.48657717       2.94770930      -0.00258795      -0.00022512       0.00085437      -5.88992938
Al       9.71786125       7.00598098       4.30362467       0.00215292      -0.00492860       0.00599444      -4.26775020
Al       9.76720437       7.10385460       7.05456221       0.00323615       0.00600914      -0.00049772      -4.35061957
Ni       8.53706495       5.63225442       8.50226736      -0.00312873       0.00102996       0.00848150      -5.90842912
Al       9.86377648       7.13984756      10.00388004       0.00243091      -0.00235532       0.00219642      -4.26359645
Al       9.60130751       6.54952082      12.74542257      -0.00018924       0.00031715       0.00015836      -4.17910944
Ni       8.41677305       8.21849591       0.01382796       0.00237326      -0.00481119      -0.00030284      -5.76666673
Al       9.66747795       9.76321538       1.43801642       0.00458094       0.00755525      -0.00667234      -4.48404825
Al       9.67900608       9.94635363       4.29354726       0.00412141      -0.00530739      -0.00575087      -4.47479300
Al       9.74524009       9.94491380       7.04116336       0.00693861       0.00394473      -0.00492366      -4.22868348
Al       9.71039227       9.92919345       9.94361808      -0.00287041      -0.00334878      -0.00083481      -3.94433319
Al      10.20642233       9.44983715      12.59976968       0.00542340       0.00176102       0.00729087      -3.97982525
Al       9.61669564      12.69554764       1.30152664      -0.00020246       0.00436822      -0.00446592      -4.17519019
Ni       8.29583330      11.28888596       2.83073586      -0.00302753      -0.00119672       0.00097436      -6.06142777
Al       9.73966617      12.81591377       4.16588981       0.00171537       0.01009163       0.00120671      -4.40248671
Al       9.66569923      12.76323806       7.02757030      -0.00142341      -0.00246097       0.00554323      -4.11246772
Al       9.93043767      12.85289729       9.70057985       0.00594134      -0.00067362       0.00931202      -4.05612847
Al       9.56134995      12.08460843      12.33491269      -0.00422671      -0.00017459      -0.00645452      -4.13853842
Al      12.95749887       1.97324466       1.04674250      -0.00582929      -0.00683273      -0.00249378      -3.88224447
Al      12.12586768       1.58056610       3.74557342      -0.00305066       0.00459481       0.00534285      -4.03862073
Ni      11.09019092       0.29135043       5.54505645       0.00175605      -0.00187558      -0.01110774      -5.88572903
Al      12.99592612       1.63718338       6.54693537      -0.00041623       0.00553643      -0.00022565      -4.05058923
Al      12.74982277       1.32723102       9.58566340      -0.00021868       0.00117505      -0.00344218      -3.95131381
Al      12.22545418       1.79366822      12.28034534       0.00261711      -0.00202144       0.00097921      -3.82295694
Al      12.28383459       4.48938186       1.77406759      -0.00142085       0.00335279      -0.00168950      -3.81904538
Al      13.00310556       3.98397880       4.36236860      -0.00328128      -0.00093110       0.00534953      -4.02757740
Al      12.55917958       4.26428036       7.02850439       0.00422540       0.00341771      -0.00367979      -4.23038268
Al      12.59683605       4.20830404       9.85634329       0.00592921      -0.00849326      -0.00180167      -4.55907176
Al      13.01299002       4.43022285      12.71521771      -0.00021452      -0.00342892       0.00163707      -4.01443560
Al      12.77553216       7.19968070       1.56537964       0.00141128       0.00058498      -0.00707453      -3.95254821
Al      12.53417396       6.98694978       4.30408413      -0.00958038       0.01253516       0.00623832      -4.45021980
Al      12.57795350       7.05978020       6.98115899       0.00482883      -0.00252763      -0.00077020      -4.55740142
Ni      11.13115706       5.63641791       8.51846508       0.00174238       0.00654083       0.00459855      -6.15635562
Al      12.64832629       7.00989532       9.89956181      -0.00199941      -0.00413633      -0.00417289      -4.58869372
Ni      11.27001721       5.60305746      11.35332214      -0.00162629      -0.00268893       0.00208908      -5.86592367
Al      12.42196480       7.28248542      12.69454087      -0.00799569       0.00624876      -0.00692917      -3.96826860
Al      12.60079736       9.89423120       1.46470597       0.00059856      -0.00352426      -0.00392084      -4.10257060
Ni      11.22291581       8.50900573       2.97375158      -0.00523827      -0.00050226      -0.00194021      -6.00130733
Al      12.62621577       9.95589199       4.22055659       0.00652136      -0.00062963       0.00847614      -4.50794083
Ni      11.12591814       8.49106476       5.58688447      -0.00070802      -0.00426720       0.00454473      -6.11351312
Al      12.62538560       9.85127814       6.96655898       0.00730724       0.01146136       0.00120624      -4.69740131
Ni      11.17735996       8.52437986       8.43067611       0.00101779      -0.00267513      -0.00163482      -6.14973201
Al      12.56501985       9.81749614       9.91118794      -0.00807183       0.00344583       0.00306483      -4.42374202
Al      12.86618247      10.24105481      12.54310054      -0.00238127      -0.00206556       0.00014178      -4.11979929
Ni      11.17214653      11.23751949       0.10224501      -0.00270504      -0.00905001      -0.00100887      -5.89649297
Al      12.40800315      12.89946084       1.48935040       0.00815754      -0.00329258      -0.00031700      -4.27217510
Ni      11.04620587      11.28943074       2.74802120      -0.00744743       0.00212181      -0.00343807      -6.17315660
Al      12.63230812      12.74514984       4.17920538       0.00001110      -0.00269979       0.00132805      -4.42723689
Ni      11.18986167      11.43773418       5.64153867      -0.00228960       0.00188990       0.00566508      -6.24067409
Al      12.58386351      12.80632148       7.13764063       0.00129635      -0.00992509       0.00371448      -4.51319264
Ni      11.19082097      11.24556096       8.47221296       0.00240285       0.00215820       0.00582334      -6.03651825
Al      12.65800330      12.52070630       9.98984303       0.00617187      -0.00265581      -0.00015237      -3.91745794
Al      12.37626816      12.99930276      12.58768393       0.00413505      -0.00169278      -0.00460116      -3.71298366
