231
Lattice="14.322487362321226 0.000696693588044193 0.00025846124180042753 0.0006966973918339287 14.323391744610275 0.0003424243489318613 0.0002584701246679227 0.0003424342509396188 14.325260020636073" Properties=species:S:1:pos:R:3:forces:R:3:energies:R:1 energy=-1225.5416615186607 stress="0.00023622035250047787 -7.711193038985572e-05 -3.2883440562597786e-05 -7.711193038985572e-05 0.00014953732549395703 -6.132559970122768e-05 -3.2883440562597786e-05 -6.132559970122768e-05 -0.0001079490147718302" free_energy=-1225.5416615186607 pbc="T T T"
Al       1.44072529       1.43206541       1.43071491      -0.00141144      -0.00060751      -0.00147410      -4.45733297
Ni       0.01048230       0.02030447       2.87939536       0.00138612       0.00146783       0.00337149      -6.20538673
Al       1.47836461       1.43314486       4.26812583       0.00174722       0.00887297       0.00667430      -4.54889457
Ni       0.01925669      -0.00985567       5.74904477       0.00027152      -0.00550564       0.00453254      -6.26308063
Al       1.47688321       1.45719469       7.19787284       0.00670001       0.01069775       0.00004692      -4.54449024
Ni       0.05178185       0.03320204       8.60390244      -0.00688495       0.00198150      -0.00279833      -6.21212019
Al       1.47374441       1.46946373      10.00589255      -0.00060212       0.00428732      -0.00373378      -4.54930525
Ni       0.01422569      -0.01485006      11.40440594      -0.00692058      -0.00520864      -0.00578001      -6.21936068
Al       1.40935941       1.38312371      12.91538623      -0.00259029      -0.00358949      -0.00075214      -4.55176115
Ni       0.01183445       2.90176682       0.01706179       0.00304373       0.00013467       0.00297291      -6.21404771
Al       1.46022026       4.28670865       1.45987496      -0.00066300      -0.00265926       0.00078695      -4.55922371
Ni      -0.03758600       2.84695310       2.85324434      -0.00133177       0.00202416       0.00178396      -6.21946375
Al       1.41461435       4.29258669       4.27859414       0.00263414      -0.00863675       0.00352962      -4.47803316
Ni       0.04074833       2.82197267       5.71733948       0.00525231       0.00192327       0.00544160      -6.21604338
Al       1.41934897       4.30114611       7.16218819       0.00084932       0.00012676      -0.00199363      -4.47583934
Ni      -0.03912938       2.88611304       8.59091062       0.00311970      -0.00027127      -0.00121828      -6.21219332
Al       1.46758628       4.25650684       9.99953661       0.00168079      -0.00172530      -0.00371907      -4.54539533
Ni       0.00924647       2.86565824      11.47310151      -0.00279303       0.00170658      -0.00962974      -6.26599336
Al       1.42659189       4.32542137      12.91581883       0.00181699      -0.00103552       0.00074316      -4.63814025
Ni      -0.04288174       5.78227866       0.01425673      -0.00166997       0.00351250      -0.00210560      -6.26920599
Al       1.39415599       7.21103431       1.45920975       0.00102497       0.00189306       0.00011406      -4.57921134
Ni       0.01127332       5.70771611       2.83499708      -0.00389244      -0.00300975       0.00132667      -6.14374767
Al       1.38673446       7.21586285       4.35606252      -0.00391825       0.00698738       0.01073164      -4.31042306
Al       1.43939943       7.15725609       7.08925687       0.00162517       0.00334955      -0.00272804      -4.46467325
Ni       0.01962904       5.71130959       8.64003327      -0.00895577       0.00142430       0.01120949      -6.22131408
Al       1.43848259       7.18222396      10.04526316       0.00205680      -0.00532332       0.00053642      -4.65007847
Ni       0.03341567       5.73042981      11.45103676      -0.00104235       0.00039551      -0.00368486      -6.20369594
Al       1.45554792       7.16846017      12.87525884       0.00239147      -0.00128651      -0.00349175      -4.67183024
Ni       0.00740318       8.58424297      -0.04552448       0.00247635      -0.00385213       0.00608088      -6.14283868
Al       1.41372573      10.00020405       1.45696647      -0.00202172      -0.00159865      -0.00080782      -4.58118630
Al       1.42537167       9.96764797       4.27483759       0.00474537      -0.01085610      -0.00142532      -4.48075086
Ni      -0.03218310       8.65722066       5.77942175      -0.00210402      -0.00974558       0.00268343      -6.06877480
Al       1.48190764      10.02375953       7.16288425      -0.00076638      -0.00039098       0.00204574      -4.37857750
Ni       0.04215442       8.55851757       8.55748980      -0.00164244      -0.00660730       0.00073702      -6.22649296
Al       1.40473232      10.04664876      10.00873635      -0.00321597       0.00606198       0.00018077      -4.47293152
Ni      -0.05938069       8.59041668      11.46942639      -0.00308950      -0.00067622      -0.00660518      -6.26998869
Al       1.43430158      10.01265929      12.89470562      -0.00105741       0.00250190      -0.00024254      -4.64754832
Ni      -0.03484974      11.38387146       0.02515331       0.00134342      -0.00001856      -0.00329836      -6.21909572
Al       1.41244109      12.89502107       1.39635244      -0.00680692       0.00208664      -0.00003362      -4.55376688
Ni      -0.01687060      11.49866613       2.82238173       0.00124248       0.00466433       0.00670639      -6.21341983
Al       1.42941715      12.89973792       4.27721471       0.00647471      -0.00646892       0.00806901      -4.65293928
Ni       0.04695383      11.42302412       5.69298168      -0.00040380       0.00041991      -0.00461174      -6.22672618
Al       1.42694841      12.85560982       7.19571368       0.00632305      -0.00755944      -0.00121435      -4.46271928
Al       1.42945925      12.83801023       9.99524978      -0.00391439      -0.00768100      -0.01165589      -4.43888107
Ni       0.00640062      11.46757614      11.50747158       0.00133090       0.00540684       0.00233724      -6.22132457
Al       1.40349791      12.92073668      12.94003231       0.00058714      -0.00303200       0.00146744      -4.55689929
Ni       2.91917924      -0.00371174       0.02331923       0.00062768      -0.00053811       0.00151520      -6.21119764
Al       4.30707045       1.45449819       1.45103186      -0.00838598       0.00189177       0.00471347      -4.55389272
Ni       2.87349927      -0.04938451       2.82939972       0.00172050      -0.00064770      -0.00133929      -6.20986179
Al       4.25536130       1.45825822       4.25644529      -0.00169950       0.00612353       0.00007027      -4.55181281
Ni       2.89142792      -0.01867116       5.75354147       0.00154374       0.00053397       0.00655479      -6.28126363
Al       4.25276107       1.46191588       7.21431368      -0.00193251       0.00352495       0.00419926      -4.54837067
Ni       2.87457521      -0.04858907       8.60592218       0.00198077       0.00112763      -0.00140300      -6.22250798
Al       4.26020710       1.47738692      10.00639671      -0.00127911       0.00464082      -0.00489387      -4.55887320
Ni       2.86787908      -0.03410907      11.44011256      -0.00301735      -0.00287511      -0.00544923      -6.28312193
Al       4.30647378       1.42602103      12.89196836      -0.00467880       0.00019959      -0.00359016      -4.64895654
Ni       2.85340818       2.84895819      -0.02594636      -0.00009060      -0.00154481      -0.00395840      -6.20397541
Al       4.25739974       4.28438220       1.48902798      -0.00391046      -0.00178235      -0.00031577      -4.55604913
Al       4.27845558       4.27875938       4.24133126      -0.00047543      -0.00186085       0.00112108      -4.55816211
Ni       2.84594017       2.88493793       5.72083077      -0.00022833       0.00145953       0.00617084      -6.21687778
Al       4.25914654       4.26164039       7.20515549      -0.00665962       0.00497124       0.00182363      -4.54825914
Al       4.28090196       4.26766625      10.00094381       0.00825947       0.00046545      -0.00437545      -4.56723837
Ni       2.85602468       2.86686358      11.50965684       0.00486994      -0.00683350      -0.00305738      -6.20268790
Al       4.29648754       4.30818996      12.90035801      -0.00131365      -0.00546085       0.00115071      -4.63650279
Ni       2.86842530       5.73722459       0.04373087       0.00057127      -0.00505394       0.00165287      -6.25229351
Al       4.31865782       7.16825348       1.46205697      -0.00729828       0.00558767       0.00289864      -4.65742544
Ni       2.80130005       5.82241672       2.91985800       0.00511802       0.00054840       0.00248710      -6.21886475
Al       4.28863929       7.18306315       4.33344821      -0.00158681      -0.00119526      -0.00041874      -4.59786271
Ni       2.88515870       5.66277842       5.71017177       0.00181881      -0.00085562       0.00358395      -6.15583334
Al       4.24889238       7.17597173       7.12852364       0.00027806       0.00066271      -0.00326933      -4.58369796
Ni       2.83730444       5.78010101       8.56476179       0.00524534       0.00160296      -0.00061689      -6.21718819
Al       4.31158798       7.15613445      10.01149292      -0.00102379      -0.00172286       0.00294741      -4.66105401
Ni       2.87014581       5.70419816      11.42823428      -0.00012299       0.00473693      -0.00120542      -6.25118349
Al       4.27802115       7.15383011      12.88299104      -0.00617283      -0.00140554       0.00151306      -4.65009754
Ni       2.87189456       8.59474580       0.01164757       0.00218684       0.00195871       0.00248025      -6.25554780
Al       4.31510930      10.02233226       1.42818201       0.00024480       0.00027655       0.00502341      -4.66134139
Ni       2.90073099       8.59781553       2.85543923       0.00255534      -0.00081959      -0.00352488      -6.13794004
Al       4.29228466      10.02957916       4.36912908      -0.00160949       0.00119434       0.00690382      -4.46349937
Al       4.23040584      10.05501728       7.11961111      -0.00127277       0.01093723      -0.00242027      -4.17590591
Ni       2.86563765       8.60496901       8.62853009       0.00380154      -0.00341867      -0.00034635      -6.14190586
Al       4.31932761      10.09348579      10.01159808       0.00345578       0.00811211      -0.00072950      -4.29617107
Ni       2.90532310       8.65030002      11.42873636       0.00313942       0.00576524      -0.00174597      -6.26787215
Al       4.32882324      10.06067059      12.86764459      -0.00053966       0.01093112       0.00082757      -4.56603767
Ni       2.87489864      11.46742538      -0.01463940      -0.00377973       0.00977359       0.00191375      -6.26009731
Al       4.34115761      12.86775879       1.43345603      -0.00465859       0.00625621       0.00441665      -4.65855326
Ni       2.87417706      11.42415748       2.89509265       0.00053991      -0.00151067       0.00332914      -6.26751909
Al       4.33182617      12.86207934       4.31658176      -0.00192290      -0.00526938       0.00053770      -4.58348162
Ni       2.81777612      11.49833958       5.71732731       0.00359337       0.00275585       0.00360736      -6.05337998
Al       4.30907937      12.83272119       7.17297541       0.00395234      -0.00463594      -0.00486661      -4.29568618
Al       4.30442469      12.82087786      10.02512902      -0.00065252      -0.00747815      -0.00314683      -4.27905580
Ni       2.82282053      11.45636440      11.47160497       0.00076919       0.00798683      -0.01038361      -6.14535848
Al       4.33218942      12.86016060      12.87041198      -0.00133572       0.00470779      -0.00248733      -4.57273471
Ni       5.78495296      -0.00750046      -0.04789443       0.00075869      -0.00072822       0.00151863      -6.26337074
Al       7.18489079       1.45532237       1.39491544       0.00765551      -0.00466521      -0.00438641      -4.54837622
Ni       5.73173594       0.02025593       2.89357723      -0.00736549      -0.00095326      -0.00172025      -6.25851742
Al       7.18308850       1.46790175       4.35425923       0.00251121       0.00548517       0.00384542      -4.54673062
Ni       5.70545067       0.04260177       5.75595790       0.01002423      -0.00076765      -0.00158257      -6.21936579
Al       7.17726186       1.45549265       7.14468272       0.00628613      -0.00462568      -0.00991135      -4.55557368
Ni       5.69978835      -0.00029488       8.62954308       0.00283754      -0.00331804       0.00337127      -6.21844367
Al       7.19895598       1.40815876      10.06726948       0.00412665      -0.00228734       0.00474983      -4.57058360
Ni       5.69094603       0.02191018      11.42426345       0.00226007       0.00154250      -0.00111272      -6.14200626
Al       7.21763615       1.44969882      12.88087742       0.00982644      -0.00097351      -0.00080961      -4.44524598
Ni       5.70609499       2.89571300       0.01571905      -0.00845953       0.00037775       0.00080861      -6.21331153
Al       7.21073692       4.31997072       1.39646554       0.00294987      -0.00737105      -0.00708963      -4.43026757
Ni       5.80924074       2.87025243       2.85758871      -0.00532253      -0.00037397      -0.00099561      -6.21969662
Al       7.18366052       4.26938466       4.34884001       0.00690577      -0.00061211       0.00871733      -4.54438572
Ni       5.64235825       2.85886423       5.73895156       0.00086254      -0.00181258      -0.00664679      -6.21996017
Al       7.19019000       4.25314344       7.13525183       0.00278782      -0.00186396      -0.00910667      -4.56123489
Ni       5.78208170       2.85454806       8.59391234       0.00359600      -0.00023885       0.00071620      -6.21293029
Al       7.16192237       4.32377828      10.01348191       0.00478924      -0.00447860       0.00170423      -4.64639041
Ni       5.75628734       2.85823814      11.46539210       0.00066507      -0.00395656      -0.00233247      -6.27332109
Al       7.18885952       4.30605207      12.92997161       0.00034795      -0.00469739       0.00588066      -4.45703208
Ni       5.72270491       5.73473057       0.02117669      -0.00009292      -0.00117302      -0.00218075      -6.20546678
Al       7.17876086       7.17356184       1.42143359       0.00010256       0.00319678      -0.00934229      -4.44580291
Ni       5.76231810       5.72276448       2.87130016      -0.00144558      -0.00409206      -0.00757328      -6.26847661
Al       7.18388543       7.19195350       4.34534071       0.00633591      -0.00070501       0.00631094      -4.56272867
Ni       5.73121581       5.72283270       5.74225497       0.00826859       0.00336709       0.00100357      -6.26865624
Al       7.17728135       7.18215556       7.15185139       0.00220975       0.00281850      -0.01183237      -4.56017489
Ni       5.71035829       5.71194407       8.56268995      -0.00511244      -0.00621287       0.00821456      -6.25711626
Al       7.14141460       7.16091099       9.99529032       0.00289550      -0.00095339       0.00332340      -4.66872597
Ni       5.73979042       5.73129980      11.46844761       0.00769394      -0.00245624       0.00155765      -6.26267450
Al       7.19675863       7.15429803      12.92840835      -0.00036589       0.00070912      -0.00139879      -4.44772226
Ni       5.71948408       8.58387268      -0.03598426      -0.00289102       0.00263298       0.00413589      -6.20689051
Al       7.20584619       9.97703914       1.39423121      -0.00570725       0.00269200      -0.00488768      -4.54840635
Ni       5.75970679       8.62607348       2.93404416      -0.00235256       0.00126447      -0.00753205      -6.27081788
Al       7.18002713      10.00820733       4.39176766       0.00391197       0.00123203       0.00685811      -4.43038557
Ni       5.71769161       8.59015423       5.77633813       0.00497607      -0.00087637      -0.00544513      -6.10609195
Al       7.16619070      10.03846099       7.13687204      -0.00151385       0.00276094      -0.00583551      -4.35487027
Ni       5.68529668       8.63474246       8.52523561       0.00028478      -0.00118119       0.00238600      -6.20564455
Al       7.11877170      10.03434452      10.02834020       0.00008477       0.00413123      -0.00150800      -4.45929374
Ni       5.73628475       8.57136939      11.45808891       0.00515949       0.00276940       0.00219647      -6.21108009
Al       7.18351332       9.99457847      12.87342944      -0.00076585       0.00063656       0.00453068      -4.46907785
Ni       5.78692935      11.43136785       0.01003113      -0.00132325       0.00447905       0.00584142      -6.20504414
Al       7.17118234      12.88257083       1.46298109      -0.00161276       0.00322077      -0.00600709      -4.66232130
Ni       5.76056303      11.41514187       2.85808599      -0.00658419      -0.00111370      -0.00630766      -6.20100726
Al       7.12463805      12.86715407       4.32752521       0.00296282      -0.00126844       0.00109257      -4.56567775
Al       7.09184708      12.85777936       7.17720368       0.00049231      -0.00264761      -0.00357639      -4.45390602
Al       7.16356612      12.88910104      10.06154215      -0.00411983      -0.00289943       0.00696996      -4.35166502
Al       7.15735466      12.89071335      12.79623359      -0.00282790       0.00073762      -0.00130802      -4.43758977
Ni       8.57379377      -0.04106554       0.01429801       0.00182286      -0.00325174       0.00391499      -6.14394269
Al       9.98301134       1.47759931       1.39072880      -0.00636903      -0.00114156       0.00269483      -4.54836763
Ni       8.58242176       0.04541219       2.88723375      -0.00192097       0.00214471      -0.00294258      -6.25680032
Al       9.99164550       1.45988504       4.34568616      -0.00458364       0.00407005       0.00113899      -4.54674650
Ni       8.56868970      -0.05935850       5.74113601      -0.00453435      -0.00117577      -0.00140882      -6.21581067
Al      10.00090772       1.44913065       7.14377265      -0.00422495       0.00503213      -0.00451762      -4.55837738
Ni       8.56117016      -0.01019077       8.55494826       0.00462930      -0.00266381      -0.00555301      -6.22261591
Al      10.00309865       1.39403937      10.05719569      -0.00280847      -0.00148368       0.00649568      -4.57048177
Al       9.93761356       1.43703793      12.88965193      -0.00517072       0.00239397      -0.00621708      -4.43898085
Al      10.00436132       4.30929837       1.42203713       0.00018434      -0.00468534      -0.00846723      -4.46775023
Ni       8.58917587       2.88970647       2.85392778       0.00403510      -0.00348620      -0.00122441      -6.21260663
Al      10.01326909       4.27983353       4.31453101      -0.00204077      -0.00159778       0.00010653      -4.54728475
Al       9.99347643       4.24590071       7.12822782      -0.00193025      -0.00244925       0.00026582      -4.54099993
Ni       8.60334879       2.84711202       8.65572515      -0.00296233      -0.00145874      -0.00136133      -6.21545020
Al      10.07185677       4.34524845      10.04124359      -0.00314012       0.00621416       0.00482716      -4.56522931
Ni       8.61956214       2.95745038      11.44628269       0.00063895      -0.00468096      -0.00259650      -6.14916961
Al      10.03418352       4.35987567      12.89287147       0.00082626      -0.00283380       0.00671776      -4.35916248
Al      10.00179340       7.16142887       1.37926290      -0.00139004       0.00073209      -0.00593563      -4.30531243
Ni       8.58914227       5.74304818       2.91039025      -0.00103840       0.00047069      -0.00111337      -6.22529011
Al       9.99807325       7.19911548       4.34960029      -0.00768534       0.01336464      -0.00259110      -4.55984963
Ni       8.59924968       5.72989290       5.74157480      -0.01041742       0.00145981      -0.00423806      -6.20469779
Al      10.00381092       7.22423015       7.12805115      -0.01069868       0.00561773      -0.00095716      -4.56392025
Ni       8.61521871       5.73930101       8.55476375       0.00042422      -0.00201523       0.00347404      -6.26515565
Al      10.05894459       7.12822416      10.01767309       0.00264326       0.00077861       0.00141415      -4.57754041
Ni       8.56767948       5.74731627      11.45547971      -0.00391489       0.00532331       0.00688149      -6.14014220
Al      10.07648690       7.13050840      12.89791412       0.00301620      -0.00203323       0.01230112      -4.16820127
Al      10.00514721      10.00445307       1.38076797       0.00018835      -0.00212573      -0.00236360      -4.45768264
Ni       8.61312170       8.58011143       2.84411823       0.00414268      -0.00271653      -0.00358806      -6.21636212
Al      10.00682106      10.00300329       4.35686670      -0.00147299      -0.00932680      -0.00416680      -4.56819121
Al      10.01626202       9.99659400       7.14394183      -0.00073838      -0.00193357       0.00014892      -4.57698761
Ni       8.57287508       8.61106141       8.62900578      -0.00107702       0.00549571      -0.00016481      -6.21245256
Al      10.03611893      10.01950450      10.01183667      -0.00358819       0.00331194       0.00341875      -4.64794613
Ni       8.62983109       8.54290324      11.44775057      -0.00267484       0.00144520      -0.00063150      -6.22031814
Al      10.03170193       9.99231183      12.91706884       0.00324793       0.00172245       0.00092406      -4.47229228
Ni       8.57887124      11.49218572      -0.06461550       0.00097446       0.00315621       0.00021883      -6.21833269
Al       9.99463431      12.87824295       1.46082663       0.00048749       0.00810526      -0.00504525      -4.65835511
Ni       8.56947991      11.39333963       2.90947802      -0.00405368       0.00075092       0.00177035      -6.26111377
Al      10.03595057      12.88090230       4.28167550      -0.00142600      -0.00411161      -0.00144730      -4.65848624
Ni       8.60485036      11.49805891       5.76351104      -0.00415878       0.00305249      -0.00481702      -6.13444227
Al      10.03407306      12.89005471       7.17309746      -0.00294771      -0.00218723      -0.00275483      -4.62611646
Ni       8.58122050      11.45536403       8.60664543       0.00337043       0.00451685       0.00237435      -6.22079091
Al       9.99865134      12.92239663      10.05861163      -0.00285634       0.00089486       0.00440752      -4.57556780
Ni       8.60679728      11.39755497      11.44073192      -0.00252745       0.00206951       0.00352749      -6.15189412
Al       9.99168997      12.91735586      12.83561606      -0.00016844       0.00142569       0.00091205      -4.57122753
Ni      11.36450470       0.01867952      -0.02524593       0.00231674      -0.00230910      -0.00225857      -6.21883281
Al      12.88854698       1.41407415       1.38695982       0.00429519      -0.00175238       0.00396799      -4.55672937
Ni      11.44366031       0.02397074       2.84154635       0.00386209      -0.00303099       0.00085740      -6.25033290
Al      12.88814943       1.42027268       4.29892168       0.00771138       0.00137750       0.00205919      -4.62965391
Ni      11.44916145       0.00384651       5.73983222       0.00094611       0.00155730       0.00037062      -6.25138034
Al      12.89468251       1.42360700       7.17202704      -0.00326504       0.00198421       0.00116411      -4.63821125
Ni      11.45929831      -0.01671969       8.60944936      -0.00114944      -0.00662439       0.00095354      -6.25949925
Al      12.88683376       1.44675639      10.02727662      -0.00077204      -0.00522894       0.00344498      -4.64321570
Ni      11.50651074       0.00531360      11.48115492       0.00738461      -0.00175993      -0.00115824      -6.21590858
Al      12.93322314       1.40543170      12.92920746       0.00093773      -0.00809273      -0.00569486      -4.55708117
Ni      11.47389092       2.89659728      -0.03769385       0.00382307      -0.00152800      -0.00300588      -6.22335401
Al      12.87816924       4.29791058       1.44764485       0.00339442       0.00331781      -0.00476964      -4.66077833
Ni      11.42324034       2.85410135       2.86887688      -0.00416386       0.00015106       0.00242449      -6.26700840
Al      12.90686800       4.33056045       4.30785761      -0.00036664      -0.00138131       0.00449180      -4.58017271
Ni      11.51459223       2.87577973       5.72588426      -0.00133632       0.00475958      -0.00118823      -6.20950148
Al      12.93123672       4.32689914       7.11760891      -0.00339713       0.00739832      -0.00569442      -4.55217958
Ni      11.44611167       2.87674838       8.58751073      -0.00902067       0.00361732       0.00198864      -6.26305387
Al      12.84550394       4.31731195      10.06715977      -0.00449410       0.00465057      -0.00047665      -4.56329255
Ni      11.42124162       2.81423310      11.50553134      -0.00606672      -0.00132623      -0.00349786      -6.21950873
Al      12.87989155       4.33207184      12.86507871      -0.00499604      -0.00407972       0.00246707      -4.57645667
Ni      11.45807424       5.70716904       0.04427036       0.00465501      -0.00833701      -0.00276843      -6.04859742
Al      12.87329430       7.23520571       1.44281767       0.00182427       0.00567329      -0.00514944      -4.46825568
Ni      11.46257527       5.78323836       2.86171362       0.00456280       0.00086467      -0.00360248      -6.28728119
Al      12.95100867       7.16425690       4.28957906       0.00903726       0.00236296       0.00611466      -4.47965971
Ni      11.40375161       5.73175328       5.72549009      -0.00358217       0.00349406       0.00407202      -6.22047444
Al      12.94215664       7.11569500       7.12739165       0.00267036      -0.00049444      -0.00210037      -4.58127385
Ni      11.46609421       5.73080165       8.51920645      -0.00287185      -0.00318981       0.00417535      -6.21540298
Al      12.86744895       7.13214863      10.03434186      -0.00706995      -0.00518442       0.00284046      -4.57552031
Al      12.82426837       7.14647676      12.87873592      -0.00671228       0.00247128       0.00522909      -4.45006451
Al      12.86118770       9.94812650       1.42406549       0.00633302      -0.01306105       0.00373174      -4.43894661
Ni      11.37925681       8.59073497       2.89518050      -0.00417037       0.00138482      -0.00136146      -6.15750259
Al      12.92312912      10.00885650       4.24773249      -0.00040598      -0.01204636      -0.00041649      -4.58858264
Ni      11.54894798       8.59433411       5.72615311       0.00097639      -0.00370961      -0.00012081      -6.22709538
Al      12.93049261      10.08078736       7.21627146       0.00165440      -0.00429581       0.00212057      -4.56473738
Ni      11.48725413       8.58753742       8.58299391      -0.00702891       0.00442006      -0.00268474      -6.27190039
Al      12.92804191      10.05355368       9.99457615       0.00058977       0.00346798      -0.00071623      -4.56896635
Ni      11.44835098       8.62170832      11.42641058       0.00654027       0.00224415       0.00330820      -6.13984708
Al      12.83791773      10.00457002      12.91708683       0.00325202      -0.00105745      -0.00111341      -4.56650418
Ni      11.43257714      11.49426966      -0.00176786       0.00508603       0.00061144       0.00264867      -6.22033386
Al      12.88922781      12.93387179       1.39774074       0.00548389       0.00382072       0.00097919      -4.55482527
Ni      11.46147767      11.41166187       2.83642307       0.00627397       0.00115599      -0.00004951      -6.25989238
Al      12.88324466      12.88911058       4.29381648       0.00286164       0.00463941       0.00044093      -4.65821240
Ni      11.47587406      11.44456629       5.74897914       0.00430751      -0.00580011       0.00052373      -6.26214091
Al      12.93353199      12.87026316       7.18329108       0.00232861      -0.00504061       0.00280905      -4.56089062
Ni      11.42829094      11.47003759       8.60079981      -0.00071321      -0.00075710       0.00205661      -6.20747031
Al      12.92225368      12.86289690       9.99898398      -0.00158880       0.00194451      -0.00079319      -4.54916230
Ni      11.46629404      11.46478423      11.45602047       0.00055087      -0.00214532       0.00021330      -6.27490171
Al      12.91859446      12.92005561      12.93249805       0.00164423       0.00551803       0.00502819      -4.56221419
