184
Lattice="14.066281222967465 0.0024411454593190386 0.006506640187928654 0.0024403348086245863 14.080174311280723 -0.008625419750489565 0.0065080733951092835 -0.008628683140929702 14.060993926387605" Properties=species:S:1:pos:R:3:forces:R:3:energies:R:1 rep=5 n_sites=250 energy=-891.2513540623136 stress="0.00031118233409724246 -0.00031499967961834673 -0.0005682324306314135 -0.00031499967961834673 -0.0007171114611341882 0.0010634769066271055 -0.0005682324306314135 0.0010634769066271055 0.0003509122862119654" free_energy=-891.2513540623136 pbc="T T T"
Ni      -0.01952218       0.04065245      -0.00702906       0.00083892       0.00432266      -0.00534568      -6.07227496
Al       1.45557263       1.35454631       1.44937328      -0.00068890       0.00572912       0.00683723      -4.33289541
Al       1.43635688       1.26795017       4.21033427       0.00118633       0.00498367      -0.00399332      -4.24749104
Al       1.43797527       1.38032875       7.02424058       0.00288246      -0.00627020       0.00073511      -4.48685872
Ni       0.01818277      -0.08771319       8.47635859       0.00389030      -0.00274516       0.00645889      -6.17541920
Al       1.41419152       1.46352684       9.81653624       0.00161060       0.00218923       0.00139221      -4.52892228
Ni       0.06736799      -0.04727565      11.26756159      -0.00031774      -0.00351923       0.00354372      -6.11891855
Al       1.42718838       1.45797433      12.68527180       0.00278442       0.00206059      -0.01028419      -4.47369327
Ni      -0.02854497       2.78600290       0.13679051      -0.01117041      -0.00225510      -0.00990683      -6.07731063
Al       1.44440936       4.25422424       1.39061171      -0.00088996      -0.00071923       0.00178116      -4.33086314
Ni       0.06447880       2.84197742       2.89260877       0.00077251      -0.00227400      -0.00557225      -6.15834812
Al       1.43299981       4.34973188       4.25974929      -0.00004777       0.00261565       0.00034745      -4.45702088
Ni       0.07544791       2.80030009       5.57370294      -0.00255008       0.00101091       0.00480553      -6.15781913
Al       1.43093332       4.27671915       7.04817977       0.00398732      -0.00156898      -0.00289466      -4.07902495
Ni      -0.08692391       2.79006695       8.31030111      -0.00944550      -0.00131565      -0.00105698      -6.08606892
Al       1.38089745       4.13896515       9.79121391       0.00673031       0.00342091       0.00836198      -4.29724795
Al       1.35855723       4.18041953      12.72022773       0.00210304       0.00710523      -0.00716758      -4.28608916
Al       1.40205845       7.04959181       1.38558307      -0.00094442       0.00375333      -0.00232280      -3.89847797
Al       1.37681343       7.08010397       4.16886343       0.00522302      -0.00080297       0.00106590      -3.93007712
Al       1.45683281       6.99565229       6.87674943      -0.00664939      -0.00262942      -0.00218999      -3.89220072
Al       1.39460884       6.95844908       9.70536200      -0.00709461      -0.00857331      -0.00073502      -4.60347331
Ni       0.07101664       5.67219920      11.23093185       0.00487023       0.00004265       0.00693474      -6.01764047
Al       1.42375743       7.02733012      12.75482205       0.00265600       0.00343824      -0.00046817      -4.24105482
Al       1.39787756       9.89414078       1.42261136       0.00716149      -0.00371375      -0.00557607      -4.04604721
Ni      -0.03715190       8.48233766       2.76487221       0.00424689      -0.00370458       0.00540447      -5.78185867
Al       1.37457818       9.87631111       4.20038202      -0.00133369       0.00167177      -0.00076344      -3.93682470
Al       1.44477501       9.86295165       6.91547123       0.00296968       0.00243994      -0.00560660      -4.35036468
Ni       0.05067054       8.47276694       8.34617213      -0.00380224      -0.00642254      -0.00175954      -6.05795808
Al       1.39095365       9.91675514       9.80543211       0.00687327      -0.01227678       0.00346993      -4.55400728
Ni      -0.01562619       8.35612505      11.23555413       0.00639413       0.00395171      -0.00366267      -6.17959711
Al       1.38528374       9.81974945      12.68911169      -0.00371785      -0.00964247      -0.00800060      -4.32230388
Al       1.42931942      12.70232049       1.39806026       0.00038773       0.00246663       0.00583009      -3.88642888
Al       1.34233714      12.66516126       4.12343598      -0.00199525       0.00366445      -0.00108103      -3.67553912
Ni      -0.05448473      11.29657971       5.61545082       0.00315362      -0.00226077       0.00425817      -5.91727673
Al       1.43562434      12.67251462       6.92067173       0.00284708      -0.00001539       0.00409996      -4.34214414
Ni      -0.06601927      11.25408992       8.25876755      -0.00178034      -0.00102503       0.00356889      -6.16566352
Al       1.43715921      12.53180352       9.82525705      -0.00052273       0.00487963      -0.00479087      -4.53244663
Al       1.44573018      12.65477883      12.70599591       0.00001500       0.00201505       0.00209914      -4.48657420
Al       4.21657290       1.34331696       1.37716929      -0.00259015      -0.00481066      -0.00404558      -3.87364525
Al       4.21935250       1.27202214       4.21248275      -0.00004809      -0.00027675       0.00229924      -4.24699812
Al       4.15975414       1.38955936       6.98137673       0.01002558      -0.00351748       0.00901172      -4.46579464
Ni       2.82912605      -0.07199153       8.40056570       0.00107080      -0.00222335      -0.00431739      -6.09693027
Al       4.21032549       1.44880911       9.77873346      -0.00153028       0.00320905       0.00046199      -4.64615110
Ni       2.80830150       0.00803545      11.21924752      -0.00200899       0.00878766      -0.00210891      -6.24427804
Al       4.25932305       1.36989935      12.72752686       0.00155062       0.00289736       0.00258047      -4.19691108
Al       4.26366288       4.20751222       1.36900040       0.00728028      -0.00029534      -0.00310356      -4.44766350
Ni       2.84639540       2.81165985       2.84858833      -0.00810086       0.00859330      -0.00311837      -6.17447018
Al       4.26383337       4.28116634       4.24915643       0.00971309      -0.00132292       0.00017075      -4.59339636
Ni       2.80711148       2.79833993       5.55471073      -0.00228151      -0.00074174       0.00280488      -6.14067771
Al       4.17582656       4.24009654       6.97911800       0.00297371       0.00046644       0.00106928      -4.30097977
Al       4.20971263       4.19571124       9.77667106       0.00581224       0.00017318      -0.00654118      -4.54889215
Ni       2.88810010       2.83551020      11.29561130      -0.00278462       0.00233531       0.00277478      -6.11909923
Al       4.24150431       4.23858561      12.73160106       0.01037797       0.00325704       0.00033165      -4.40499280
Al       4.10904272       7.03540448       1.35385151       0.00402282      -0.00426692      -0.00178250      -4.44514843
Ni       2.84095682       5.62675746       2.81349154      -0.00314867      -0.00454557       0.00580922      -5.99675828
Al       4.16011294       7.06216245       4.29579330       0.00149003      -0.00330881       0.00110511      -4.13851328
Al       4.23967297       6.99491437       6.99981230       0.00405481       0.00113236       0.00080805      -3.85952235
Al       4.20469065       6.97971791       9.75695054      -0.00085055      -0.01253119       0.00325675      -4.46859517
Ni       2.75608962       5.57778852      11.24665521      -0.00434558      -0.00655228       0.00079800      -6.25401952
Al       4.23562635       7.07541237      12.58174430      -0.00020398       0.00340937      -0.00097396      -4.45080896
Al       4.15798985       9.82522787       1.44820652       0.00124054       0.01108728      -0.00135409      -4.35563004
Al       4.14516973       9.84834736       4.18290260       0.00082141      -0.00356750       0.00873315      -3.94839683
Al       4.21033557       9.79816979       6.97326039      -0.00170989       0.00283644       0.00561735      -4.03886933
Ni       2.77700977       8.43404599       8.35774032       0.00386614       0.00375071       0.00022071      -5.99026156
Al       4.24800651       9.81420091       9.78018299       0.00854277      -0.00354827      -0.00083053      -4.31496793
Ni       2.75103003       8.41315932      11.16202430      -0.00450235      -0.00195548       0.00172656      -6.19099691
Al       4.25218323       9.72702991      12.65768096       0.00629660      -0.00049248      -0.00292756      -4.53863312
Ni       2.86687540      11.25006325       0.03465349       0.00037303      -0.00452197       0.00142492      -5.98986106
Al       4.23537788      12.69581633       1.47402095       0.00195227       0.00040881       0.00162740      -3.87604208
Al       4.08947005      12.66522354       4.18767475      -0.00738235       0.00091477      -0.00255932      -3.67317312
Al       4.19694796      12.61024946       6.99477062      -0.00204647       0.00922217      -0.00187480      -4.19926747
Al       4.24536385      12.61633416       9.81308700       0.00067654      -0.00832915       0.00609552      -4.58382856
Ni       2.88569799      11.20053447      11.32572622       0.00164308      -0.00217112      -0.00268225      -6.17378061
Al       4.26808421      12.71925922      12.69321855      -0.00193041       0.00724520       0.00022073      -4.58665187
Al       7.04775394       1.39641344       1.41993530      -0.00060867      -0.00041478       0.00659470      -3.91595101
Al       7.09170444       1.29473154       4.20190095      -0.00217246       0.00396731      -0.00071736      -3.90489924
Al       7.14813333       1.34983712       6.94618657       0.00038158       0.00191093      -0.00301154      -4.08082005
Ni       5.60555627       0.03286860       8.38969089      -0.00447642       0.00100417      -0.00044713      -6.05689496
Al       7.08622708       1.42849558       9.75479699      -0.00226504       0.00150805      -0.00022453      -4.57875492
Ni       5.71114864      -0.02709334      11.21097686      -0.00002872       0.00302591       0.00375966      -6.25081160
Al       7.05007265       1.37148865      12.73032954      -0.00960259       0.00091515      -0.00138090      -4.44053229
Al       7.04958177       4.19223972       1.38877209       0.00153888       0.01047733      -0.00055925      -4.41771582
Ni       5.59923588       2.73993872       2.87633069       0.00083072       0.00419588       0.00326595      -6.05997729
Al       7.06304264       4.19549366       4.22191793      -0.00080416       0.00140185      -0.00030959      -4.38591121
Ni       5.65071210       2.75541104       5.58566925       0.00562941       0.00008670      -0.00316722      -6.15056066
Al       7.16353371       4.23764266       6.92482539      -0.00023512       0.00041263      -0.00222319      -4.07991184
Ni       5.70732639       2.82080955       8.26522825       0.00542612      -0.00273538       0.00241203      -6.23634168
Al       7.10517942       4.16183360       9.77761692      -0.00116355      -0.00268688      -0.00118068      -4.57673034
Ni       5.64173961       2.78677323      11.24541922      -0.00222526       0.00196807      -0.00232282      -6.24015904
Al       7.06043086       4.20756060      12.74198577      -0.00323552       0.00323395       0.00205203      -4.56638542
Ni       5.64077147       5.73433404      -0.01669418       0.00514807      -0.00164459       0.00343855      -6.15229621
Al       7.16728099       7.06482201       1.40191793      -0.00272941      -0.00386543      -0.00184397      -4.48445925
Ni       5.65826754       5.69988563       2.80090391       0.00195971      -0.00199512      -0.01039124      -6.27424540
Al       7.04653947       7.10436686       4.30126797      -0.00236545      -0.00539064       0.00228042      -4.38608232
Al       7.03875367       7.01589453       7.01662256       0.00123356      -0.00262981       0.00017451      -4.22659181
Ni       5.66278092       5.54954340       8.38211209      -0.00648277       0.00256027      -0.00577251      -5.99252341
Al       7.07372347       7.04119053       9.73960421      -0.00009595       0.00373170      -0.00420372      -4.31286224
Ni       5.69670823       5.61296590      11.20629710      -0.00166885      -0.00293097      -0.00386367      -6.24558367
Al       7.11859468       7.10915256      12.62357580      -0.00329835       0.00076324      -0.00167427      -4.34256633
Ni       5.65146580       8.40909279       0.08399286      -0.00584844       0.00418515      -0.00599045      -6.15177613
Al       7.00813287       9.85831370       1.52112782       0.00338501      -0.00121951       0.00808440      -4.53409567
Ni       5.56602697       8.38584830       2.80111624       0.00226334       0.00758006       0.00182324      -6.00719809
Al       6.96877771       9.78796080       4.21854265      -0.00538186      -0.00313053      -0.00558773      -4.45312326
Al       6.95774340       9.92103757       7.07817670       0.00071973       0.00167774       0.00708954      -4.37447886
Al       7.04497786       9.82528410       9.86484615       0.00110209      -0.00109810      -0.00119790      -4.03681098
Al       7.09211565       9.81359070      12.68742256      -0.00287208       0.00491961      -0.00680905      -4.21125774
Ni       5.61011802      11.22367160      -0.00042896       0.00460953      -0.00055245      -0.00083850      -6.19109426
Al       6.98649571      12.74351289       1.43239039      -0.00203755       0.01200355      -0.00007024      -4.08423684
Al       6.88071018      12.69375470       4.13768109      -0.00660488      -0.00761537      -0.00390971      -4.12412214
Ni       5.56215273      11.26538531       5.60016964       0.00105891      -0.00049330       0.01036502      -5.89041176
Al       6.98529170      12.71242328       6.97353752      -0.00357042      -0.00476776       0.00379535      -4.21943213
Al       7.07797880      12.61204577       9.73295848      -0.00159952      -0.00201818       0.00450265      -4.22410993
Ni       5.63614453      11.24272616      11.24782559      -0.00365888      -0.00356615       0.00501250      -6.04001461
Al       7.11052357      12.62238678      12.65854068      -0.00468642      -0.00171522      -0.00497131      -4.49882686
Al       9.83339782       1.42926305       1.50235681      -0.00403472      -0.00473971       0.00566313      -4.39137119
Al       9.81446838       1.53225722       4.29446308       0.00052635       0.00977486       0.00175012      -3.66039545
Al       9.87019582       1.45020631       7.01053433      -0.00011775       0.00353677      -0.00652704      -3.65221457
Al       9.85409437       1.33847656       9.77298701      -0.00003158      -0.00477464      -0.00170641      -4.34461209
Ni       8.41439969       0.00667677      11.19932113      -0.00599945       0.00207149      -0.00887685      -5.99991576
Al       9.90502224       1.28858758      12.67622557      -0.00574575       0.00748777      -0.00080908      -4.57774378
Ni       8.51471737       2.77658065       0.02713756       0.00302504      -0.00429572      -0.00452717      -5.99008968
Al       9.80152677       4.26911433       1.47595872      -0.00363556       0.00724462       0.00717600      -4.37912406
Al       9.85841562       4.26333549       4.27028315       0.00064392      -0.00116860      -0.00033326      -3.97087370
Al       9.88133078       4.26270257       7.04596293      -0.00271691       0.01002311      -0.00875729      -3.91895451
Al       9.86419560       4.30757898       9.78485732      -0.00388506      -0.00664144       0.00422833      -4.37490168
Ni       8.49157738       2.79068085      11.29190594       0.00253293       0.00005392       0.01010795      -6.26127689
Al       9.86992002       4.30561213      12.65959853      -0.00571038       0.00054752      -0.00617608      -4.59414854
Al       9.87770258       7.06694895       1.49290592      -0.00036286      -0.00434849      -0.00219447      -3.96644931
Ni       8.40421574       5.64139084       2.88596445       0.00497808       0.00700928      -0.00443042      -5.89848192
Al       9.78561238       7.08477659       4.30175495       0.00675187       0.00188149       0.00371226      -4.15712479
Al       9.96424304       7.10044169       7.08185849      -0.00187368       0.00559828       0.00219625      -4.29528739
Al       9.83957990       7.10216238       9.86555806       0.00452241       0.00194596      -0.00213902      -4.12604698
Ni       8.41484042       5.62481734      11.21714106       0.00530837      -0.00843358       0.00462489      -5.99019522
Al       9.89363413       7.02127913      12.65837335      -0.00073834       0.00697948      -0.00247262      -4.11938168
Al       9.88836168       9.79302784       1.51612991      -0.00379693       0.00183931       0.00188285      -4.08920122
Al       9.89077420       9.85444174       4.25080419       0.00422054       0.00675179      -0.00421393      -4.18535870
Ni       8.46153741       8.54231238       5.76749145      -0.00189883       0.00106301       0.00326051      -6.03378797
Al       9.87846394      10.04512352       7.06875512      -0.00366834       0.00263138       0.00302977      -4.13828876
Ni       8.45852264       8.50772495       8.35695834       0.00066208       0.00151058      -0.00330335      -5.93039616
Al       9.82444557       9.85553037       9.81724417      -0.00335501      -0.00475363       0.00621230      -4.22681993
Al       9.79813557       9.77113859      12.73546497      -0.00607728      -0.00477862      -0.00574471      -4.36753281
Ni       8.44458904      11.24992303       0.16226657       0.00919399      -0.00118832       0.00058194      -6.16710498
Al       9.85995042      12.68074400       1.50825853      -0.00410264      -0.00167151      -0.00059561      -4.53435639
Ni       8.43403983      11.28941122       2.87305846       0.00244926       0.00439009       0.00339693      -6.08246852
Al       9.74668445      12.80202657       4.27858792       0.00168757       0.01391569       0.00411564      -4.27935313
Ni       8.35671181      11.29787345       5.53009190      -0.00025201      -0.00464290       0.00715131      -6.07672960
Al       9.75055648      12.77824517       7.06177198      -0.00241493       0.00178997      -0.00382311      -3.65969827
Al       9.86198542      12.62632375       9.85278640      -0.00200808      -0.00397767       0.00419184      -3.92023352
Al       9.80184272      12.69169281      12.67436544       0.00399958      -0.00663366       0.00991034      -4.41157943
Ni      11.31781911      -0.03403829       0.15936329       0.00128116       0.00596311      -0.00195710      -6.18115786
Al      12.65170474       1.43107157       1.54665480       0.00443737       0.00392979      -0.00336705      -4.58138563
Ni      11.21629734       0.02979210       2.92711413      -0.00230304      -0.01307938      -0.00328727      -5.87953959
Al      12.64174300       1.42304617       4.27140699       0.00606251      -0.00247472      -0.00148566      -4.22920749
Al      12.62794896       1.31583169       6.99185577       0.00311107       0.01099747       0.00197408      -4.24284400
Al      12.68555925       1.36810828       9.89553695       0.00237055      -0.00105608      -0.00753203      -4.51589635
Al      12.65097621       1.42985133      12.61394945       0.00170511      -0.00447699       0.00573711      -4.57818027
Ni      11.23341257       2.88171870       0.01302908       0.00053473       0.00280791      -0.00078106      -6.25814878
Al      12.66110272       4.27278099       1.51010239       0.00429698      -0.00067009       0.00858800      -4.36705287
Al      12.67756330       4.30517413       4.23143162       0.00287729      -0.00658092      -0.00723842      -4.22152921
Al      12.61903199       4.19976299       6.95040772       0.00576915      -0.01618804       0.00275018      -4.36803773
Ni      11.29412356       2.81098366       8.48657408       0.00080661       0.00741607       0.00203971      -6.02373541
Al      12.71139031       4.26962545       9.86955649      -0.00907016      -0.00767682      -0.00900711      -4.36798588
Ni      11.19778764       2.81569861      11.17909151      -0.00266738      -0.00431777      -0.00224903      -6.12888395
Al      12.70188139       4.23865595      12.63375545      -0.00399302      -0.00503461       0.00089899      -4.43133805
Ni      11.28957149       5.65079196       0.08967922      -0.00051624      -0.00237546       0.00542711      -5.88618913
Al      12.69214017       7.08392769       1.37046408      -0.00012368       0.00090958      -0.00294022      -4.07027379
Al      12.59216161       7.12615516       4.17556061       0.00755594      -0.00597027       0.00187979      -4.10089175
Ni      11.29693867       5.70280163       5.63214427      -0.00724341      -0.00432677      -0.00082178      -5.78029628
Al      12.76126838       7.00569646       6.99723798       0.01608243      -0.00071287       0.01087537      -4.08287046
Al      12.61694656       7.02297846       9.75957471       0.00190595      -0.00223890       0.00381684      -4.28572727
Al      12.62611793       6.97516452      12.64468751      -0.00996448       0.00219614       0.00127400      -4.36870917
Al      12.63950860       9.90451947       1.40828556       0.00304903       0.00499350      -0.00113367      -4.03957275
Al      12.62433879       9.89682816       4.18343843      -0.00677567      -0.00141531      -0.00128579      -3.92973802
Al      12.56478114       9.79325931       6.93540404       0.00122035      -0.00291541      -0.00375565      -4.13429586
Al      12.69829988       9.87689936       9.80564776      -0.00104892      -0.00474796      -0.00416873      -4.53420552
Ni      11.30521745       8.52078611      11.24887515      -0.00354694      -0.00037852      -0.00150220      -6.02639792
Al      12.73059181       9.83342737      12.72015836      -0.00360034      -0.00059726       0.00171020      -4.33556387
Ni      11.21161570      11.27429638      -0.00753005      -0.00611506       0.00140806       0.00211777      -6.07675490
Al      12.73332778      12.63969867       1.50430510      -0.00371006      -0.00134002      -0.00224131      -4.25848328
Al      12.59302352      12.68506270       4.25737821      -0.00708579      -0.00313343      -0.00514061      -4.07136800
Al      12.50588562      12.69720063       7.02201965       0.00081770      -0.00265963       0.00198105      -4.10086526
Al      12.65205602      12.58120755       9.89440588       0.00736786       0.00715084      -0.00623524      -4.31820260
Ni      11.22597845      11.15156557      11.29451641      -0.00579227       0.00097896      -0.00048216      -6.02029336
Al      12.64884566      12.66178390      12.63112049      -0.00029266      -0.00221545      -0.00154660      -4.52484371
