156
Lattice="13.584374112691624 0.02773612159120607 -0.42134322258614176 0.020804118325743148 13.669583433178854 0.2884296788622994 -0.4284962675778373 0.2936580538870718 13.35001694748445" Properties=species:S:1:pos:R:3:forces:R:3:energies:R:1 energy=-687.8471705239111 stress="0.00018270088782925835 -1.9016600284912414e-05 -0.00036803317668279224 -1.9016600284912414e-05 3.858333622341032e-05 -0.00024205148088457583 -0.00036803317668279224 -0.00024205148088457583 0.00034870717650506053" free_energy=-687.8471705239111 pbc="T T T"
Al       1.12948918       1.36864338       1.22684976      -0.00339836       0.00067944       0.00290017      -4.32743437
Al       1.08982529       1.78455532       3.93200273      -0.00111232       0.00185027      -0.00880048      -4.18589068
Ni      -0.63307340       0.65591154       5.25500558      -0.00255542       0.00605692       0.00351100      -5.76108478
Al       0.62031133       2.27894879       6.57411084      -0.00401213      -0.00933548      -0.00109053      -4.12293192
Al       1.53277463       1.19996937       9.07829220      -0.00613512      -0.00377225      -0.00593981      -3.91062736
Al       1.38660194       1.70075125      11.88778314      -0.00278621      -0.00475917      -0.00005524      -3.93361526
Al       1.14109732       4.08838054       0.35307018      -0.00294320      -0.00071589      -0.00324068      -3.87290851
Ni      -0.06608094       3.22010876       2.28652778       0.00192793      -0.00179869      -0.00055633      -5.79340791
Al       1.87396946       4.29425697       3.19183637      -0.00133068       0.00300170       0.00679018      -4.07819937
Al       1.08544940       5.14439028       5.78370931      -0.00776461       0.01072200      -0.00412224      -4.10489069
Al       1.73442414       4.14085509       8.37746514       0.00127179      -0.00226066      -0.00850333      -4.08294701
Al       0.91451728       4.26859673      10.96423496      -0.01291726       0.00129629       0.00167695      -3.75189862
Al       1.32982668       6.63470314       1.62241699      -0.00386958      -0.00103838       0.00471769      -4.21526632
Al       0.48000309       7.96346436       3.95886340      -0.00098850      -0.00791914      -0.00517416      -4.11559945
Al       0.52792558       7.66904548       6.71020937      -0.00039782      -0.00055750       0.00421058      -4.00757887
Ni      -0.22655252       5.53469656       7.75456738      -0.00347828      -0.00274078      -0.00125290      -5.83608317
Al       1.14616979       6.70558094       9.36300872       0.00351584       0.00299487       0.00561470      -4.23614120
Al       1.00565312       6.74964614      12.26270963       0.00267345       0.00061012      -0.00421260      -4.28299797
Ni      -0.14581514       8.16589736       0.06006546      -0.00242296       0.00235914       0.00007659      -6.08447966
Al       1.04298860       9.60466393       1.50195297       0.00070004       0.00137912       0.00519889      -4.18455195
Al       2.24774276      10.49915791       3.69143415       0.00474910      -0.00197199      -0.00530551      -4.13871051
Al       1.00520881      10.44896751       6.11266468      -0.00373144       0.01114250      -0.00241647      -4.30289921
Al       0.96542530       9.47595111       9.14656518      -0.00325748       0.00668294       0.00409954      -4.40301136
Ni      -0.39798586       8.06127320      10.77361583      -0.00344886       0.00156861      -0.00813002      -6.12813552
Al       0.74107100       9.91463227      12.00838183      -0.00302570      -0.00309566       0.00115436      -4.28827679
Al       1.34494856      12.24348670       1.59778267       0.00935908      -0.00030445       0.00638149      -3.99176211
Al       0.76153473      12.74036712       4.34380210       0.00995125      -0.00639178       0.00074200      -4.09589315
Al       0.78384433      13.17086804       7.16583346       0.00232109      -0.00089243       0.00075617      -4.28940564
Ni      -0.43252459      10.99510978       7.93078013       0.00778635       0.00185792       0.00156614      -5.90288174
Al       0.58937767      12.27696633       9.81751759      -0.00377365       0.00088754      -0.00039074      -4.04731001
Al       1.65045890      12.51435935      12.27783876       0.00207656      -0.00185879       0.00713856      -3.79622381
Ni       2.98231701       0.09309391       0.24599271       0.00715983      -0.00283748       0.00272847      -5.91440452
Al       4.18726727       1.56001385       1.79890577       0.00208160      -0.00267956       0.00281328      -4.07442819
Ni       2.54783968       0.08444552       2.79392013       0.00604403       0.00722103      -0.00017736      -5.96468122
Al       3.72261837       1.37919162       4.57245721      -0.00920166      -0.00181053       0.00117242      -4.10363336
Al       3.41124289       2.19021207       7.28695908      -0.00475282       0.00480131       0.00721852      -3.95093537
Al       4.46125495       1.22999869       9.60172164      -0.00582284      -0.00207516       0.00254864      -3.89628717
Al       4.06434671       1.85019816      12.29599790       0.00132305       0.00148545       0.00282919      -3.90666629
Al       3.78367156       4.16074498       1.29749539      -0.00276249      -0.00165922      -0.00510605      -3.77874882
Al       4.60786717       4.01670259       3.97125522       0.00562731       0.00565672       0.00137883      -3.86648387
Ni       2.55387337       3.31468271       5.35332226      -0.00297921      -0.00441793      -0.00286583      -5.89210041
Al       4.04094664       4.79720067       6.55216302      -0.00385128       0.01200118      -0.00580045      -3.89490775
Al       4.52760133       4.18486939       9.23611227      -0.00129407      -0.00488701      -0.00825921      -4.08153873
Ni       2.77125119       2.85690656      10.25737962      -0.00248419       0.00312111       0.00454955      -5.88779500
Al       3.53598729       4.47727661      11.89941623      -0.00709010       0.00494332       0.00062743      -4.23083288
Al       4.34841783       6.87198591       1.72137677      -0.00500624      -0.00328993       0.00617534      -4.25190847
Al       3.10240003       6.49433701       4.28934285       0.00338970      -0.01652349       0.00782087      -4.12891970
Al       3.44726954       7.37152864       6.91859906       0.00365591      -0.00431987      -0.00508191      -3.99283797
Al       3.83361688       6.96386816       9.52262862      -0.01300156       0.00123522      -0.01442351      -4.26877263
Al       3.79179357       7.17430771      12.36579307      -0.00527770      -0.00057357       0.00908835      -4.46554238
Ni       2.60453170       8.20466153       0.25077607      -0.00761362       0.00379321      -0.00899033      -6.12425687
Al       4.12269089       9.73070882       1.47997614       0.00188396       0.00172086       0.00241262      -3.95951480
Ni       2.67507552       8.29539833       2.78355098      -0.00004251       0.00298674       0.00075162      -6.00023397
Al       4.63627301       8.95086142       4.12333581       0.00392881      -0.00852844       0.00552788      -4.08666009
Ni       2.34009599       8.62490753       5.25173367      -0.00100069      -0.00717447      -0.00147973      -5.89871331
Al       3.69541193      10.13794462       6.70337308       0.00474499       0.01396711      -0.00116959      -4.16872298
Al       3.62820394       9.87470118       9.39895382       0.00398930      -0.00283067      -0.01024790      -4.38895058
Ni       2.22942630       8.33431031      10.87244507       0.00298572      -0.00323029      -0.00013197      -6.12451205
Al       3.40906876      10.07720381      12.15798521      -0.00500335      -0.00176968       0.00436444      -4.37254600
Al       4.27651445      12.32065236       2.00097490      -0.00188585      -0.00326180      -0.00329645      -3.99993742
Al       3.83646357      12.34531113       4.73786198       0.00057093      -0.00244381       0.00009914      -3.80074096
Al       3.71619535      13.09288677       7.35874017       0.00714704       0.01095667      -0.00544116      -3.89385388
Ni       2.12159830      11.39044828       8.13084292      -0.00162078       0.00115917      -0.00582667      -5.91879390
Al       3.29269063      12.48602762      10.00891907       0.00551239      -0.00152063       0.00059790      -4.03326780
Al       4.45281248      12.79854204      12.69945859       0.00478525      -0.00046378      -0.00039715      -4.13682075
Al       6.66034360       0.64407680       1.07358614       0.00415336      -0.00209429      -0.00095123      -4.07200867
Al       6.32315960       1.94625548       3.75556354       0.00478215       0.00007657       0.00588112      -3.88917862
Al       5.84501327       1.17299794       6.61287708       0.00404984      -0.00647755      -0.00524973      -3.91432710
Al       6.93779858       1.96358049       8.98795450      -0.00050383       0.00272896      -0.00153056      -3.83676515
Al       6.65493998       1.20274654      11.64114136      -0.00202000       0.00272117       0.00015815      -4.11769349
Al       6.53722645       3.33227028       1.43214155      -0.00325002      -0.00169171       0.00282155      -4.22018157
Al       7.56504098       4.35475633       4.35774421       0.00057704       0.00265893      -0.00235720      -3.60731335
Al       6.58592250       3.82888531       6.94903880      -0.00536553      -0.00453107      -0.00973424      -3.63811886
Al       7.19225447       4.70514927       9.48590859       0.00508749       0.00753907       0.00522002      -3.96918059
Al       6.40004615       3.95025538      12.02126418       0.00158673       0.00210252       0.00240285      -4.51340242
Ni       5.58367268       5.23704189       0.19594709      -0.00649645      -0.00237206       0.00375712      -5.99319466
Al       7.00078636       6.01540677       2.08452548       0.00219386      -0.00103771       0.00324334      -4.05575422
Al       5.91833151       6.50058256       4.48475402       0.00213719      -0.01296802       0.01107839      -3.59132182
Al       6.09977816       6.49509413       7.23097608       0.00277799       0.00404667       0.00734244      -4.10556627
Al       6.83675298       7.34764410       9.79928703       0.00177560       0.00231931       0.00243450      -4.33709581
Ni       5.35440426       5.79119883      10.93129794       0.00582323       0.00358758       0.00701131      -6.00165224
Al       6.56720638       7.20422649      12.59776954       0.00602655      -0.00837641       0.00087232      -4.29805985
Al       6.60939143       8.72537487       1.89458260       0.00520215       0.00010575       0.00487764      -3.58921437
Al       7.37055683      10.31484030       3.85830063       0.00043234      -0.00223895      -0.00243659      -3.69043785
Al       6.25729630       9.43113497       6.21441401       0.00412821      -0.00077574      -0.00390854      -4.14331157
Ni       5.18981814       8.51861717       8.16889069      -0.00185913       0.00274417      -0.00611630      -5.97693221
Al       6.60345082       9.99155970       9.59598848      -0.00371434      -0.00214376       0.00466689      -4.48407463
Ni       5.06851335       8.59387829      10.88720602       0.00067185       0.00098826      -0.00521648      -6.15390303
Al       6.21461613       9.85271838      12.67870301       0.00283926       0.00238420      -0.00024654      -4.04378800
Al       7.06146990      11.50824349       1.33272428       0.00953891      -0.00766854       0.00759447      -3.89186448
Al       6.27853152      12.82900136       3.66019446      -0.00079509      -0.00313752      -0.00637320      -3.83880874
Al       6.18227099      12.19030446       6.33099519      -0.00374775       0.00100380       0.00311703      -4.04465322
Al       6.07869169      12.64395825       9.09819636       0.00760337      -0.00023255      -0.00136309      -3.95993836
Ni       5.09473408      11.22663168      10.97615614       0.00620531       0.00476433      -0.00439809      -5.88613950
Al       7.18027601      12.17860583      11.69424223       0.00014859      -0.00317828       0.00641412      -4.10929009
Ni       8.44829493      -0.45980630      -0.10770857       0.00268729      -0.00487267      -0.00519812      -5.90526556
Al       9.69305417       0.88948237       1.58016341       0.00287315       0.00024346      -0.00315500      -4.05913485
Al       9.16127356       2.04468157       4.20367553      -0.00166972       0.00197658       0.00216213      -3.82186281
Ni       7.52890738       0.35593347       5.04637987      -0.00104049       0.00883009      -0.00081123      -5.77016766
Al       8.61063557       1.54697594       6.84576628       0.00998133      -0.00164413      -0.00108547      -4.03468278
Al       9.82611331       1.83451161       9.31510167      -0.00267605      -0.00402975      -0.01415196      -4.33556656
Al       9.56613956       1.20474561      11.98503243      -0.00060008      -0.00301652      -0.00044336      -4.39979457
Ni       8.28992331       2.19459464       0.03893555      -0.00107092       0.00319811      -0.00188522      -6.10998519
Al       9.37254612       3.63212277       1.96639626      -0.00380964      -0.00243996       0.00943408      -4.08790057
Al      10.11745807       5.35095922       4.10795701       0.00145941       0.00366384      -0.00038786      -3.69954753
Al       9.41972183       4.23868110       6.73099072      -0.00034864      -0.00103149       0.00135583      -3.64643317
Al       9.93132339       4.43207381       9.78846882       0.00111888       0.00527463      -0.00355104      -3.86496370
Ni       8.24749496       2.89042857      10.77596871      -0.00103403      -0.00336274       0.00041864      -5.89013209
Al       9.50390290       4.01398265      12.51014022       0.00219723       0.00950788      -0.00127953      -4.21669065
Ni       8.14944696       4.90244636       0.32569743      -0.00738415      -0.00071057      -0.00709044      -5.97909119
Al       9.69720045       6.46331793       1.30686253       0.00040796       0.00239402       0.00052673      -4.06855182
Al       8.64630898       7.84728605       3.50649640      -0.00274212       0.00530031      -0.00162105      -3.64455088
Al       8.48377744       6.75800681       5.94296065      -0.00354955       0.00069264       0.00353786      -3.88603414
Al       9.28973958       6.72134784       8.56852799      -0.00208317       0.00043851       0.00302323      -4.10504090
Al       9.05060928       6.61619859      11.82522921      -0.00377974       0.00626726      -0.00143083      -4.11021202
Al       9.23882597       9.23958276       1.16670437      -0.00084032       0.00272658       0.00020318      -3.85339299
Al      10.16154296      10.26541996       3.72275576      -0.00358934       0.00237954      -0.00232737      -3.64798596
Al       9.06749271       9.57817754       6.10494454      -0.01024001       0.00126273      -0.00009336      -4.05863708
Ni       7.69102560       8.29684111       7.70130817       0.00054507      -0.00282804       0.00977848      -5.95563515
Al       9.32283846       9.63205557       9.01092735      -0.00178782       0.00013799       0.01121610      -4.21556544
Al       8.79350446       9.49496334      11.66343193      -0.00455934      -0.00434782      -0.00262963      -3.94615373
Al       9.95371466      11.83865643       1.54597665       0.00204073       0.00366154       0.00490893      -3.87305007
Al       8.98829711      12.75735161       3.91915553       0.00504925      -0.01198929      -0.00766725      -3.86064714
Al       9.00319088      12.49008344       6.60943657      -0.00008781      -0.00353855       0.01207910      -4.11467139
Ni       7.67111637      10.86491466       7.70945215       0.00635816       0.00649921      -0.00383491      -5.86587782
Al       8.80084900      12.44701240       9.40741967       0.00607201      -0.00135536      -0.00672446      -4.18402309
Al       9.80748041      12.10333050      12.19150883       0.00085039       0.00401749       0.00173367      -4.00464857
Al      11.95237911       1.98727090       0.55416953      -0.00079731       0.00290429       0.00355078      -3.92246349
Al      11.85595347       2.42875880       3.45785062       0.00268222      -0.00172523      -0.00781789      -4.13488769
Al      11.33147607       1.77949697       6.30361320      -0.00698410      -0.00493714       0.00521824      -4.15034387
Ni      10.37488612       0.11024072       7.80237046      -0.00832140       0.00508836      -0.00401116      -5.87715426
Al      12.47671474       0.88399950       8.79513871       0.00042279       0.00308593       0.00283162      -4.03535787
Ni      10.82835008      -0.12680228      10.27807890      -0.00072338      -0.00033096      -0.00034546      -5.93236290
Al      12.33831145       1.23710805      11.58914577      -0.00270298       0.00379286      -0.00319824      -3.77217229
Al      11.95871629       4.67776946       0.72109272       0.00086899      -0.01032487      -0.00756059      -3.85165886
Al      12.82656995       5.24122019       3.23943702      -0.01335681      -0.00189335       0.00616868      -3.87173965
Al      12.00832339       4.31968308       5.73917762      -0.00542079      -0.00327001      -0.01119934      -3.81267009
Al      12.34288679       3.60057376       8.47470291      -0.00101914      -0.00183792       0.00553633      -3.85649937
Al      12.04986890       3.97162528      11.47242270       0.00384745      -0.00216454      -0.00074157      -3.64460858
Al      12.25612043       7.32216901       1.51725725       0.00422664      -0.00353434       0.00289496      -4.03199615
Al      11.37250538       7.80501112       3.98450619      -0.00125046      -0.00080779       0.00082779      -3.68978085
Al      11.36722274       6.87013895       6.52153709       0.00207717      -0.00004557       0.00528904      -3.77954793
Al      12.01171603       6.21942598       9.26808700      -0.00257816       0.00423973       0.01055514      -4.28316895
Al      11.83151916       6.67281056      11.97472090       0.00543602       0.00233597      -0.00591631      -4.29009914
Ni      10.82624678       8.04591502      -0.28696666       0.00365050       0.00483236      -0.00710732      -5.97315893
Al      11.92027124      10.09613133       0.55812099       0.00284016      -0.00194349       0.00415974      -4.09240986
Al      12.83044073      10.64644042       3.08693118       0.00426958       0.00309465      -0.00150059      -3.70208337
Al      11.88202567       9.73430213       5.84916267       0.00301439       0.00102867      -0.00015123      -3.85104913
Al      11.89859630       9.04970761       8.49997767       0.00464797       0.00224705      -0.00253507      -4.17399343
Ni      10.53193330       7.90566201      10.29605448       0.00142069       0.00121953       0.00107275      -5.98882892
Al      11.59826802       9.70970932      11.31304984      -0.00279492      -0.00427740       0.00074549      -4.27221223
Al      12.36067324      12.92902834       0.87437998       0.00026060      -0.00129146       0.00728312      -3.67491933
Al      11.61560470      13.15222754       3.52387638       0.00121986       0.00739348      -0.00915692      -3.89257342
Al      11.71104210      12.63096875       6.32750630      -0.00041653      -0.00967200      -0.00259521      -4.15879647
Al      11.43559818      11.74276799       9.03931848       0.00470932      -0.00194682       0.00114491      -4.32447571
Al      12.55052625      12.16623570      11.71285774       0.00491308       0.00215921       0.00118382      -3.88509489
