125
Lattice="11.488419149998897 -6.85471010014637e-19 1.3070345858200897e-19 4.169014433180813e-18 11.492335191827008 -0.0004411851110322009 -6.241118121383892e-17 -0.0004411838911571212 11.489233439982973" Properties=species:S:1:pos:R:3:forces:R:3:energies:R:1 energy=-677.4669666153479 stress="0.0006430352557559733 3.215530844864313e-17 -4.274690231580037e-18 3.215530844864313e-17 -3.385001864025731e-05 6.618938734235872e-05 -4.274690231580037e-18 6.618938734235872e-05 0.0004946864874054738" free_energy=-677.4669666153479 pbc="T T T"
Ni       0.01367960      -0.00919145      -0.00870378      -0.00553027       0.00095969       0.00351159      -6.26187936
Al       1.44414737       1.42567925       1.42782820       0.00826885      -0.00132379      -0.00296228      -4.63198006
Ni       0.01995334      -0.01678201       2.86482923      -0.00928203       0.00329201       0.00349320      -6.24839064
Al       1.44927015       1.42812011       4.32008860      -0.00425694       0.00190261       0.00106192      -4.62279968
Ni       0.00924722      -0.01317609       5.76188665      -0.00535149       0.00238889      -0.00705799      -6.25797507
Al       1.47946475       1.42665578       7.18847001       0.01256102      -0.00116154       0.00954525      -4.57859734
Ni       0.00765022      -0.00908381       8.61480763      -0.00123981       0.00125309       0.00157651      -6.27590356
Al       1.45337189       1.43058225      10.04066337       0.01130956      -0.00849758      -0.00605760      -4.64935965
Ni       0.00909788       2.86972706      -0.00674791      -0.00599076       0.00206964       0.00469180      -6.25278995
Al       1.44638339       4.31843784       1.42416496       0.00193499       0.00207442      -0.00174862      -4.62545387
Ni       0.00350502       2.87125753       2.87903541       0.00140116       0.00019536      -0.00833989      -6.24663424
Al       1.44699451       4.30530685       4.32082744      -0.00252329      -0.00512615       0.00227700      -4.62375308
Ni      -0.00473043       2.86963282       5.74674804       0.00411613       0.00096847       0.00352979      -6.25580680
Al       1.45714455       4.31045164       7.19106757       0.00723469      -0.00219059       0.00682852      -4.64224960
Ni       0.00046776       2.87020956       8.61289807      -0.00117781       0.00036607       0.00075894      -6.26191496
Al       1.45449841       4.30128654      10.04072468       0.01121978       0.00247232      -0.00697018      -4.64939095
Ni       0.00790421       5.75300051      -0.00597319      -0.00247271      -0.00277100      -0.00011431      -6.25905217
Al       1.47358968       7.20593756       1.40002735      -0.00567521       0.00150979       0.00357933      -4.63978099
Ni       0.01438455       5.75883351       2.86028343      -0.00606590      -0.00369929       0.00610909      -6.24585481
Al       1.44014440       7.18835140       4.30923200       0.00049515      -0.00189003      -0.00289508      -4.61192010
Ni       0.01839085       5.75868316       5.76167281      -0.00904097      -0.00101266      -0.00778733      -6.24882659
Al       1.47241372       7.20669911       7.21822020       0.00307707       0.00258156       0.00074741      -4.65128219
Ni       0.01168295       5.74980598       8.61714389      -0.00463402       0.00174861       0.00138319      -6.26167666
Al       1.48541306       7.18947909      10.05108040       0.01367653       0.00598072      -0.00588595      -4.57074833
Ni      -0.00625467       8.62425270      -0.01735340       0.00010492       0.00013797       0.00157284      -6.26704254
Al       1.47494005      10.03327073       1.39731682      -0.00392446      -0.00139986       0.00550171      -4.64333438
Ni       0.02096916       8.62513590       2.85731485      -0.00646716      -0.00009225       0.00665827      -6.24825912
Al       1.45402582      10.06370777       4.32375244       0.00322297       0.00451705       0.00113593      -4.63090957
Ni       0.02294592       8.62423964       5.76457897      -0.00923097      -0.00226678      -0.00767201      -6.25119697
Al       1.48481370      10.04129359       7.21510357       0.00128486       0.00313429       0.00432755      -4.66334889
Ni      -0.00336233       8.62698659       8.62889963      -0.00018230      -0.00301192      -0.00087410      -6.26983203
Al       1.50580315      10.06220108      10.04035512       0.01740222      -0.00210899      -0.00945702      -4.59227355
Ni       2.88925168       0.01447775      -0.00619001       0.00349146      -0.00250370      -0.00430842      -6.07175087
Al       4.30815718       1.43250472       1.43703938       0.00000000      -0.00478258      -0.01524636      -4.65090387
Ni       2.87541590      -0.00958418       2.86264413      -0.00293408       0.00033668       0.00263368      -6.27093503
Al       4.30815718       1.43356932       4.33794414       0.00000000      -0.00471382       0.00997787      -4.56887530
Ni       2.88835713      -0.00064115       5.76294303       0.00287871       0.00271155      -0.00110542      -6.06835990
Ni       2.89967776       0.01872998       8.61509017      -0.00027472      -0.00202960       0.00190444      -5.81034133
Al       4.30815718       1.42055671      10.02014946      -0.00000000      -0.00980320      -0.00327763      -4.54142668
Ni       2.87285065       2.86803353       0.00614426      -0.00043468       0.00021827       0.00222766      -6.28275340
Al       4.30815718       4.31598102       1.43127224       0.00000000      -0.00198715      -0.00791510      -4.63736960
Ni       2.87131451       2.87278306       2.86562942      -0.00091348       0.00218082       0.00211475      -6.26241344
Al       4.30815718       4.30525092       4.31782592       0.00000000       0.00199978       0.00033006      -4.63308923
Ni       2.87895718       2.86800952       5.75417761       0.00384998      -0.00329960       0.00167607      -6.05901194
Al       4.30815718       4.28850409       7.18309218       0.00000000      -0.00471324       0.00607761      -4.57993802
Ni       2.88550034       2.86393516       8.60612289      -0.00511445      -0.00311693      -0.00520035      -6.08410450
Al       4.30815718       4.30659263      10.04501304      -0.00000000       0.00685720      -0.00001492      -4.59240015
Ni       2.88676979       5.73505628      -0.01952717       0.00374809       0.00394807       0.00066736      -6.06517086
Al       4.30815718       7.18801920       1.39164894      -0.00000000       0.00708314      -0.01361586      -4.57364988
Ni       2.87151442       5.74950041       2.87143412      -0.00104739       0.00033956       0.00009556      -6.26146226
Al       4.30815718       7.17536673       4.30414829       0.00000000       0.00694638       0.01148478      -4.63954791
Ni       2.87339547       5.76128593       5.75096289       0.00078560      -0.00218285      -0.00468359      -6.27159074
Al       4.30815718       7.18789513       7.22633407      -0.00000000       0.00536223       0.01221547      -4.59296868
Ni       2.89064289       5.74211830       8.62923639      -0.00337388       0.00210529       0.00260229      -6.07576774
Ni       2.93561924       8.61772463      -0.06594632       0.00421176       0.00015336      -0.00027166      -5.82020112
Al       4.30815718      10.04687425       1.38743368       0.00000000      -0.00156009      -0.01354028      -4.57544591
Ni       2.88303338       8.62542071       2.88835689      -0.00293098      -0.00272707      -0.00358368      -6.26985621
Al       4.30815718      10.07086556       4.31885343      -0.00000000      -0.00109447       0.00492774      -4.64932913
Ni       2.88570832       8.61234687       5.73524325       0.00037779       0.00053256       0.00010273      -6.27759882
Al       4.30815718      10.07560185       7.23152361       0.00000000       0.00362299       0.00787315      -4.54349385
Ni       2.94060362       8.61315522       8.67595878      -0.00411937       0.00179230       0.00512980      -5.82991697
Ni       5.72706268       0.01447775      -0.00619001      -0.00349146      -0.00250370      -0.00430842      -6.07175087
Al       7.17216699       1.42567925       1.42782820      -0.00826885      -0.00132379      -0.00296228      -4.63198006
Ni       5.74089846      -0.00958418       2.86264413       0.00293408       0.00033668       0.00263368      -6.27093503
Al       7.16704421       1.42812011       4.32008860       0.00425694       0.00190261       0.00106192      -4.62279968
Ni       5.72795723      -0.00064115       5.76294303      -0.00287871       0.00271155      -0.00110542      -6.06835990
Al       7.13684962       1.42665578       7.18847001      -0.01256102      -0.00116154       0.00954525      -4.57859734
Ni       5.71663660       0.01872998       8.61509017       0.00027472      -0.00202960       0.00190444      -5.81034133
Al       7.16294247       1.43058225      10.04066337      -0.01130956      -0.00849758      -0.00605760      -4.64935965
Ni       5.74346371       2.86803353       0.00614426       0.00043468       0.00021827       0.00222766      -6.28275340
Al       7.16993098       4.31843784       1.42416496      -0.00193499       0.00207442      -0.00174862      -4.62545387
Ni       5.74499985       2.87278306       2.86562942       0.00091348       0.00218082       0.00211475      -6.26241344
Al       7.16931986       4.30530685       4.32082744       0.00252329      -0.00512615       0.00227700      -4.62375308
Ni       5.73735718       2.86800952       5.75417761      -0.00384998      -0.00329960       0.00167607      -6.05901194
Al       7.15916981       4.31045164       7.19106757      -0.00723469      -0.00219059       0.00682852      -4.64224960
Ni       5.73081402       2.86393516       8.60612289       0.00511445      -0.00311693      -0.00520035      -6.08410450
Al       7.16181595       4.30128654      10.04072468      -0.01121978       0.00247232      -0.00697018      -4.64939095
Ni       5.72954458       5.73505628      -0.01952717      -0.00374809       0.00394807       0.00066736      -6.06517086
Al       7.14272468       7.20593756       1.40002735       0.00567521       0.00150979       0.00357933      -4.63978099
Ni       5.74479994       5.74950041       2.87143412       0.00104739       0.00033956       0.00009556      -6.26146226
Al       7.17616996       7.18835140       4.30923200      -0.00049515      -0.00189003      -0.00289508      -4.61192010
Ni       5.74291889       5.76128593       5.75096289      -0.00078560      -0.00218285      -0.00468359      -6.27159074
Al       7.14390065       7.20669911       7.21822020      -0.00307707       0.00258156       0.00074741      -4.65128219
Ni       5.72567148       5.74211830       8.62923639       0.00337388       0.00210529       0.00260229      -6.07576774
Al       7.13090130       7.18947909      10.05108040      -0.01367653       0.00598072      -0.00588595      -4.57074833
Ni       5.68069513       8.61772463      -0.06594632      -0.00421176       0.00015336      -0.00027166      -5.82020112
Al       7.14137431      10.03327073       1.39731682       0.00392446      -0.00139986       0.00550171      -4.64333438
Ni       5.73328098       8.62542071       2.88835689       0.00293098      -0.00272707      -0.00358368      -6.26985621
Al       7.16228854      10.06370777       4.32375244      -0.00322297       0.00451705       0.00113593      -4.63090957
Ni       5.73060605       8.61234687       5.73524325      -0.00037779       0.00053256       0.00010273      -6.27759882
Al       7.13150066      10.04129359       7.21510357      -0.00128486       0.00313429       0.00432755      -4.66334889
Ni       5.67571074       8.61315522       8.67595878       0.00411937       0.00179230       0.00512980      -5.82991697
Al       7.11051121      10.06220108      10.04035512      -0.01740222      -0.00210899      -0.00945702      -4.59227355
Ni       8.60263476      -0.00919145      -0.00870378       0.00553027       0.00095969       0.00351159      -6.26187936
Al      10.05236676       1.42721883       1.43327041       0.00000000       0.00346522       0.00814960      -4.60863511
Ni       8.59636103      -0.01678201       2.86482923       0.00928203       0.00329201       0.00349320      -6.24839064
Al      10.05236676       1.41694139       4.30858976      -0.00000000       0.01009857       0.00240256      -4.60955840
Ni       8.60706715      -0.01317609       5.76188665       0.00535149       0.00238889      -0.00705799      -6.25797507
Al      10.05236676       1.42781624       7.18472163      -0.00000000       0.00286731      -0.00703074      -4.63045108
Ni       8.60866414      -0.00908381       8.61480763       0.00123981       0.00125309       0.00157651      -6.27590356
Al      10.05236676       1.42924690      10.05044912      -0.00000000      -0.00249539      -0.00299366      -4.62624588
Ni       8.60721649       2.86972706      -0.00674791       0.00599076       0.00206964       0.00469180      -6.25278995
Al      10.05236676       4.31133827       1.43206537      -0.00000000       0.00260031       0.00948669      -4.60383127
Ni       8.61280934       2.87125753       2.87903541      -0.00140116       0.00019536      -0.00833989      -6.24663424
Al      10.05236676       4.32629141       4.31206417      -0.00000000      -0.00745049      -0.00456582      -4.60304109
Ni       8.62104480       2.86963282       5.74674804      -0.00411613       0.00096847       0.00352979      -6.25580680
Al      10.05236676       4.31652577       7.18275208       0.00000000      -0.00661198      -0.00641258      -4.61313603
Ni       8.61584660       2.87020956       8.61289807       0.00117781       0.00036607       0.00075894      -6.26191496
Al      10.05236676       4.31048714      10.05006750      -0.00000000       0.00540569       0.00266734      -4.61734493
Ni       8.60841015       5.75300051      -0.00597319       0.00247271      -0.00277100      -0.00011431      -6.25905217
Al      10.05236676       7.19057367       1.42930665      -0.00000000      -0.00240509       0.00179022      -4.60910730
Ni       8.60192982       5.75883351       2.86028343       0.00606590      -0.00369929       0.00610909      -6.24585481
Al      10.05236676       7.19371692       4.31189584      -0.00000000      -0.00461319      -0.00605616      -4.60706100
Ni       8.59792351       5.75868316       5.76167281       0.00904097      -0.00101266      -0.00778733      -6.24882659
Al      10.05236676       7.18977266       7.18853076      -0.00000000      -0.00237063      -0.00148261      -4.61400759
Ni       8.60463141       5.74980598       8.61714389       0.00463402       0.00174861       0.00138319      -6.26167666
Al      10.05236676       7.17775566      10.04811847      -0.00000000       0.00467709       0.00463436      -4.63202134
Ni       8.62256903       8.62425270      -0.01735340      -0.00010492       0.00013797       0.00157284      -6.26704254
Al      10.05236676      10.05520681       1.42883699       0.00000000      -0.00284862       0.00196973      -4.61029850
Ni       8.59534520       8.62513590       2.85731485       0.00646716      -0.00009225       0.00665827      -6.24825912
Al      10.05236676      10.04825028       4.31186152       0.00000000      -0.00017119      -0.00472526      -4.60995341
Ni       8.59336845       8.62423964       5.76457897       0.00923097      -0.00226678      -0.00767201      -6.25119697
Al      10.05236676      10.05094337       7.18682613      -0.00000000       0.00423602       0.00059716      -4.61894600
Ni       8.61967670       8.62698659       8.62889963       0.00018230      -0.00301192      -0.00087410      -6.26983203
Al      10.05236676      10.06571177      10.04947226      -0.00000000      -0.00651851       0.00135529      -4.63198380
