128
Lattice="12.17316598458996 -0.11214430090880294 -0.013078595618650412 -0.11383424615539722 12.333769563362168 0.014464084079787484 -0.00824074512109732 0.008373233540367312 12.681823512032581" Properties=species:S:1:pos:R:3:forces:R:3:energies:R:1 energy=-596.3512331936993 stress="-0.000301012634072846 0.0006802602541933014 0.0002351827930664574 0.0006802602541933014 -0.0004404747635267336 -0.0014071245185541435 0.0002351827930664574 -0.0014071245185541435 0.00027688096437864716" free_energy=-596.3512331936993 pbc="T T T"
Al      -0.40531862      -0.01638717       0.21533255      -0.00492499       0.03284882      -0.02616875      -4.03721252
Al       0.85786368       2.08946671       1.42948934      -0.00470700      -0.02518239       0.02009519      -4.16137759
Ni       0.27632912      -0.18295551       2.47908675       0.00857176       0.02337599       0.01471603      -5.95793951
Al       0.55157850       1.57252963       4.09980958       0.00775316      -0.00260522      -0.00038646      -4.22718507
Al       0.27721158       0.00272061       6.38981286      -0.00588706      -0.01678884      -0.00695990      -3.93544165
Al       1.33607432       1.75513374       8.37030745      -0.00550690       0.00864416       0.02029674      -4.10252689
Al      -0.26151412       0.74176755      10.34214617      -0.01496962       0.00400725      -0.00104805      -4.14072515
Al       1.48697113       2.53769889      11.61746137       0.01198734       0.00009870      -0.01967541      -4.33162272
Ni      -0.90771204       2.27423739      -0.49352778       0.00232386      -0.00368923      -0.01097404      -6.15799336
Al       1.18150935       5.76840029       2.31838509      -0.01242727      -0.01441014      -0.00000832      -4.32225893
Ni       0.05906556       3.76301353       3.15506114      -0.01112161      -0.00209752      -0.02727087      -6.09426823
Al       1.18548957       4.50303405       5.15989074       0.00315023      -0.00045768      -0.00710396      -4.50752550
Ni       0.21870361       2.43202391       6.29225769      -0.00739796      -0.00348196      -0.00355890      -6.10850242
Al       1.11827368       4.35858603       7.92378569       0.00032445      -0.01385813       0.00001681      -4.54209296
Ni      -0.12165051       3.22708142       9.81442837       0.01013561       0.00502054       0.01241328      -6.22097117
Al       1.32265519       5.18247127      10.74719676      -0.00286115      -0.01100592       0.00646273      -4.32558566
Ni       0.02155994       6.40450011      -0.09274570      -0.02916517       0.00514885       0.00362167      -5.86416370
Al       1.84860762       7.79685018       0.69796780      -0.01794907       0.01297539      -0.01191695      -4.27240628
Ni      -0.45661265       6.17520326       4.08520405       0.00188898       0.00627453      -0.00590448      -5.86650890
Al       1.83581457       7.35748357       4.71190090       0.01670757      -0.00474855      -0.00680980      -4.32094565
Ni      -0.16854972       5.94316391       6.68171234      -0.00567538      -0.00177204      -0.00649446      -5.97248817
Al       1.40254672       7.12494827       8.17991863       0.01965788       0.01133082      -0.00049788      -4.41837458
Ni      -0.47643894       6.02284781       9.34649256      -0.00516064      -0.01803253       0.00203971      -6.02713121
Al       0.69529462       7.81238841      10.73785125       0.00253003       0.00862582      -0.02489364      -4.36731004
Ni      -0.27304049       9.01814169      -0.05683211      -0.00846070      -0.01148044       0.00082130      -6.03115281
Al       1.32769425      10.49241037       1.15224917       0.01395925      -0.00986742       0.01364380      -3.98389475
Al      -0.47101839       8.65553913       4.28017265      -0.00371540      -0.00017516       0.00537488      -3.78707754
Al       1.24244461      10.82458202       4.10544497      -0.00596542       0.00959703      -0.01593051      -4.16617618
Al       0.98636081       9.63746588       6.52781853       0.00803348      -0.01246352      -0.00535968      -4.11747429
Al       1.81544628      11.50660321       8.60271388       0.00865010       0.00734693       0.00426165      -4.08150120
Ni       0.79087000       9.34399719       8.88120000      -0.00966809      -0.03035997       0.02887640      -5.87580780
Al       0.90891519      10.55996739      11.08095287       0.00552524      -0.00409613      -0.00367865      -4.27981263
Al       2.75700232       0.24458728      -0.24112234      -0.00808193      -0.00831973      -0.01278482      -4.11822200
Al       5.02239536       0.74514432       1.37332663       0.00484649      -0.00856268       0.02095701      -4.21935300
Al       2.63558088       0.39187699       2.49890589      -0.00136895      -0.01732520       0.02697363      -4.05229276
Al       4.61986810       1.11168992       4.14495508      -0.01426526      -0.00231646       0.01421156      -3.75240746
Al       3.09196989      -0.68441738       6.15535105      -0.00384164       0.01624577       0.01402251      -3.79821271
Al       4.96465787       1.25913159       7.03663909      -0.00461225       0.00380232       0.00186203      -4.08200164
Ni       3.34973952      -1.06323507      10.56043881      -0.00634340      -0.00826142       0.00382110      -5.84376544
Al       3.56019779       1.18317917       9.81260749      -0.01063634      -0.01378441       0.00129381      -4.24864401
Ni       3.28834386       2.42367342       0.83688258      -0.01055887      -0.00593699      -0.00649369      -5.92350753
Al       3.92100827       4.91460892       1.43327450       0.02834964       0.00853173      -0.00496123      -4.33213145
Al       2.70815607       3.09936320       3.15269539       0.01613991      -0.00165514       0.00530333      -3.95099843
Al       3.70947571       5.38438136       4.28967645       0.00095222       0.00118655       0.01376644      -4.32317411
Al       2.58467318       1.91627323       5.82704551      -0.00248924      -0.01081793       0.00535686      -3.80030316
Al       4.13513110       3.97517693       6.48183243      -0.01211970       0.02326004      -0.00467371      -4.18427161
Ni       2.57518990       3.38689057       9.67442658      -0.01586084       0.01099860       0.01866916      -5.79043131
Al       3.82964037       3.99272994      11.54945376       0.00189336       0.01522885       0.00776739      -4.17799049
Al       3.53854893       6.78376492      -1.36707832       0.01205211       0.00347480      -0.00884791      -3.80309096
Al       4.82121478       7.50997082       0.94749745       0.01357625      -0.00643819       0.00828217      -4.27305267
Ni       3.21142442       6.96423861       2.60699216       0.02082017       0.00345280       0.00599280      -5.84949875
Al       4.92648838       7.95453255       4.31735145      -0.00337540      -0.00483429      -0.02513074      -4.42818169
Ni       2.56564264       5.89374975       6.53921096       0.01245837      -0.00130190      -0.00289279      -5.86607949
Al       3.57459882       8.29334677       7.02530555       0.02275186      -0.01906033      -0.00202826      -4.11816581
Al       3.64539286       5.39527049       8.73370006      -0.00152308       0.00489910      -0.00388659      -4.09367019
Al       6.02305577       6.18968414       9.87146278       0.00383137      -0.00551799      -0.01781479      -4.32025761
Al       3.58109605       9.83360200      -0.15785160       0.00338318       0.00384676       0.01027798      -3.90026393
Al       5.63457702      10.31137253       1.59234262       0.01266977      -0.00206775      -0.01126664      -4.18571375
Al       3.22204319       9.37945642       2.63466523      -0.01117518      -0.00128319       0.00405720      -3.92800702
Al       5.23961186      10.77732338       5.06158946      -0.00921560       0.00217558      -0.00422934      -4.28738082
Ni       3.05812306       9.53657358       5.04254116      -0.00143047       0.00426554      -0.02108920      -5.75228911
Al       4.69833764      10.97453799       8.48161179      -0.00019949      -0.01092298      -0.01586252      -4.42197316
Al       3.06318864       8.99718022       9.72244824      -0.01595578      -0.01292228      -0.01784141      -4.27922384
Al       5.41032527      11.65670611      11.39833974       0.01490912       0.01425477       0.01895003      -4.24935769
Ni       7.04513686      -0.13897340       0.49326107      -0.01823359       0.02546162      -0.01352927      -5.92258344
Al       7.58853238       1.72817736       2.12550980      -0.03129087       0.01430176       0.03087038      -4.30146909
Ni       6.48958974      -0.27327933       3.13145520      -0.00389475      -0.00684545       0.00910147      -6.04436753
Al       7.18002162       1.10220382       5.14693863       0.00576623       0.02307948       0.01259062      -4.28084612
Ni       6.75567988      -0.38543335       7.11065955      -0.02307568      -0.00243622      -0.00014280      -6.07942656
Al       7.84160516       1.59478807       8.33527908       0.00058944       0.00471152       0.01317674      -4.47387540
Ni       5.82267099       0.67815266       9.27005969      -0.00703801       0.00849112       0.01343966      -5.86975357
Al       6.96803803       1.59301438      11.25103732       0.01980855       0.00562191      -0.01827897      -3.96922909
Al       5.78363618       3.13582427       0.42430764      -0.01141825       0.01761516      -0.00941580      -3.86595543
Al       7.29909100       5.11666400       1.34427551      -0.00730533      -0.00995041      -0.00637725      -4.19026642
Al       5.80495845       3.58924426       3.34691156       0.00163854      -0.00109301       0.00902507      -3.99362236
Al       7.77803176       5.35454457       4.05098065      -0.03649174      -0.00360609      -0.01091599      -4.18216545
Al       6.74072368       3.47783182       5.96573547       0.00717801      -0.02099019      -0.00240580      -4.32842050
Al       8.10966932       5.47423542       6.99682431       0.02322728      -0.01564490      -0.00113963      -4.44158687
Al       5.42054276       3.09921689       9.33867617      -0.00792050       0.00360489       0.01937250      -4.27622419
Al       7.61967743       4.47710555      11.31475541       0.01995832       0.01817328       0.00197242      -4.08600722
Ni       5.59340171       5.62337320      -0.47127843      -0.00059936      -0.01051628      -0.00767731      -6.13292207
Al       7.21504729       7.80481648       2.10657797      -0.00140939       0.01972979       0.01038098      -4.09652722
Ni       5.62090026       6.03242076       2.86283725       0.01725608      -0.00738293       0.00470692      -6.05061861
Al       7.48017481       7.79256128       5.21566926      -0.00193911       0.00958777       0.01269457      -4.16624434
Ni       5.85995071       5.69168129       5.39024925       0.01113510      -0.00709204      -0.00922681      -6.07500861
Al       5.99533211       7.10341408       7.28036950       0.00993153       0.02982315       0.03454892      -4.23624098
Ni       5.89318519       4.82698186       7.84539900       0.00852648       0.00012580       0.02024636      -5.70890614
Al       7.65791543       7.14160795      12.15472791       0.00077140       0.02111866       0.02868495      -4.21289122
Al       5.57335767       8.63193837      -1.44923170      -0.01385682       0.03536635       0.01483585      -3.84135837
Al       8.34919427      11.01124357       2.06982881      -0.00243302       0.00542520      -0.00296635      -4.40827836
Ni       6.76580551       9.52644549       3.65200235      -0.00930788       0.02987075      -0.00051413      -5.86646697
Al       7.97513068      10.97871631       5.01486156       0.01201620       0.00544543      -0.00237007      -4.35526572
Al       6.94233540       9.63575904       7.33343754      -0.01136814      -0.01448659      -0.00110192      -4.23518976
Al       7.46931510      11.33920376       9.55448751      -0.01252877      -0.01206478       0.00104804      -4.12322031
Ni       5.26061204       8.62607098       8.85727725       0.00102413      -0.00331907      -0.03168717      -5.76335625
Al       7.66154493      10.05127387      12.21849805      -0.00802717      -0.00569754      -0.01026627      -3.98715073
Al       9.22602306       0.34493946      -0.59735038       0.01124587      -0.00013232      -0.01295266      -4.00775456
Al      10.46579488       1.87630263       2.44317114       0.02054513      -0.01123654       0.00988556      -4.24609940
Ni       8.92538047       0.48622752       3.63967965      -0.01750421      -0.00429253       0.01339440      -5.67559955
Al      10.13694500       1.45468610       5.42108335      -0.01855393       0.01369128      -0.00912326      -4.33471262
Al       9.19506785      -0.53426112       7.27616998       0.01279862      -0.00381010      -0.00465229      -4.02256343
Al      10.74490807       1.61957570       8.01824120      -0.01665554      -0.02136093       0.01286616      -4.30400485
Ni       9.75883085      -0.05477394       9.59778346       0.02769461       0.02762934      -0.00910997      -5.92976623
Al       9.57474268       2.41977125      10.30511385       0.00768606      -0.02393270      -0.01406529      -4.32279829
Al       9.15122157       3.13045993       0.34682489      -0.00650441      -0.01088957      -0.00458383      -3.99025901
Al      11.68861901       4.15988576       0.82649191      -0.00067658       0.01037488       0.02418259      -4.30364103
Ni       8.58731621       2.98842315       4.19258055      -0.00585543       0.00490782       0.00659528      -5.99712839
Al      10.69154960       4.11308430       5.31029367      -0.00327119      -0.00311522      -0.00759755      -4.55482198
Ni       8.99120350       3.08463717       6.76436316       0.01021341      -0.01423290       0.00403255      -5.82840780
Al      10.50360231       4.30276044       8.13633447      -0.00373529      -0.00218106       0.00263920      -4.49442625
Ni       8.03339933       4.01956087       8.99427653      -0.01514028       0.00934893       0.01784053      -5.86746138
Al      10.69405090       4.70947749      11.15781731       0.03534918       0.00877783      -0.03024786      -4.46252613
Ni       9.54072995       5.59576124       0.46613911       0.00445955      -0.02667027      -0.01024525      -6.09921149
Al      10.98512977       7.17036964       1.81873761      -0.01154400      -0.00646017      -0.02112605      -4.41146060
Al       9.96107069       4.70235623       2.79461391       0.01920672       0.00606991      -0.02554575      -4.26363024
Al      10.02830505       6.88789006       5.59659866       0.00186044      -0.00664906      -0.01515106      -4.21504585
Ni       8.64948212       7.85079925       7.40690321      -0.00400934      -0.02972413       0.00507760      -5.97350666
Al      10.98810152       7.87272596       8.13300353       0.02282005      -0.00361805      -0.00058142      -4.29396105
Al       9.09723346       6.28774547       9.42722963       0.01440941       0.00540363      -0.00870490      -3.98590564
Al      10.24431874       7.45343038      11.63651953      -0.00750699      -0.00010433      -0.00116019      -4.20434658
Ni       9.20394644       8.65876530       0.89789977      -0.00531198       0.01041010      -0.00808426      -6.01281545
Al      10.96862240      10.03356511       1.84624919      -0.02414327      -0.01842858      -0.00330473      -4.11482437
Al       9.21276533       8.83941331       3.47142788       0.00968559       0.02205367      -0.00937806      -3.94524844
Al      10.67231332      11.38357619       4.16178993       0.00005579      -0.02216235       0.00746567      -4.12792867
Al      10.04946184       9.55936348       6.20694517      -0.00176316       0.01006696      -0.01281179      -3.83156338
Al      11.18429055      10.75324386       8.56308553       0.00481792       0.00014026      -0.00276712      -4.10613476
Al       7.77368100       8.58505905       9.66841007       0.01122123      -0.01923402       0.00013108      -3.91145177
Al      10.20005588      10.26698984      11.22943321      -0.00379875       0.01991564       0.02864186      -3.98741372
