91
Lattice="11.081249135249633 -0.12196491779530216 -0.008893009350808962 -0.1229628395167349 11.14829552384932 0.011731667696347493 -0.00964056375756663 0.010709190645982558 11.20752457517239" Properties=species:S:1:pos:R:3:forces:R:3:energies:R:1 energy=-432.82918471387046 stress="0.00028563420052296574 -0.0001396379133979081 -0.0004992334740236016 -0.0001396379133979081 4.9996001933590705e-05 -3.551747277096185e-05 -0.0004992334740236016 -3.551747277096185e-05 2.2109479173399972e-05" free_energy=-432.82918471387046 pbc="T T T"
Ni       0.09297787       0.22594143      -0.05088230       0.00245720      -0.01721032      -0.00802479      -5.89997099
Al       1.33267465       1.47225228       1.61987455      -0.00054271      -0.01503044      -0.00192395      -3.90536448
Al       1.71792011       1.50978014       4.29380618      -0.00195056       0.00294727      -0.00245738      -3.86653690
Ni       0.18718422       0.11084728       5.52990880       0.00710020      -0.00882289      -0.00114174      -5.89605980
Al       1.31869325       1.37159947       7.22774059       0.00689884      -0.00409956      -0.00733734      -3.95116163
Al       1.71338676       1.61909297       9.88156883       0.01088988       0.00261779       0.00230945      -3.95898391
Ni       0.04582041       2.78834386      -0.03138259       0.00624127      -0.00383126      -0.00238371      -6.07817384
Al       1.33259850       4.24267436       1.38697769       0.00675707      -0.00847757       0.00294426      -4.21449663
Al       1.32803030       4.20397663       4.14771305       0.00390857      -0.00696641      -0.00354547      -4.31905778
Ni       0.05202384       2.72560382       5.59794610       0.00446270       0.00346865       0.00695956      -6.12558123
Al       1.46030656       4.12936307       7.01228821      -0.01179011      -0.00089083      -0.00794734      -4.24519556
Al       1.39423187       4.28021698       9.72408930       0.00616202       0.00367726      -0.00432180      -4.10690125
Ni      -0.12199111       5.53586993      -0.12120801       0.00127598      -0.00103704      -0.00186886      -6.08521761
Al       1.25402513       6.95990837       1.44141961      -0.00512619      -0.00678325      -0.00459664      -4.13559214
Al       1.30705444       7.09121256       4.19065030       0.00350648       0.01736421      -0.00592647      -4.35995430
Ni       0.00521838       5.57630149       5.69401394      -0.00814344      -0.01210060       0.01212547      -6.17781433
Al       1.51178248       6.94619849       7.06191077       0.00183807       0.01283734       0.01280347      -4.52266363
Ni      -0.03195101       5.68683316       8.40580701       0.00105335       0.00510651       0.00390988      -6.13421533
Al       1.35070871       7.14473815       9.99139316      -0.00239214       0.00883434      -0.00732155      -4.39759406
Al       1.30630959       9.80917842       1.19858136       0.00384169      -0.00658506       0.00368628      -4.05076151
Ni      -0.05233128       8.48962801       2.75122051       0.00045790       0.00096000      -0.00321365      -5.78351639
Al       1.46626379       9.90790013       4.01205136       0.00858047      -0.00770228      -0.00128413      -3.98989479
Al       1.54884462       9.76810882       6.78125333      -0.00377486       0.00512524      -0.00771718      -4.27004587
Ni       0.08783029       8.42449981       8.36232349       0.01190131      -0.00772644      -0.00340735      -6.09784072
Al       1.33251653      10.09781579       9.62775451      -0.01187455       0.00427841       0.00054203      -4.33955475
Al       3.97381069       1.00908421       1.48854046       0.00204804       0.00007274      -0.00218196      -4.13160650
Al       4.34379030       1.31366739       4.70712809      -0.01085212      -0.00712972      -0.00221923      -3.88337426
Al       3.95585314       1.85623260       7.42524828      -0.00813689       0.00049685       0.00335958      -3.55838647
Al       4.27988995       0.77030401       9.94741078       0.00551930       0.00122939      -0.00706660      -3.81807487
Al       3.98846873       3.91185525       1.43831396      -0.00173521      -0.00136922       0.00254918      -4.44706112
Al       4.06043616       3.98393187       4.26403048      -0.01460492       0.00765785       0.00447603      -4.44652792
Al       4.10125718       4.58233125       7.22327830      -0.00174351      -0.00488237       0.00916108      -3.94401626
Al       3.97099526       3.67278134       9.73554624       0.00283781       0.00070407       0.00264073      -4.00857928
Al       3.99124716       6.85509194       1.10931710      -0.00692222      -0.00541779       0.00106730      -4.18354380
Ni       2.77345236       5.56550256       2.79955414      -0.00102533      -0.00880551       0.00107832      -6.01846278
Al       4.12109624       7.17715132       3.99441957      -0.00587588       0.00255949       0.00209758      -4.31791957
Ni       2.81276752       5.70186480       5.48114194       0.00013709      -0.01310054      -0.00393236      -6.13978480
Al       4.15045992       7.51434632       6.72025455       0.00128147       0.00767989       0.00124546      -4.24086616
Al       3.98109524       6.50357222       9.44693118      -0.00466116       0.00444485      -0.00536451      -4.05482927
Al       3.74378730       9.38925934       2.18918019       0.00721050       0.00419829      -0.00076725      -3.87865390
Al       4.25488807       9.75253621       4.93123868       0.00369215      -0.00163784      -0.00709103      -3.80854138
Al       4.20471569      10.25008749       7.76239317       0.00200912       0.00128145      -0.00571398      -3.86683102
Ni       2.73118126       8.46501063       8.50621433      -0.00267017      -0.00783113       0.00777764      -5.88689688
Al       3.83586186       9.21095483      10.58512880      -0.00348859      -0.00187500       0.00357367      -3.86531561
Al       6.87531865       1.10325811       1.43732654      -0.00233583      -0.00101767      -0.00082185      -4.21361875
Ni       5.45160111      -0.15951681       3.01294692      -0.00636429      -0.01248301      -0.01479630      -5.92342271
Al       7.05379799       1.09066329       4.27610408       0.01473312       0.00844489       0.00792341      -4.35034942
Al       6.58706118       1.23543039       6.94977476       0.00169071       0.00561058       0.00050185      -4.14284061
Al       7.01567388       1.26165020       9.94945281       0.00427174       0.00395216       0.00518868      -4.21254253
Ni       5.38311148       2.50260380       0.04823247       0.00020875       0.00225193      -0.00049727      -5.98731192
Al       6.82310036       3.95487809       1.36405518       0.00106865       0.00360659      -0.00827055      -4.70956872
Ni       5.44294076       2.45078510       2.82130692      -0.00031409      -0.00808911      -0.00348052      -6.15227061
Al       6.74360237       4.02815843       4.19297038       0.00172829      -0.01594126      -0.00060588      -4.67172131
Al       6.76445755       4.08041529       6.96383088      -0.00273537       0.00468537       0.00502001      -4.32356536
Al       6.84315829       3.95591151       9.73019619       0.00573503       0.00221957       0.00075500      -4.31322258
Ni       5.40018576       5.28387024      -0.13385638       0.00471627      -0.00946118       0.00428635      -6.02837365
Al       6.75044383       6.88618809       1.33636018      -0.00882597      -0.00969794       0.01559512      -4.43019141
Ni       5.36683892       5.49253158       2.73513445       0.00322600       0.00873447      -0.00579476      -6.23682914
Al       6.87443671       6.94348050       4.11299714      -0.00685698       0.01674935       0.00031778      -4.19668870
Ni       5.40635618       5.66812020       5.55453074      -0.00660276      -0.01159961       0.00795019      -6.11111273
Al       6.88016384       6.92768580       6.99371659      -0.00522782       0.00039305       0.00026810      -4.16803081
Al       6.71442970       6.86379435       9.70549883      -0.00773907       0.00593597       0.00759846      -4.29930578
Al       6.38311744       9.57845139       1.24343988       0.00163465       0.00106564      -0.00550426      -4.07324396
Al       6.98270311       9.55065479       4.02416878       0.01490858      -0.01304818      -0.00086204      -3.68052103
Al       6.72439343       9.66879067       6.76113780      -0.00265360       0.00325557      -0.01156030      -3.97589278
Al       6.49990085       9.72657081       9.69761582       0.01051061       0.00431361       0.00104056      -4.13593372
Al       9.53270498       1.30738139       1.23317779      -0.00940270       0.00498333       0.00113197      -4.20934027
Al       9.89093250       1.29295044       3.98009429       0.00028021      -0.00315499      -0.00926685      -4.34864441
Al       9.56484605       1.15848162       6.78113020      -0.01126467      -0.00554789       0.01352550      -4.49116917
Ni       8.18902191      -0.10352525       8.31686778       0.00167497       0.01539907      -0.00686373      -6.08147750
Al       9.89209230       1.32223973       9.50741144       0.00158406      -0.00605963      -0.00953219      -4.49047487
Al       9.61388659       4.02879962       1.35078705      -0.00361648      -0.00022507       0.00032972      -4.51891420
Ni       8.24328217       2.61932211       2.85596473      -0.00317960       0.00764944       0.00268447      -6.05059087
Al       9.70595398       4.08283570       4.15335502      -0.00220990       0.00804143      -0.00146618      -4.57017342
Ni       8.25382810       2.70185287       5.56980750      -0.00475847       0.00030452      -0.00265959      -6.14283081
Al       9.66412527       4.04958618       7.05171481       0.00066468       0.01245612      -0.00323134      -4.57798278
Ni       8.16589088       2.52866358       8.24790789       0.00059477      -0.00307022      -0.00120313      -6.01587472
Al       9.54312922       4.00994659       9.71035145      -0.00257625      -0.00121391       0.00386229      -4.38936414
Ni       8.18661241       5.51568291      -0.02791884       0.00060292       0.00014608       0.00499517      -6.17287628
Al       9.59304850       6.96098757       1.35040704       0.01717635       0.00590717      -0.00283932      -4.44845345
Ni       8.18316214       5.43729982       2.74088001      -0.00028652      -0.00247896       0.00548617      -6.16572814
Al       9.68676047       6.88676091       4.11039783       0.00012629       0.00139278       0.00686699      -4.34411661
Ni       8.23048255       5.49373968       5.51782455       0.00122872       0.00276268       0.00083915      -6.15983286
Al       9.60143003       6.96388155       6.95368059      -0.00134222      -0.00834279      -0.00244837      -4.47047603
Al       9.56634568       6.96134950       9.74022461      -0.00250588      -0.00720783       0.00260923      -4.64868243
Ni       8.04513015       8.34523499      -0.09990964       0.00775695       0.00860668       0.00480174      -5.96810906
Al       9.53664654       9.71936028       1.32783711       0.00249041       0.00247153       0.01348021      -4.11392554
Al       9.67398940       9.71022206       4.20212277       0.00376428       0.01678431       0.00298384      -3.93196159
Al       9.74878565       9.71601105       6.98648504      -0.00754143       0.01682050      -0.00445617      -4.31034600
Ni       8.12940365       8.47094888       8.39462718      -0.00910151      -0.00042549       0.00012104      -6.04720640
Al       9.63972517       9.76246663       9.81640068       0.00030648       0.00589150       0.00044687      -4.41265366
