128
Lattice="11.742519343371145 -0.003332955541481288 -0.00336395006750454 -0.003323477923257702 11.7042506083546 0.010665226419919094 -0.0033642167624364314 0.01066739120904805 11.706377899600769" Properties=species:S:1:pos:R:3:forces:R:3:energies:R:1 energy=-656.8967604617591 stress="-0.001451927182433219 -0.00021649680423597314 0.0001476793189487223 -0.00021649680423597314 0.0001925275320525667 0.00039953028971283043 0.0001476793189487223 0.00039953028971283043 0.000458475348088699" free_energy=-656.8967604617591 pbc="T T T"
Al       0.14417134       0.12441726       0.12593410       0.00457978      -0.01107422      -0.00637026      -3.64003419
Al       1.68494387       1.56186319       1.55478188       0.00628808       0.00045136      -0.00283753      -4.37911456
Ni      -0.04612412       0.09485801       2.88908244       0.00674731      -0.00582288       0.00113874      -6.31583032
Al       1.64804406       1.43462609       4.26851242       0.00513040       0.00013902      -0.00803107      -4.37809821
Ni       0.10678849       0.17893155       5.75052746       0.00037022      -0.00700982      -0.00346454      -6.23696754
Al       1.59882937       1.39615294       7.42427629       0.00118681      -0.00692604       0.01441886      -4.48069842
Ni       0.03598527       0.01505771       8.82314948      -0.00100180       0.00264110      -0.00594487      -6.20749021
Al       1.53341305       1.58356535      10.18340463       0.00613503       0.00296112       0.00091441      -4.46730991
Ni      -0.02720859       2.83659993       0.13367957      -0.01039216       0.01052356      -0.00155433      -6.33573793
Al       1.56028271       4.44123989       1.43673378      -0.00107527       0.00286123      -0.00755693      -4.44438650
Al      -0.17299030       2.97121748       2.89529042       0.00825529       0.00618951      -0.00300443      -3.77780128
Al       1.69695504       4.35931657       4.23694392       0.00981467       0.00746475       0.00473199      -4.28712694
Al       0.08131879       2.84518124       5.85553262      -0.01389547       0.00972339       0.00351332      -3.76548972
Al       1.59896275       4.37080384       7.46284395       0.00127330       0.00218440       0.00695497      -4.38951867
Ni      -0.02063025       2.90432794       8.68787281      -0.01143991       0.00728717       0.00375488      -6.23165838
Al       1.47185980       4.35870769      10.26724593       0.00171815      -0.00286631      -0.00368993      -4.51566576
Ni       0.12778919       5.84993516      -0.01033438       0.00007091       0.00647176       0.00723596      -6.11509121
Al       1.48912519       7.26495441       1.53114093      -0.00651909       0.00046533       0.00176147      -4.52706770
Ni      -0.15746903       5.68761048       3.06631520       0.00578918      -0.00078939      -0.00359157      -6.37100394
Al       1.56321795       7.38694426       4.26021550       0.00746066      -0.00167919      -0.00362259      -4.44367897
Al       0.15318014       5.77906585       5.74620202       0.00472220       0.00227603      -0.00006114      -3.61828162
Al       1.49282293       7.32249856       7.35939114      -0.00259299      -0.00299507       0.00295524      -4.30227974
Ni       0.00235766       5.83389212       8.77666764      -0.00292830       0.01214130      -0.00175501      -6.26958141
Al       1.45381508       7.29863429      10.27176021      -0.00657368      -0.00359158       0.00098493      -4.46937252
Ni       0.08607126       8.75366459       0.12722935      -0.00316563      -0.00363144      -0.00028954      -6.22033315
Al       1.53679299      10.17081988       1.58848139      -0.00229865      -0.00153121       0.00026657      -4.47469603
Ni      -0.04165449       8.78464789       2.93440910      -0.00584503      -0.00923355       0.00136071      -6.14356635
Al       1.45950197      10.25548003       4.35640541       0.00358347       0.00532116      -0.00189986      -4.53013693
Ni       0.08645694       8.72543036       5.81215560      -0.01023595      -0.00505671       0.00247243      -6.21873252
Al       1.41237095      10.33357413       7.21463641       0.00563252       0.00206219       0.00257418      -4.48272666
Ni      -0.04379992       8.80592006       8.71873007      -0.00236855      -0.00157374       0.00314871      -6.31027713
Al       1.41417047      10.21918661      10.30073591       0.01057010      -0.01095309      -0.00535389      -4.28072729
Ni       2.82703640       0.01296675       0.02342022       0.00647250      -0.00218328       0.00028636      -6.30091176
Al       4.45302938       1.42986074       1.45651737      -0.00249699      -0.00625618      -0.00848810      -4.55708390
Ni       3.01679401      -0.04369991       2.91137697      -0.01079784       0.00470180      -0.00754937      -6.19177748
Al       4.44698846       1.47565819       4.34926423      -0.00774728       0.00128161       0.00123652      -4.55517989
Ni       2.91377721       0.03836269       5.77171554      -0.00022493       0.00058661       0.00513497      -6.18146687
Al       4.35361893       1.42652841       7.33933855       0.00206185      -0.00477003      -0.00119183      -4.54594123
Ni       2.90783880      -0.10537657       8.85723212      -0.00779025       0.00355495      -0.00464492      -6.29056516
Al       4.37150583       1.43540356      10.26901685      -0.00753175      -0.00323876      -0.00127306      -4.56236668
Ni       2.99857429       2.94362251       0.00325558      -0.00541259       0.00278335      -0.00523437      -6.19181701
Al       4.47436710       4.43290623       1.41343631       0.00568777       0.01060142       0.00240696      -4.54400983
Ni       3.11683507       2.98340844       2.85172646       0.00112435       0.00358866       0.00271684      -6.19063347
Al       4.45135331       4.31074833       4.36318423      -0.00740425       0.00259056      -0.00384773      -4.43917901
Ni       2.93429910       2.92501297       5.85884747      -0.01058405       0.00382325       0.00190637      -6.26527820
Al       4.37229320       4.34351163       7.37103042      -0.01148378       0.00045295       0.00493220      -4.46926310
Ni       3.00417773       2.95457046       8.83917516      -0.00511094      -0.00022006      -0.00040713      -6.16941094
Al       4.42246344       4.40650748      10.25547966       0.00173702       0.00216014      -0.00552376      -4.55957568
Ni       2.93150718       5.85495252      -0.00554718      -0.00451848       0.00052261      -0.00099336      -6.19761787
Al       4.42732709       7.29149462       1.46732431       0.00539457      -0.00518124      -0.00515977      -4.55727823
Ni       3.07161615       5.84866873       2.90667506      -0.00455151       0.00421468       0.00598881      -6.15560392
Al       4.36802720       7.37723092       4.33986240      -0.00846484      -0.00607681       0.00387736      -4.47243004
Ni       2.88640962       5.82304869       5.83066447      -0.00336996      -0.00789006      -0.00061332      -6.31782579
Al       4.33486053       7.28950846       7.31412371       0.01058392      -0.00852119      -0.00257722      -4.27748013
Ni       2.94713390       5.86094362       8.83135246      -0.00360954       0.00004490      -0.00625083      -6.22520574
Al       4.40111246       7.27540843      10.29315787       0.00597350       0.00197704      -0.00097813      -4.48378944
Ni       2.91316508       8.76357345       0.01267279       0.00713018      -0.00205982      -0.00009085      -6.26781040
Al       4.40833859      10.27103325       1.46295553      -0.00686352      -0.00338005      -0.00914508      -4.56919824
Ni       3.00479960       8.78520139       2.90062238       0.00889024      -0.00367277       0.00074878      -6.17564040
Al       4.39929178      10.25898885       4.38486680      -0.00193902      -0.00600762       0.01001308      -4.56596569
Ni       2.90803901       8.78886071       5.87627471      -0.00581778      -0.00255310      -0.00039767      -6.24833909
Al       4.39443518      10.37706560       7.20412490       0.00029598       0.00582742       0.00056528      -4.48466627
Al       2.98867342       8.89779664       8.79716599      -0.00105699      -0.00184579       0.00125844      -3.63729961
Al       4.40805164      10.34662116      10.40001233      -0.00072450       0.00305848       0.00512599      -4.48995956
Ni       5.89510657       0.01299716      -0.00468842      -0.00847079      -0.00451011      -0.00068458      -6.19094854
Al       7.28609152       1.36254345       1.36360065      -0.00434195      -0.00643410      -0.00093891      -4.46465493
Ni       5.90292767      -0.02360324       2.91978030       0.00300889       0.00329247       0.00412402      -6.20204640
Al       7.27814892       1.39353688       4.43529637       0.00962676      -0.00077596       0.00433649      -4.47389698
Ni       5.84344523       0.04350053       5.82264499      -0.00469184      -0.00193331       0.00539627      -6.18726539
Al       7.31606944       1.38238321       7.40925700       0.00015202       0.00138469      -0.00861041      -4.53429170
Ni       5.79110158      -0.01540571       8.81039735       0.00698251       0.00431827      -0.00737070      -6.19512654
Al       7.34241300       1.43787544      10.20506753       0.00969548      -0.00149800       0.00445782      -4.55528614
Ni       5.84418754       2.84646127      -0.02563513       0.00524676      -0.00422143       0.00098741      -6.19755134
Al       7.21514417       4.44066406       1.26191291      -0.00979238      -0.00194505      -0.01680866      -4.37523714
Ni       5.96387120       2.94211916       2.85024261      -0.01062591      -0.00426133      -0.00461625      -6.27356499
Al       7.28446261       4.21197436       4.54049279      -0.00234126      -0.00047049       0.00719634      -4.14628249
Ni       5.82875768       2.83939126       5.94848817       0.00503222       0.00810583      -0.00265831      -6.22735278
Al       7.31057474       4.21027463       7.36983583       0.00461857      -0.00754562      -0.00725337      -4.40152976
Ni       5.79331628       2.84787947       8.78925533       0.00608482       0.00559262      -0.00027490      -6.19203061
Al       7.22382734       4.28131634      10.24366635      -0.00309343       0.00058872       0.01224039      -4.45794604
Ni       5.87354519       5.90851926      -0.07808208       0.00656775      -0.00476189      -0.00378844      -6.16112227
Al       7.25799882       7.41223284       1.37841117      -0.00219282      -0.00582814      -0.00524851      -4.46276273
Ni       5.98883388       5.83231238       3.02575874      -0.00082738       0.00384547      -0.00335542      -6.33040879
Al       7.32214779       7.56021519       4.42730304       0.00586327       0.00136748       0.00570316      -4.38019192
Al       5.91983207       5.88598052       5.86786713      -0.00923962      -0.01390292      -0.00040523      -3.59467465
Al       7.22766671       7.53522522       7.36352514       0.00113498       0.01040118       0.00072286      -4.21198555
Ni       5.89009655       5.87933777       8.74399393       0.01323746      -0.00061371       0.00677192      -6.33042793
Al       7.16029379       7.46792419      10.26895914      -0.01176479       0.00527037       0.00622520      -4.38623435
Ni       5.75706787       8.79330937       0.03320164       0.00335191       0.00163635       0.00068582      -6.19553401
Al       7.32302186      10.20781469       1.44244463       0.00154687       0.00125185      -0.00153163      -4.55427498
Ni       5.84858485       8.81534269       2.90794329       0.00049562      -0.01022742       0.00420662      -6.18986311
Al       7.31815353      10.24429028       4.41418295      -0.00488940       0.00365185       0.00475187      -4.52364368
Ni       5.73845547       8.79848029       5.87444342      -0.00202276       0.00992458      -0.00244561      -6.25733455
Al       7.20629085      10.30492658       7.29556269      -0.01222008       0.00208535      -0.00144132      -4.48113124
Ni       5.66018249       8.87294481       8.76739075       0.00239689      -0.00240707       0.00020345      -6.33032326
Al       7.20298249      10.25032855      10.28295685      -0.00425958       0.00021295       0.00433433      -4.48422113
Ni       8.75123614      -0.11569812      -0.09852032       0.00049541       0.00957038       0.00518250      -6.20791915
Al      10.06623016       1.34217533       1.37685151      -0.00077142      -0.00728703       0.00330462      -4.17104466
Ni       8.73982616      -0.06020590       2.91754972       0.00161723      -0.00283692       0.00509943      -6.22843465
Al      10.11805277       1.31306812       4.42980420      -0.00107362      -0.00783569      -0.00727701      -4.33306321
Ni       8.73999100      -0.05103467       5.90471359      -0.00208312       0.00096296      -0.00825566      -6.16530205
Al      10.19479385       1.34904298       7.40953903      -0.00164841      -0.00464964       0.00234804      -4.46993874
Ni       8.83677729      -0.17165132       8.83851422       0.00939941       0.01250225      -0.00600838      -6.26140915
Al      10.22029028       1.48559624      10.20145669      -0.00648788      -0.00363532       0.00648586      -4.46126353
Ni       8.80728808       2.95824392      -0.02966867       0.00410754      -0.00620911       0.01099000      -6.24448518
Al      10.24625530       4.54830628       1.22696940       0.00727754       0.00242066      -0.00940120      -4.29569134
Al       8.72963203       2.97749450       2.81336829       0.00917909      -0.00154121       0.00543711      -3.60739410
Al      10.03616857       4.39593440       4.60842500       0.00268700       0.00686337      -0.00224501      -3.95421394
Ni       8.76484495       2.75529895       5.96547347       0.00543437       0.01225910       0.00674079      -6.25082957
Al      10.20742343       4.36375119       7.34572180       0.00327427      -0.00318008      -0.00061364      -4.21139315
Ni       8.83951908       2.95541547       8.80854027       0.00498247      -0.00353778      -0.00846263      -6.20931224
Al      10.39205141       4.32318074      10.26559704       0.00228183      -0.00450602       0.00755897      -4.44203721
Ni       8.70564828       5.94399019      -0.17184207      -0.00017579       0.00368709       0.00121450      -6.28560068
Al      10.33258249       7.32630387       1.42206680       0.00234822       0.00693643      -0.00008087      -4.42667667
Al       8.68527634       5.87496821       2.95082045       0.00103390       0.01147876       0.00029394      -3.67007559
Al      10.23908429       7.43578910       4.42335853       0.00252765       0.00783014      -0.00001093      -4.37127746
Ni       8.61761084       6.00158693       5.96003397       0.01015571      -0.00321289      -0.00406123      -6.38271065
Al      10.36771165       7.31619210       7.23425758      -0.00479719       0.00459381      -0.00054840      -4.25169031
Al       8.73203104       5.91889013       8.84608180       0.00198271      -0.00871358      -0.00660006      -3.71177617
Al      10.45735342       7.32688963      10.35236015       0.00096493       0.00472222       0.00172672      -4.40217647
Ni       8.83936082       8.75871294      -0.06670764       0.00367330       0.00120531      -0.00260661      -6.24656892
Al      10.22093980      10.19389148       1.50202615      -0.00311765       0.00221808       0.01185209      -4.47580895
Ni       8.81308086       8.75607554       2.88150615      -0.00576829      -0.00118278       0.00943662      -6.22700540
Al      10.28339341      10.25044788       4.39446614       0.00033343       0.00328351      -0.00708669      -4.48928525
Ni       8.83407989       8.84166902       5.97179384       0.00988921      -0.01612705       0.00310370      -6.23749800
Al      10.43954163      10.35643146       7.17166654       0.00387801       0.00414120       0.00027558      -4.47841240
Al       8.93752514       8.89431596       8.79180079      -0.00587569      -0.00834512      -0.00914747      -3.71287426
Al      10.40928100      10.27108271      10.36225350       0.00316043       0.00218764       0.00545230      -4.29339318
