184
Lattice="14.07074576820254 -0.002444144778495002 0.002619084509059678 -0.0024424978688576513 14.087213927482729 -0.0023737441607638607 0.002619199817218223 -0.0023743245792664375 14.051777607639233" Properties=species:S:1:pos:R:3:forces:R:3:energies:R:1 rep=5 n_sites=250 energy=-891.0772958419079 stress="4.500524341866603e-05 0.00046591195066057295 -0.00022833682166322147 0.00046591195066057295 -0.0007244935596733579 0.0003868789747217405 -0.00022833682166322147 0.0003868789747217405 0.001221951788492531" free_energy=-891.0772958419079 pbc="T T T"
Al       1.29539004       1.24139317       1.33909832      -0.00088906       0.00011276       0.00963726      -4.16381029
Al       1.34357839       1.33518277       4.30570509       0.01060046       0.00430615      -0.00271819      -4.45733428
Ni      -0.07389960      -0.05510088       5.65059231      -0.00405108      -0.00347952      -0.00230359      -5.90743698
Al       1.38974863       1.39693469       6.97399674      -0.01548988      -0.00025939       0.00391797      -4.51016367
Ni       0.00977997      -0.07518932       8.31184912      -0.00365997      -0.01390005       0.00052692      -6.25232099
Al       1.40571280       1.35604732       9.86630477      -0.00061881       0.00721702       0.00547841      -4.30370181
Ni      -0.04137702      -0.06641589      11.32923377       0.00422150      -0.00066992       0.00096073      -6.05383407
Al       1.46659305       1.41679010      12.65533843       0.00395981      -0.00025771       0.00938563      -3.65469225
Al       1.37189266       4.10559008       1.32620457       0.00203086       0.00436904      -0.01071707      -4.39055843
Ni       0.01412349       2.73047088       2.76785847       0.00629146       0.00039226      -0.00316173      -5.90058304
Al       1.32803747       4.19544830       4.19892022       0.00875219      -0.00556241      -0.00193733      -4.58669683
Al       1.33744626       4.27448102       7.01661941       0.00264456       0.00580363       0.00187529      -4.50283619
Ni       0.01498386       2.81641645       8.47085999      -0.00314646       0.00546687       0.00460008      -6.15559917
Al       1.42275761       4.26536522       9.91992367      -0.00043965       0.00410542      -0.00890389      -3.85908135
Al       1.39898634       4.16904005      12.62449659       0.00341859      -0.00109676      -0.00912224      -3.64115294
Al       1.33740003       6.96451087       1.41174334       0.00695155       0.00989988       0.00432902      -4.32814331
Al       1.42129249       7.11666368       4.10350215      -0.00449124       0.00211335       0.00484491      -4.08831110
Ni       0.01369822       5.72747805       5.62186709       0.00541270       0.00960935      -0.01222647      -6.06170514
Al       1.44623304       7.11440150       6.96315441      -0.00072558      -0.00275609      -0.00257604      -4.21690246
Al       1.29732964       6.97343651       9.76609087       0.00971906       0.00874480      -0.00449186      -4.08570507
Al       1.36856187       6.94355383      12.61147928      -0.00405417      -0.00290019       0.00138095      -4.48887617
Ni       0.01067360       8.46714159       0.04144830       0.00342207       0.00562921      -0.00125802      -5.97689734
Al       1.39573040       9.82292886       1.52035229       0.00429682      -0.00126274      -0.00405213      -4.11461002
Al       1.49030027       9.88498526       4.28544236      -0.00186524      -0.00247777      -0.00757546      -3.37462969
Al       1.37041467       9.86343721       7.03618728      -0.00280073       0.00085387      -0.01038215      -3.89371318
Al       1.37205694       9.87189073       9.79558104       0.00139460       0.00318336       0.00189496      -4.57554142
Ni      -0.06969610       8.40860959      11.31459001       0.00255799       0.00064503       0.00131003      -6.17108653
Al       1.37562644       9.85510659      12.65445203       0.00569713      -0.00015375       0.00624712      -4.70384985
Al       1.40966231      12.55952250       1.44967666       0.01032972       0.00028856       0.00345064      -3.91246730
Al       1.27327973      12.63749415       4.16588900       0.00140401       0.00236170       0.00176540      -3.96720258
Al       1.48329800      12.61192744       6.91596877      -0.00811935      -0.00108994      -0.00325262      -4.13080139
Ni       0.00001752      11.35625648       8.41480998       0.00493362       0.00946557      -0.00420159      -6.00738873
Al       1.48101907      12.72237745       9.82467110      -0.00822815       0.00536840       0.00446010      -4.42995404
Ni       0.03618299      11.33144767      11.22668434      -0.00779225      -0.00581666       0.00313921      -6.18386828
Al       1.38497971      12.69571652      12.76507424      -0.00338448       0.00058046       0.00027289      -4.36510588
Al       4.17698905       1.36905787       1.38125775      -0.00131394      -0.00825636       0.00031980      -4.45744404
Ni       2.76954381      -0.02806843       2.80995536       0.00090936      -0.00001179      -0.00037429      -5.91292322
Al       4.21006112       1.33772627       4.27366342       0.00464442       0.00810291      -0.00345777      -4.36183525
Al       4.25606269       1.44773474       7.05004573       0.00385716      -0.00856433       0.00195604      -4.41780560
Al       4.18912670       1.47971287       9.81452823       0.00707298      -0.00845001       0.00415804      -4.16797177
Al       4.20916329       1.47319396      12.60503489      -0.00483414      -0.00030562      -0.00768818      -4.07146449
Al       4.20995054       4.08793527       1.38343901      -0.00404956       0.00329318       0.00441293      -4.33337332
Ni       2.72238230       2.67390909       2.85401468      -0.00878318      -0.00380710       0.00268918      -6.17352443
Al       4.28759640       4.15043316       4.18244249      -0.00677320       0.00806334       0.00070423      -4.46050425
Ni       2.83290889       2.84365567       5.66621827      -0.00154951       0.00317449      -0.00066429      -6.11717991
Al       4.16715241       4.27665925       7.07929691       0.00122882      -0.00886066       0.00570004      -4.50430212
Ni       2.70099207       2.83075974       8.43136588       0.00337518       0.00265814      -0.00238493      -6.00995512
Al       4.18681094       4.23848897       9.84816377      -0.00364439       0.00487217       0.00422115      -3.84534844
Al       4.24862523       4.20453282      12.65273762      -0.00083831       0.00095905      -0.00669986      -3.87085892
Ni       2.79182821       5.60135189       0.02556553       0.00422926       0.00398647      -0.00240484      -6.01289675
Al       4.24265994       6.99945916       1.41352806      -0.00234845       0.00242606      -0.00665667      -4.51610458
Ni       2.82646162       5.53727007       2.73725155      -0.00679754       0.00352082       0.00403664      -6.14676023
Al       4.30353742       7.00144251       4.12445375      -0.00249895      -0.00658325       0.01765249      -4.32290085
Ni       2.79765988       5.64081166       5.48524497      -0.00047353       0.00246537      -0.00397673      -6.17307070
Al       4.19210482       7.09144064       7.00413542       0.00563876      -0.01007172       0.00291539      -4.31120987
Al       4.21287054       6.97704141       9.80716473      -0.01174006       0.00094699      -0.00276361      -4.20406057
Al       4.23981959       6.98459151      12.59946397       0.00148131       0.00690081       0.00601991      -4.24033797
Ni       2.77236872       8.39448424      -0.02413187       0.00071569       0.01497536       0.00396329      -6.26765036
Al       4.20856875       9.84143645       1.46347053       0.00277098       0.00143439      -0.00812545      -4.48343502
Al       4.26577024       9.80460247       4.21195915      -0.00586638       0.00456849      -0.00243720      -3.89358312
Al       4.16426413       9.87307769       7.01587549       0.00558177       0.00484278      -0.00835129      -4.19778170
Ni       2.78906311       8.42914437       8.44124597       0.00610502      -0.00670430       0.01309727      -5.91227936
Al       4.20170953       9.87487251       9.78329199      -0.00037607       0.00678813       0.01394131      -4.48886723
Ni       2.74891991       8.39072628      11.13142033      -0.00035742      -0.00978373      -0.00976561      -6.14737217
Al       4.24856369       9.76116454      12.59065487      -0.00226946       0.00306898       0.00509130      -4.69044874
Ni       2.84171832      11.20555766       0.02129830      -0.00037043      -0.00561148      -0.00303907      -6.04503661
Al       4.21404242      12.72471111       1.42920375       0.00181401      -0.00515782       0.00164671      -4.34094175
Al       4.09687140      12.62725710       4.22703793       0.00116097       0.00596905       0.01044502      -4.27106955
Al       4.14227667      12.70428693       7.05642239       0.01207238      -0.00879987       0.00098769      -4.24114897
Al       4.13778645      12.70911633       9.79479070       0.00277265      -0.00716007       0.00182595      -4.40678462
Ni       2.80004714      11.26595094      11.30554148      -0.00012653      -0.00421849       0.00506730      -6.16883391
Al       4.14163093      12.78151037      12.65293602       0.00553207       0.00732211       0.00013181      -4.58741974
Ni       5.69104445       0.03728579      -0.01078085      -0.00509161      -0.00354942      -0.00206394      -6.19125231
Al       7.04467609       1.36819335       1.55852164      -0.00904060      -0.00547778      -0.00809923      -4.27991791
Al       7.03147210       1.38753240       4.23227497       0.01464259      -0.01174324      -0.00577654      -3.91862253
Ni       5.59548799      -0.05846598       5.63848353       0.01087313       0.00344623       0.00437719      -6.00084273
Al       7.11584877       1.40204941       6.97592659      -0.00445985      -0.00439010       0.00332726      -4.35019394
Ni       5.68282332       0.04088553       8.45026399      -0.00341594       0.00174464      -0.00179974      -6.15957695
Al       7.12640585       1.44734964       9.86471437       0.00253024      -0.00012178      -0.00693106      -4.35075718
Ni       5.58747030       0.02791044      11.18446118      -0.00815659      -0.00323393      -0.00640248      -6.12201205
Al       7.09091357       1.39040013      12.56441991       0.00327931       0.00142601       0.00249114      -4.57744918
Ni       5.69497252       2.74933907       0.04711008       0.00006050      -0.00297198      -0.00893997      -6.02363238
Al       7.02127476       4.21769304       1.51239181      -0.00133682       0.00703529      -0.00141674      -3.91983108
Al       6.98388480       4.15299044       4.20894773       0.00062583      -0.00514264      -0.00063730      -4.06543400
Al       7.04455255       4.11133491       7.08114793       0.00021103       0.00809184      -0.00288804      -4.47146693
Al       6.94186657       4.18064407       9.85723903       0.01273730      -0.00179359       0.00204372      -4.34825890
Al       7.00920830       4.27451844      12.73306544      -0.00473638      -0.00749272      -0.00143866      -4.36207152
Al       7.03344500       6.89123374       1.35332688       0.00074115      -0.00624445       0.01015825      -4.24031530
Al       7.08333680       6.97593931       4.17308222      -0.00521240      -0.00220863       0.00857411      -4.42863032
Ni       5.63893656       5.63967253       5.68429730       0.00075949       0.00399400       0.00042333      -6.14634219
Al       7.04543706       7.14901173       7.00176073      -0.00405658      -0.00619801      -0.01117225      -4.44152510
Ni       5.65863807       5.63458389       8.39934886      -0.00756154       0.00101115      -0.00194839      -6.01007090
Al       6.96110331       7.12446906       9.86758650      -0.00008741      -0.00498573       0.00526797      -4.19364179
Al       7.05603805       7.05392143      12.60001052      -0.00286668       0.00146354       0.01092554      -4.22032170
Ni       5.67041627       8.44125728       0.02880011       0.00186850      -0.00688538       0.00190303      -6.17495766
Al       7.02110213       9.99009224       1.38490009      -0.00009291       0.01520376      -0.00099078      -4.43752098
Ni       5.71803640       8.42680714       2.76308500      -0.00172854       0.00424464      -0.00605395      -6.01411344
Al       7.03943383       9.88841220       4.19905644       0.00183552      -0.00158659       0.00559918      -4.42007536
Al       7.03777631       9.83749732       6.98924121      -0.00003534       0.00258702      -0.00404321      -4.42889834
Al       7.02679014       9.85687196       9.87467256       0.00600901      -0.00091674       0.00917387      -4.29017825
Al       7.07430575       9.91105075      12.61349769      -0.00446442      -0.00089226      -0.00111481      -4.31690707
Ni       5.56617033      11.32723034      -0.03425313      -0.00009144      -0.00200034       0.00595023      -6.17796182
Al       7.06892605      12.64440954       1.45685155      -0.00726244      -0.00480605       0.00872526      -4.11095076
Al       7.02883425      12.72693517       4.14456393      -0.00311019      -0.00142386       0.00023231      -4.09870981
Ni       5.61346854      11.32501238       5.62205497       0.00649718      -0.00612527       0.00740470      -6.05406728
Al       7.08477717      12.70034815       6.98392984       0.00071566      -0.00942228      -0.00494385      -4.67242871
Ni       5.64028725      11.29451085       8.41149971      -0.00205665      -0.00293405      -0.00072644      -6.16576210
Al       7.08493654      12.68639711       9.88843988      -0.00280375      -0.00576447      -0.00204038      -4.57823409
Ni       5.57532900      11.31918393      11.23189561       0.00309303       0.00027546       0.00321337      -6.17082159
Al       7.09125993      12.70222902      12.61782581      -0.00442540      -0.00491408      -0.00318385      -4.43669513
Ni       8.45031896      -0.01497475       0.10087789      -0.00659116       0.00130657      -0.00850441      -5.98832856
Al       9.87992673       1.36768075       1.50081544       0.01012293       0.00989396      -0.00036023      -4.12781129
Al       9.90218275       1.37572579       4.22593165       0.00276347      -0.00842132      -0.00047244      -3.70212641
Al       9.87282399       1.48741108       7.09355978       0.00044566      -0.00216916       0.00221569      -4.12005493
Ni       8.47690057      -0.05186274       8.42918609      -0.00012728       0.00716101       0.00094202      -5.99461974
Al       9.85472125       1.38985435       9.84714209       0.01047933      -0.00256224      -0.00189011      -4.43346819
Al       9.84301538       1.34586079      12.67007519      -0.00220639       0.00382766      -0.00051717      -4.62098988
Ni       8.42735177       2.74353956       0.07104449      -0.00125989      -0.00111654      -0.00941710      -6.17558231
Al       9.78534730       4.18373967       1.50014126      -0.00599071      -0.00354626      -0.00714645      -4.36601639
Al       9.90005601       4.22089023       4.19994772       0.00564238      -0.00031524       0.00007310      -4.38081386
Ni       8.49478865       2.84186982       5.57334898       0.00409900      -0.00032024       0.00653518      -5.91521435
Al       9.94150226       4.24878809       7.06695794      -0.00676807       0.00861180      -0.01277183      -4.40221543
Al       9.89336007       4.26209001       9.78387541       0.00262215      -0.00575005       0.00197162      -4.55053786
Ni       8.47621473       2.92509122      11.29475277       0.00671853       0.00426822      -0.00693964      -6.07447896
Al       9.84604230       4.32728981      12.69976803      -0.00341035      -0.00721544      -0.00101466      -4.62492314
Al       9.81678813       7.04049871       1.39255200       0.00639814      -0.00466734       0.00455667      -4.49052019
Al       9.80123090       7.09294290       4.18170453       0.01163696      -0.01367358       0.00319332      -4.40212877
Ni       8.42039947       5.54257157       5.65613458       0.00209436       0.00008949       0.00254237      -6.18030873
Al       9.86515082       7.03556074       6.99733803      -0.00281914       0.00197267      -0.00220540      -4.63042502
Ni       8.37378036       5.71143004       8.47459927      -0.00126368      -0.00354673      -0.00848893      -6.19622793
Al       9.82107228       7.05796247       9.93186912      -0.00326624       0.00279568       0.00154489      -4.52116820
Ni       8.38741732       5.58403846      11.21390015      -0.00453763      -0.00680790      -0.01097967      -6.02601056
Al       9.85280176       7.02559315      12.67474612      -0.00048385      -0.00268374       0.00153406      -4.21385406
Ni       8.40439152       8.49117379       0.04331696      -0.00089438      -0.00869205       0.00238067      -6.01665402
Al       9.88967556       9.94824519       1.37064563       0.00595545      -0.00096219      -0.01200684      -3.90135840
Ni       8.37264322       8.47387050       2.69400581       0.00219883       0.00137159       0.00186917      -6.02219778
Al       9.81054960       9.78321632       4.10591094       0.00167268       0.01990286       0.00237400      -4.36138926
Al       9.83804247       9.87309912       7.00266729       0.00316128       0.01031231      -0.00511615      -4.60626941
Ni       8.49031231       8.51588096       8.46321257      -0.00109068      -0.00742609       0.00170173      -6.14046011
Al       9.87535772       9.95675768       9.90856568      -0.00700435       0.00759689      -0.00273538      -4.30758060
Al       9.87915785       9.82351965      12.66008160      -0.00314844       0.00527945       0.00395040      -3.93664755
Al      10.01020846      12.66452392       1.38062762       0.00978466      -0.00004832      -0.00879634      -3.65580755
Al       9.80725462      12.72698657       4.05838527      -0.00450014       0.00553938       0.00144926      -3.91200737
Ni       8.48679700      11.30714064       5.53367440       0.00112581       0.00436181       0.00395398      -6.12033191
Al       9.88812670      12.75548912       6.93875112      -0.00649687       0.00381835      -0.00155219      -4.36801309
Ni       8.45770776      11.29517046       8.42039497      -0.00728686       0.00425373       0.00218279      -6.17329738
Al       9.91040856      12.70441717       9.86779231      -0.00094870      -0.00469551       0.00002986      -4.20624737
Al       9.83765639      12.65351766      12.67268855      -0.00897320      -0.00888762       0.00267359      -3.91653313
Al      12.58748154       1.37090661       1.42194693      -0.00681316      -0.00521895       0.00159627      -3.95142315
Al      12.64245755       1.39017378       4.21691426      -0.00584124       0.00538853       0.00017392      -3.98539468
Al      12.60915951       1.41181558       6.99241594       0.00152655       0.00035752       0.00190243      -4.36674956
Al      12.70086420       1.35332762       9.85179499       0.00113336       0.00179854       0.00247978      -4.62716628
Ni      11.34122895      -0.00885104      11.32404533      -0.00095461      -0.00765276      -0.00059977      -6.00319573
Al      12.73570081       1.42816397      12.73786351       0.00364175      -0.00016941       0.00674343      -4.39487738
Ni      11.22605275       2.85181814      -0.01508773      -0.00977889      -0.00037865      -0.00315727      -6.08499911
Al      12.71408712       4.16747761       1.45488801      -0.00540526      -0.00099588       0.00029319      -4.36531897
Al      12.73188406       4.20742352       4.17461559      -0.00956242       0.00616966      -0.00272684      -4.34873141
Al      12.68242531       4.28330267       7.03185118       0.00446739       0.01228061      -0.00274311      -4.41639599
Ni      11.40587921       2.86798341       8.50272666      -0.00136329      -0.00171083       0.00077522      -6.01161146
Al      12.75580814       4.26134078       9.96527448      -0.00581919       0.00216581      -0.00068307      -4.07792655
Ni      11.24847728       2.77935738      11.27951320      -0.00693343       0.00019667       0.00888728      -6.18603031
Al      12.71896793       4.26384674      12.66991366       0.00474133      -0.00439942       0.00223033      -4.12503183
Ni      11.28820493       5.58226776       0.15085243       0.00000482      -0.00406477      -0.00657047      -6.01793606
Al      12.68154591       7.12738459       1.44379517      -0.00278369      -0.00247019       0.01162933      -4.22693787
Ni      11.27172643       5.66278836       2.77940117       0.00246996       0.00270587       0.00852652      -6.08209170
Al      12.74641286       7.16785329       4.13538324      -0.00814843      -0.00208539      -0.01107152      -4.22979909
Ni      11.36986937       5.73775317       5.50217882      -0.00302069       0.00238248      -0.00635101      -6.18151524
Al      12.73065357       7.12542224       7.06702271       0.00494200       0.00050251       0.00091208      -4.32343188
Al      12.65667249       6.94753753       9.81862835      -0.01000214       0.00795334      -0.00544190      -4.08546966
Al      12.58621193       7.02663303      12.74334163       0.00866499       0.00542995      -0.00692993      -4.38404819
Al      12.64475143       9.99472873       1.37161939      -0.00036561      -0.00004509       0.01160654      -3.67415807
Al      12.77237064       9.92620980       4.11796665       0.00099014       0.00007980       0.00471597      -3.94020362
Ni      11.33586586       8.54519629       5.61162828       0.00591920      -0.00580762       0.00187681      -6.12426565
Al      12.66319720       9.93699963       7.04696688      -0.00677008      -0.00467071       0.00118006      -4.31939647
Ni      11.21623328       8.44958617       8.46453150      -0.00142814      -0.00085276      -0.00694132      -6.13830723
Al      12.69447079       9.88041875       9.78048802      -0.00546553      -0.01454372       0.00780026      -4.51205058
Ni      11.32687959       8.46267581      11.19102590       0.00508393       0.00086798       0.00358543      -6.02514438
Al      12.63825751       9.91782179      12.67188426       0.00291404      -0.00398792      -0.00055105      -4.26537165
Al      12.76947876      12.74815206       1.44269717       0.00551214      -0.00169058      -0.00140704      -3.40617668
Al      12.57058531      12.69933393       4.14941671       0.00140273       0.00077014       0.00149376      -3.96796641
Ni      11.15979981      11.21054113       5.46451013       0.00293166       0.00903144      -0.00284585      -6.00892883
Al      12.55531153      12.60952837       6.96192263       0.01253139       0.00308063       0.00394380      -4.31707093
Al      12.60324242      12.67725361       9.80439740       0.00540578       0.00852003      -0.00148023      -4.44543135
Al      12.61689300      12.60796037      12.77340980      -0.01030132      -0.00191718       0.00041883      -4.11262598
