156
Lattice="13.548396868094796 0.028428865588561156 -0.10894515340483459 0.028773388530736816 13.376405469197143 -0.23648101080306 -0.10762011977590401 -0.23304279405407918 13.660854793686793" Properties=species:S:1:pos:R:3:forces:R:3:energies:R:1 rep=5 n_sites=250 energy=-687.5548926089346 stress="-0.0003510493300968995 -0.0005147630404524068 0.0003920722587465378 -0.0005147630404524068 6.804907725837564e-05 1.1120617027842032e-05 0.0003920722587465378 1.1120617027842032e-05 0.0004678788450170234" free_energy=-687.5548926089346 pbc="T T T"
Al       1.89378688       0.73669671       1.90945926       0.00322813       0.00946011       0.00352374      -4.09894477
Ni       0.17153814      -0.54859092       3.12250006      -0.00583119      -0.00013770       0.00228956      -5.75058350
Al       1.17839789       0.86504659       4.75519176       0.00374429      -0.01316498      -0.00022890      -4.00484525
Al       1.27115490       1.71236753       7.31421141       0.00538218      -0.00002734      -0.00432262      -4.30900020
Ni      -0.33496348       0.07642241       8.61943063      -0.00692546       0.00128502      -0.00071265      -6.06016481
Al       0.83114966       1.55741795      10.09236085       0.00209099      -0.00716319      -0.00216282      -4.22960656
Al       0.49659988       1.03636497      12.87652710      -0.00097620      -0.00091098       0.00341106      -3.82216832
Al       1.32094371       3.56413792       1.31601717       0.00118643      -0.00215657      -0.00114079      -4.13183575
Al       1.43952454       3.47604093       4.18968894       0.00445931       0.00401927       0.00223909      -4.05637779
Ni      -0.41607282       2.46877622       5.55525558      -0.00325567       0.00603399      -0.00003365      -5.97720980
Al       0.56324339       4.39189955       6.65941647      -0.00368778      -0.00040593       0.00561203      -3.99399055
Ni      -0.60298115       2.66404004       8.27900710      -0.01280040      -0.00035055       0.00574278      -5.97229121
Al       0.99644619       4.17440824       9.30923255      -0.00017299      -0.00429218       0.00058268      -4.15058058
Al       1.47294543       3.40367059      12.12010823       0.00325248      -0.00351532       0.00684238      -4.24361007
Ni      -0.02027372       4.91185331      -0.25175955      -0.01190998       0.00781830       0.00287369      -5.90396182
Al       1.11572538       6.39348717       1.45099159       0.00331344       0.00517328      -0.00655904      -4.04180361
Al       1.28567215       6.26837315       4.43398878       0.00343259      -0.00553180       0.00149902      -3.98802093
Al       1.24494982       6.94978104       7.09304665       0.00191615       0.00083941       0.00005344      -3.79662267
Al       2.01351372       6.63646772       9.66629615       0.00190815       0.00718583      -0.00365083      -4.00081469
Al       1.48155349       6.17586695      12.30933304      -0.00301264      -0.00073735       0.00135802      -4.11164872
Al       2.58807144       8.82852968       1.66990354      -0.00330216       0.00324259      -0.00500686      -4.09519329
Al       1.01113558       9.05264193       4.02398322      -0.00992650       0.00081391      -0.00215145      -3.91804528
Al       1.61821546       9.84798657       6.59998921       0.00607747       0.01357505       0.01185549      -4.28303908
Al       1.71491091       9.35677697       9.74652084       0.00920355       0.00155920       0.00079150      -4.41152505
Ni       0.23159815       7.80921580      10.87908984       0.00436335       0.00192239      -0.00006890      -5.92407179
Al       1.03253560       9.00665272      12.85246257       0.00288559      -0.00697036      -0.00306047      -4.30167534
Al       1.04128373      11.13828165       1.52973922       0.00619263      -0.00058361      -0.00223224      -4.21069118
Al       2.11749989      11.78419455       4.13478939       0.00393994      -0.00403888      -0.00449777      -3.84801041
Al       1.46254124      12.45807596       6.92770874       0.00358185      -0.00136571       0.00007716      -4.26219444
Ni       0.14997214      10.83458461       8.35418154       0.00920896       0.00204860       0.00201034      -6.07896016
Al       1.33389460      12.16626984       9.94792306       0.00243036       0.00410550      -0.00362880      -4.41632699
Ni      -0.09901437      10.37452301      11.11400319      -0.00097412      -0.00178526       0.00301688      -5.98622063
Al       1.30350201      11.81074548      12.55694287      -0.00799018       0.00441410       0.00158840      -3.93835333
Al       4.61301878       0.97822041       1.07498515       0.00285482      -0.00457030       0.00278259      -3.96282834
Al       3.89135956       1.04251008       3.92937889       0.00352761      -0.00336744      -0.00030886      -3.69503731
Al       3.80020992       0.99632918       6.71436234      -0.00390250      -0.00355055       0.00214539      -4.04802985
Ni       2.72811043       0.26511018       8.93606605      -0.00665557      -0.00201453      -0.00401561      -6.03985137
Al       3.45223321       2.47816552       9.44552765      -0.00318489       0.00005553       0.00351431      -4.28219821
Al       2.92308688       0.55585750      11.66730141      -0.00352893       0.00137079      -0.00331808      -4.01671576
Ni       2.76318802       2.12113820       0.04075739      -0.00680675       0.00677462      -0.00395237      -5.81130714
Al       4.11443180       3.69213233       1.28837534       0.00740102      -0.00626205       0.00183409      -4.41137331
Al       4.17676430       3.84467166       4.16395823       0.00830517       0.00274699      -0.00459801      -3.95733839
Al       3.28476266       3.83665299       6.67312504       0.00064381      -0.00822659      -0.00195136      -3.80824863
Al       4.51294049       4.88017079       8.92316360      -0.00230435       0.00021914      -0.00570280      -4.25091917
Al       4.18242487       3.16682874      12.27001495      -0.00303632      -0.00727702       0.00326603      -4.38333685
Al       3.78868235       6.52252953       1.01601719      -0.00255651      -0.00229154      -0.00354130      -4.29132613
Ni       2.63908858       5.02836576       2.77031994       0.00146052      -0.00248988       0.00987837      -5.87132104
Al       3.88922016       6.73210655       3.95614897      -0.00493026       0.00333092       0.00063458      -4.52267345
Al       4.12632704       6.51338392       6.77995795      -0.00107563      -0.00294758      -0.00238417      -4.01064097
Al       4.46984265       7.65647393       9.48190487      -0.00146912      -0.00635150      -0.00268795      -3.63730849
Ni       2.92662928       4.60256681      10.67643801      -0.00202315       0.00076134      -0.00880843      -5.88655496
Al       4.18711476       6.25076919      11.95821483       0.00138644      -0.00243624       0.00694975      -4.17497417
Al       5.11570738       9.83292800       0.68016230      -0.00697520       0.01311063      -0.00399560      -4.05529072
Al       3.69139235       9.66962923       4.04576411       0.00475044      -0.00356908      -0.00421733      -4.16342598
Ni       2.72635679       8.02384263       5.56848198       0.01233906      -0.00198356      -0.00249131      -5.85665571
Al       4.18542944       9.25672428       7.19233520       0.00185069       0.00146371      -0.00252051      -4.28672765
Al       4.57674246      10.31733508       9.88712226       0.00559785       0.00004952       0.00004489      -3.92408817
Al       3.65903860       8.87798353      11.99283023       0.00377884      -0.00324604       0.00297633      -3.82459362
Ni       2.91098755      10.61568253       0.09881098       0.00369819      -0.00446480      -0.00453058      -5.76711407
Al       3.88309064      11.98709839       1.91073321      -0.00356290       0.00424572       0.00378352      -3.89925451
Al       4.79420351      12.06666555       4.70369908      -0.00981489      -0.00055370       0.00750339      -3.63607799
Al       4.64948208      11.97901599       7.34263876       0.01052110      -0.00052021      -0.00766499      -3.89952326
Ni       2.78949085      10.96796685       8.34559317      -0.00388577       0.00047761      -0.00359901      -5.80557451
Al       4.85368359      13.03373741       9.83457424       0.00055225       0.00202815      -0.00755615      -4.05874016
Al       4.27171507      11.66280846      12.34639597       0.00197696      -0.00309650      -0.00285838      -3.94352360
Al       7.56132943       1.43963316       0.95951538      -0.00099577       0.00756964      -0.00313273      -3.75485591
Al       6.10043090       2.35624346       2.94509940       0.00289594      -0.00614134      -0.00238690      -3.68337390
Al       6.26016723       2.05389077       5.59792406      -0.00311209      -0.00727597       0.00033873      -3.94550425
Al       6.57947718       0.71992888       7.95010216      -0.00030538      -0.00795156       0.00036224      -4.13053181
Al       5.89535719       0.74799513      12.32180902       0.00023889       0.00375031       0.00243034      -3.92022481
Al       7.18682121       4.44055522       1.51093719      -0.00071414       0.00396868       0.00385607      -4.11792955
Al       6.80426798       4.51879616       4.29948895       0.00341126      -0.00177002       0.00074372      -3.87170971
Al       6.52358699       4.55203829       7.03614407      -0.00603744      -0.00543130      -0.00044279      -3.85362560
Ni       5.17636020       2.71758636       7.71063292      -0.00213383       0.00684770       0.00380345      -5.75747594
Al       6.50325634       2.71221671       9.79531763       0.00911039      -0.00767200       0.00164047      -4.25540049
Al       6.99657913       3.28770634      12.58213278      -0.00314570      -0.00499507      -0.00125315      -4.04953509
Ni       5.56667749       5.19245239      -0.09476942       0.00062340       0.01044078      -0.00521729      -6.05523980
Al       6.49552393       7.28282976       0.84992233       0.00697379      -0.00158210      -0.01359528      -4.37441478
Ni       5.26094310       5.38411514       2.53175080      -0.00338133      -0.00251679       0.00752612      -6.11008241
Al       6.66438122       7.06782411       3.61898944       0.00525048      -0.00297578       0.00523626      -4.28469382
Al       6.74183451       7.23164792       6.77730547      -0.00147175      -0.00417986      -0.00158269      -4.01630836
Al       6.98896870       6.03201093       9.41137126       0.00865485       0.00058686       0.00802066      -4.09367755
Ni       5.65687263       4.61506324      11.03705909       0.00382264       0.00517606       0.01065860      -5.77559898
Al       7.16850924       6.09679951      12.11089429      -0.00382417      -0.00914624      -0.00228468      -4.45911966
Al       7.76894531      10.07308499       0.87139475       0.00478715       0.01237495       0.00000883      -3.80499138
Ni       4.94605318       8.26215396       2.44961878      -0.00342506       0.00239940       0.00579022      -5.95952476
Al       6.48839348       9.93243202       3.47529728      -0.00074449      -0.00106987       0.00183206      -4.15653518
Ni       5.31798852       8.38666030       5.20126171       0.00573771      -0.00078115       0.00288098      -6.11697871
Al       6.81222630      10.12746466       6.31285731      -0.00330228      -0.01052622       0.01076323      -4.09470936
Al       6.74939920       8.88607247       8.99108911       0.00282697      -0.00286842       0.00286958      -3.85301913
Al       6.36197699       8.92430907      11.79835565      -0.00108445       0.00347685       0.00021633      -4.12366720
Al       6.49272222      12.33812622       0.37978664       0.00104978       0.00019144      -0.01107011      -3.67097149
Al       6.39495261      13.10280599       2.91663066      -0.00214097       0.00773808      -0.00950191      -3.72800570
Al       7.41853792      12.66222880       5.38323669      -0.00569975      -0.00257545       0.00088284      -3.61395407
Al       7.00913404      11.53992280       8.71181122      -0.00411340      -0.00090728      -0.00521498      -3.92074774
Al       6.98135954      11.62327268      11.48650790      -0.00289982      -0.00208695      -0.00578275      -3.93029781
Al      10.18188415       1.04276438       1.30940795      -0.00351693       0.00167126      -0.00753928      -3.60413430
Al       8.79682071       1.06798404       3.83763646      -0.01080370      -0.00356368       0.00563803      -3.92724855
Al       9.04358717       1.19159415       6.58911998       0.00070719       0.00362426       0.00027233      -3.82050430
Al       8.98027657       1.49795562       9.29830282      -0.00625428       0.00611780      -0.00060794      -3.76842737
Ni       7.20982632       0.22756265      10.28542850       0.00361620       0.00166687      -0.00722577      -6.02985686
Al       8.63216301       1.08033549      12.12126919       0.00659688       0.00612162      -0.00664880      -3.90669396
Al       9.43928904       3.54326509       0.46982459       0.00830231       0.00839260      -0.00798122      -4.02956595
Al       9.26822323       3.67497159       3.21961900       0.00189441       0.00157735       0.00584952      -4.19844613
Al       8.80808762       3.86643076       5.90432680      -0.00208815       0.00073182       0.00391974      -3.98457122
Al       8.86506894       4.11024318       8.56755869      -0.00086395       0.00387081       0.00025214      -3.65373883
Al       9.52776988       3.66053173      11.28358700      -0.00020345       0.01410047      -0.00366394      -3.80646143
Al       9.27706221       6.53849436       0.81956091       0.00118057       0.00367787       0.01034736      -4.35630205
Al       9.32657479       6.76125039       3.63318914      -0.00590704       0.01179801      -0.00416477      -4.31949655
Al       9.37172069       6.66950100       6.34602931      -0.00448595      -0.00658008       0.00450398      -4.12068146
Al       9.79214590       6.54479680       9.20104836       0.00024856      -0.00054951       0.00181566      -4.03507787
Al       9.91678506       6.73653471      11.93661313       0.00073720       0.00423054      -0.00460869      -4.26228417
Ni       8.30524600       8.24701164      -0.56480548       0.00445397      -0.00052710       0.00210489      -5.88046605
Al      10.37351325       9.45572505       0.46602496       0.00469429       0.00380662       0.00112538      -4.06695605
Al       9.23605132       9.55880276       3.27457547       0.00361302      -0.00445103      -0.00156965      -3.99415188
Ni       7.95556514       8.41305344       5.03563223       0.00107132      -0.00466413      -0.00339256      -5.85503652
Al       9.80711847       9.47805679       6.15396260       0.00326248       0.00296976       0.00599085      -4.09156631
Al       9.45730474       9.39857040       8.99079798      -0.00050251      -0.00164596       0.00267686      -3.95454229
Ni       8.20861056       7.79857709      10.57612778       0.00189393       0.00071690      -0.00031757      -5.89580798
Al       9.19716157       9.74840969      11.67085604       0.00110413       0.00621049       0.00097372      -4.07915392
Al       8.89492481      12.11805732       2.23724902       0.00576974       0.00072096      -0.00611025      -3.68342034
Al      10.25243285      11.83447952       4.65572126       0.00221779      -0.01228227      -0.00835544      -3.67474121
Al       9.24038515      11.89523933       7.28131844      -0.00529904      -0.00281911      -0.00603561      -3.55313160
Al       9.38583004      12.22727479      10.20497670      -0.00561367       0.00243637       0.00032113      -3.84123705
Al       9.28492452      12.02644835      13.22853612      -0.00956800       0.00796938       0.00049134      -3.71505442
Al      12.71887695       0.36894066       1.07674410      -0.00902641       0.00301311      -0.00465508      -3.78365813
Al      11.89741973       0.77529720       3.88608656       0.00353145      -0.00211929      -0.00665571      -4.29812282
Al      11.75746143       1.06177100       6.78218805      -0.00716451       0.00028208      -0.00646428      -4.27786039
Al      11.57532303       1.40188200       9.75126373      -0.00684220      -0.00492484       0.00214415      -3.96913019
Al      11.24791205       0.45595405      12.36531063      -0.00243059       0.00047034      -0.00571051      -3.66808269
Al      12.12923706       3.42149474       0.98649037      -0.00456412      -0.00632352       0.00205988      -4.06161783
Al      12.15310170       3.67958777       3.63513107      -0.00326591      -0.00817250       0.00579824      -4.27858550
Ni      10.52393140       2.37306756       5.01581249      -0.00297925       0.00339117       0.00223494      -5.98538165
Al      11.41271599       3.86976472       6.69828956       0.00253704      -0.00231039       0.00465760      -4.39109403
Al      11.52095283       4.23366715       9.38444461       0.00418229      -0.00455351       0.00441821      -3.90968733
Al      12.23837373       3.04609658      11.87748974      -0.00548852      -0.00348223       0.00411057      -4.09147818
Ni      10.97350432       4.97831381      -0.60981170       0.00621338      -0.00554302       0.00981556      -5.95617180
Al      12.09262152       6.63720000       0.58758471      -0.00785118       0.00482041       0.00192021      -4.37919544
Ni      10.75270968       5.18844757       2.13406611      -0.00048624       0.00287166       0.00750166      -6.11636080
Al      12.30510694       6.51136882       3.46742635      -0.00121707      -0.00172687       0.00356070      -4.12059169
Ni      10.58518369       5.10746037       4.78775294       0.00801410       0.00017414       0.00593089      -5.99953904
Al      12.15069492       6.49815122       6.12851374       0.00243255       0.00038931      -0.00196568      -4.07526472
Al      12.73125304       6.64571790       8.84538625       0.00199266      -0.00392627      -0.00192582      -4.07461749
Al      12.41418750       5.89141884      11.42415268       0.00478151       0.00153892      -0.00486250      -4.30957856
Al      13.09336576       8.89111760       1.54194128      -0.00010636      -0.00008852      -0.00032649      -3.92103836
Ni      10.88168652       7.95705979       2.21486506       0.00794542      -0.00704958       0.00723714      -5.88981191
Al      11.81543784       9.25606710       4.01256951      -0.00942569      -0.00452630      -0.00421768      -3.86962767
Al      12.61575835       9.24984171       6.58466860       0.00463951       0.00085414      -0.00696208      -4.08258461
Ni      10.96754493       7.96408194       7.69917377      -0.00226190      -0.00068746      -0.00033822      -5.75486061
Al      12.23182490       9.25697752       9.30792995      -0.00226326      -0.01007027       0.00176950      -4.31939615
Al      11.93771852       8.68727845      12.04546219       0.00016078       0.00417372       0.00148833      -4.02532007
Al      11.73331484      11.50544759       2.11141028      -0.00153357       0.00184007       0.00274262      -3.92628670
Al      13.05960634      11.49528303       4.63078335       0.00464010       0.00229665       0.00095316      -3.93501846
Al      11.88567918      11.85216398       7.04613314       0.00133764       0.01254498      -0.00040299      -3.99700669
Al      12.10398305      12.07766046       9.94558370      -0.00156988       0.00170434       0.00262988      -4.14733852
Al      12.00141252      11.28312307      12.82060112      -0.00300517      -0.00003115       0.00653692      -3.84816096
