128
Lattice="11.505011011192387 7.495461755030928e-20 7.973324310772619e-22 1.0127623113354469e-17 11.506214446094903 0.00029932662043425366 1.5810202420916637e-18 0.0002993216809619817 11.513113766734383" Properties=species:S:1:pos:R:3:forces:R:3:energies:R:1 energy=-699.4876636472696 stress="0.0016423093195441754 -3.7116365596382914e-18 9.788088779616888e-19 -3.7116365596382914e-18 0.001338172823860091 -5.9344702523752415e-05 9.788088779616888e-19 -5.9344702523752415e-05 -0.0005497597474602606" free_energy=-699.4876636472696 pbc="T T T"
Ni       0.00511530       0.01454974      -0.01248087      -0.00178813      -0.00225615      -0.00048231      -6.26944006
Al       1.54040204       1.43483526       1.41406281      -0.00145391       0.00130831       0.00193243      -4.73192250
Ni      -0.02223956       0.03849512       2.85141920       0.00381450      -0.00267922       0.00082675      -6.26898723
Al       1.42765003       1.43044807       4.35141848       0.00217848       0.00037039      -0.00160195      -4.63721361
Ni      -0.00745153      -0.00916374       5.80225867       0.00042515      -0.00261716      -0.00172433      -6.24835280
Al       1.45738915       1.44555511       7.21544942      -0.00228736       0.00300909       0.00466969      -4.62317315
Ni      -0.00475462      -0.00633200       8.62935608       0.00182763      -0.00236461       0.00138761      -6.24871306
Al       1.46862525       1.43116606      10.04294576       0.00110569      -0.00292045      -0.00431424      -4.64402154
Ni       0.05203048       2.82802553      -0.06279293       0.00163887       0.00124174      -0.00043435      -6.10155399
Al       1.29585898       4.29969521       1.45933850      -0.00172369       0.00020804      -0.00640377      -4.74827475
Ni       0.01859513       2.80493302       2.90620916       0.00554275       0.00164517      -0.00218693      -6.10426723
Al       1.40496684       4.29990901       4.30180376       0.00258578       0.00405954       0.01144312      -4.65112592
Ni      -0.01749660       2.88689381       5.78458488       0.00012196       0.00271652       0.00175263      -6.25911893
Al       1.44705240       4.31808310       7.21382619       0.00330678      -0.00378347      -0.00587984      -4.64742728
Ni      -0.01405697       2.88810178       8.64305882      -0.00034854       0.00140517      -0.00292380      -6.25819080
Al       1.44954763       4.33656568      10.04228797      -0.00041746       0.00033662       0.00448942      -4.67112487
Ni       0.05675346       5.80796650      -0.05439355       0.00090144       0.00131633      -0.00703839      -6.10837583
Al       1.43837559       7.19540547       1.45968193      -0.00068558       0.00481406       0.00216283      -4.65161541
Ni      -0.00593477       5.79922668       2.91720487      -0.00212337       0.00200770       0.00402750      -6.09439699
Al       1.43583485       7.20154926       4.30177567       0.00547717       0.00044628      -0.00458541      -4.64861335
Ni       0.00222255       5.74676166       5.75858061       0.00414223      -0.00448169       0.00163462      -6.27008306
Al       1.54705723       7.18671569       7.16778656      -0.00604654      -0.00099078      -0.00118263      -4.72509275
Ni       0.01998699       5.78822925       8.64470455      -0.00280915       0.00107882       0.00213861      -6.26723223
Al       1.59278070       7.19618144      10.10270321      -0.00074383       0.00080057       0.00210004      -4.74613373
Ni       0.00599767       8.61157125      -0.00033727      -0.00141253       0.00297142      -0.00324306      -6.26961638
Al       1.41211658      10.08539098       1.46307565      -0.00204528      -0.00696675      -0.00530604      -4.64460046
Ni      -0.04895347       8.61687220       2.86216997      -0.00022868       0.00183220      -0.00049234      -6.25859930
Al       1.39725273      10.08228230       4.29276765      -0.00020274      -0.00424953       0.00184057      -4.64014229
Ni       0.01200692       8.63648742       5.77418077       0.00290335       0.00252065       0.00120873      -6.26174104
Al       1.45792868      10.06509234       7.21800353       0.00610639       0.00222302      -0.00216663      -4.63642800
Ni       0.02974193       8.58935574       8.63346046      -0.00140533      -0.00022970       0.00249251      -6.26088432
Al       1.43999438      10.04379758      10.05441493      -0.00028464       0.00322816       0.00548440      -4.65872001
Ni       2.84563367      -0.05941403      -0.05190318       0.00037316       0.00177132      -0.00246349      -6.10461632
Ni       4.31437913       1.44113690       1.41450766       0.00000000       0.00430611       0.00633290      -5.83288691
Ni       2.83688444      -0.00258220       2.92125436      -0.00308957       0.00364553       0.00156818      -6.09684048
Al       4.31437913       1.44848896       4.23674309       0.00000000       0.00186819      -0.00546564      -4.71919755
Ni       2.88192722      -0.00472047       5.75791813       0.00019207       0.00646041      -0.00017767      -6.27009392
Al       4.31437913       1.43523643       7.18405010      -0.00000000      -0.00073075       0.00938932      -4.60615477
Ni       2.92884343      -0.01299055       8.64455839      -0.00451645       0.00603385       0.00195246      -6.27011477
Al       4.31437913       1.45034646      10.19973758      -0.00000000       0.00213633      -0.00999917      -4.72494700
Ni       2.82990861       2.94070144      -0.03700992       0.00099868      -0.00173203      -0.00078853      -6.11349761
Al       4.31437913       4.18862101       1.46057432       0.00000000      -0.00200245      -0.00288232      -4.73245723
Ni       2.81985266       2.88744578       2.90771037      -0.00229800      -0.00517570      -0.00260947      -6.10526977
Al       4.31437913       4.29918282       4.29617443       0.00000000       0.00486607       0.00691999      -4.64775939
Ni       2.88749626       2.88252172       5.76091841      -0.00064111      -0.00257489       0.00335036      -6.27142107
Al       4.31437913       4.42328586       7.16588368      -0.00000000      -0.00986868      -0.00733889      -4.72217403
Ni       2.93386550       2.89336310       8.63907856      -0.00252451      -0.00577834      -0.00176381      -6.27029574
Al       4.31437913       4.44637464      10.10188098       0.00000000      -0.00174396       0.00369743      -4.75109383
Ni       2.82168327       5.67158291       0.10803262       0.00293776      -0.00451422      -0.00137949      -6.12125959
Al       4.31437913       7.17958972       1.36242751      -0.00000000       0.00250103      -0.00290621      -4.73498283
Ni       2.88385532       5.74031673       2.86803778      -0.00120907      -0.00086802      -0.00014355      -6.28709524
Al       4.31437913       7.18708987       4.39581072       0.00000000      -0.00547650      -0.00626070      -4.74348720
Ni       2.81955300       5.69407055       5.68532815       0.00313967      -0.00090009      -0.00033286      -6.09746574
Ni       4.31437913       7.19570747       7.06621334      -0.00000000       0.00119918       0.00596697      -5.74136335
Ni       2.89303258       5.76378952       8.61234877      -0.00361510      -0.00109296       0.00055962      -5.99548962
Ni       4.31437913       7.17772025      10.19732992      -0.00000000      -0.00086464       0.00140655      -5.77287372
Ni       2.84593375       8.70159728       0.09437582       0.00148088      -0.00010087       0.00057396      -6.10804679
Al       4.31437913      10.19829998       1.45969747       0.00000000       0.00075831      -0.00392239      -4.72716809
Ni       2.90446010       8.63653517       2.87198787      -0.00298163      -0.00101925      -0.00057969      -6.27972987
Al       4.31437913      10.08411716       4.30728832       0.00000000      -0.00163752       0.00515527      -4.63649726
Ni       2.81492151       8.68922366       5.68210649       0.00035678      -0.00028071      -0.00046337      -6.09715558
Al       4.31437913       9.95689901       7.16817839       0.00000000       0.01110355      -0.00396795      -4.72885531
Ni       2.88935827       8.61501151       8.62163108      -0.00693996      -0.00068765       0.00177517      -5.99717715
Al       4.31437913       9.94126850      10.08845128      -0.00000000       0.00473090       0.00472760      -4.73382794
Ni       5.78312458      -0.05941403      -0.05190318      -0.00037316       0.00177132      -0.00246349      -6.10461632
Al       7.08835622       1.43483526       1.41406281       0.00145391       0.00130831       0.00193243      -4.73192250
Ni       5.79187381      -0.00258220       2.92125436       0.00308957       0.00364553       0.00156818      -6.09684048
Al       7.20110823       1.43044807       4.35141848      -0.00217848       0.00037039      -0.00160195      -4.63721361
Ni       5.74683104      -0.00472047       5.75791813      -0.00019207       0.00646041      -0.00017767      -6.27009392
Al       7.17136911       1.44555511       7.21544942       0.00228736       0.00300909       0.00466969      -4.62317315
Ni       5.69991483      -0.01299055       8.64455839       0.00451645       0.00603385       0.00195246      -6.27011477
Al       7.16013301       1.43116606      10.04294576      -0.00110569      -0.00292045      -0.00431424      -4.64402154
Ni       5.79884965       2.94070144      -0.03700992      -0.00099868      -0.00173203      -0.00078853      -6.11349761
Al       7.33289928       4.29969521       1.45933850       0.00172369       0.00020804      -0.00640377      -4.74827475
Ni       5.80890560       2.88744578       2.90771037       0.00229800      -0.00517570      -0.00260947      -6.10526977
Al       7.22379142       4.29990901       4.30180376      -0.00258578       0.00405954       0.01144312      -4.65112592
Ni       5.74126200       2.88252172       5.76091841       0.00064111      -0.00257489       0.00335036      -6.27142107
Al       7.18170586       4.31808310       7.21382619      -0.00330678      -0.00378347      -0.00587984      -4.64742728
Ni       5.69489276       2.89336310       8.63907856       0.00252451      -0.00577834      -0.00176381      -6.27029574
Al       7.17921063       4.33656568      10.04228797       0.00041746       0.00033662       0.00448942      -4.67112487
Ni       5.80707498       5.67158291       0.10803262      -0.00293776      -0.00451422      -0.00137949      -6.12125959
Al       7.19038266       7.19540547       1.45968193       0.00068558       0.00481406       0.00216283      -4.65161541
Ni       5.74490294       5.74031673       2.86803778       0.00120907      -0.00086802      -0.00014355      -6.28709524
Al       7.19292341       7.20154926       4.30177567      -0.00547717       0.00044628      -0.00458541      -4.64861335
Ni       5.80920526       5.69407055       5.68532815      -0.00313967      -0.00090009      -0.00033286      -6.09746574
Al       7.08170103       7.18671569       7.16778656       0.00604654      -0.00099078      -0.00118263      -4.72509275
Ni       5.73572568       5.76378952       8.61234877       0.00361510      -0.00109296       0.00055962      -5.99548962
Al       7.03597756       7.19618144      10.10270321       0.00074383       0.00080057       0.00210004      -4.74613373
Ni       5.78282450       8.70159728       0.09437582      -0.00148088      -0.00010087       0.00057396      -6.10804679
Al       7.21664168      10.08539098       1.46307565       0.00204528      -0.00696675      -0.00530604      -4.64460046
Ni       5.72429816       8.63653517       2.87198787       0.00298163      -0.00101925      -0.00057969      -6.27972987
Al       7.23150553      10.08228230       4.29276765       0.00020274      -0.00424953       0.00184057      -4.64014229
Ni       5.81383675       8.68922366       5.68210649      -0.00035678      -0.00028071      -0.00046337      -6.09715558
Al       7.17082958      10.06509234       7.21800353      -0.00610639       0.00222302      -0.00216663      -4.63642800
Ni       5.73939998       8.61501151       8.62163108       0.00693996      -0.00068765       0.00177517      -5.99717715
Al       7.18876388      10.04379758      10.05441493       0.00028464       0.00322816       0.00548440      -4.65872001
Ni       8.62364296       0.01454974      -0.01248087       0.00178813      -0.00225615      -0.00048231      -6.26944006
Al      10.06688463       1.54270950       1.40042476      -0.00000000      -0.00106274       0.00889598      -4.71064222
Ni       8.65099782       0.03849512       2.85141920      -0.00381450      -0.00267922       0.00082675      -6.26898723
Al      10.06688463       1.42915397       4.34961745      -0.00000000      -0.00312405      -0.00863343      -4.62046448
Ni       8.63620979      -0.00916374       5.80225867      -0.00042515      -0.00261716      -0.00172433      -6.24835280
Al      10.06688463       1.44307244       7.21246682      -0.00000000       0.00376727       0.00333681      -4.59641267
Ni       8.63351288      -0.00633200       8.62935608      -0.00182763      -0.00236461       0.00138761      -6.24871306
Al      10.06688463       1.43356393      10.06604908      -0.00000000      -0.00489031      -0.00507547      -4.61636361
Ni       8.57672778       2.82802553      -0.06279293      -0.00163887       0.00124174      -0.00043435      -6.10155399
Ni      10.06688463       4.30738771       1.40924992      -0.00000000      -0.00593363       0.00054448      -5.83839557
Ni       8.61016312       2.80493302       2.90620916      -0.00554275       0.00164517      -0.00218693      -6.10426723
Al      10.06688463       4.29863947       4.22798758      -0.00000000       0.00231267       0.00182244      -4.71475529
Ni       8.64625486       2.88689381       5.78458488      -0.00012196       0.00271652       0.00175263      -6.25911893
Al      10.06688463       4.34319078       7.22255798      -0.00000000       0.00199853       0.00065563      -4.61181920
Ni       8.64281523       2.88810178       8.64305882       0.00034854       0.00140517      -0.00292380      -6.25819080
Al      10.06688463       4.33067664      10.17616255      -0.00000000       0.00210812      -0.00025144      -4.73226504
Ni       8.57200480       5.80796650      -0.05439355      -0.00090144       0.00131633      -0.00703839      -6.10837583
Al      10.06688463       7.08723371       1.41072834      -0.00000000       0.00018349       0.00023802      -4.70560198
Ni       8.63469303       5.79922668       2.91720487       0.00212337       0.00200770       0.00402750      -6.09439699
Al      10.06688463       7.20112744       4.34886520      -0.00000000      -0.00287621       0.00359413      -4.61786365
Ni       8.62653571       5.74676166       5.75858061      -0.00414223      -0.00448169       0.00163462      -6.27008306
Al      10.06688463       7.18678576       7.19112964      -0.00000000       0.00458266       0.00465799      -4.61450380
Ni       8.60877127       5.78822925       8.64470455       0.00280915       0.00107882       0.00213861      -6.26723223
Al      10.06688463       7.19686418      10.07336857      -0.00000000      -0.00141789      -0.00722936      -4.61256871
Ni       8.62276059       8.61157125      -0.00033727       0.00141253       0.00297142      -0.00324306      -6.26961638
Al      10.06688463      10.07909710       1.41472809      -0.00000000       0.00016775      -0.00252122      -4.61440859
Ni       8.67771173       8.61687220       2.86216997       0.00022868       0.00183220      -0.00049234      -6.25859930
Al      10.06688463      10.08152302       4.32133213      -0.00000000       0.00090276      -0.00147113      -4.61758913
Ni       8.61675134       8.63648742       5.77418077      -0.00290335       0.00252065       0.00120873      -6.26174104
Al      10.06688463      10.03934419       7.22229106      -0.00000000      -0.00814956       0.00233888      -4.60356807
Ni       8.59901633       8.58935574       8.63346046       0.00140533      -0.00022970       0.00249251      -6.26088432
Al      10.06688463      10.04883884      10.06942704      -0.00000000       0.00191263       0.00083838      -4.62321093
