128
Lattice="12.432893558286072 -0.07097178135218409 -0.3769181723481458 -0.05975328077070747 11.636389472797028 0.12021950071722616 -0.3779074864243407 0.12463241641399626 12.091898820067804" Properties=species:S:1:pos:R:3:forces:R:3:energies:R:1 energy=-626.6340166994272 stress="-0.00040755286585111573 -0.0004466497069014494 -0.0003183311291826621 -0.0004466497069014494 -1.2377151810476565e-05 0.0003501400402527983 -0.0003183311291826621 0.0003501400402527983 -0.00034436254283541976" free_energy=-626.6340166994272 pbc="T T T"
Al       0.17552276       0.66624179       0.00835286      -0.00511774      -0.00697500       0.00377830      -3.81392036
Al       2.06552102       2.23767784       0.88131389       0.00236891       0.00317023      -0.00621512      -4.20597762
Al      -0.00083695       0.12075489       2.63493800       0.00159114       0.00792506      -0.00177259      -3.70395778
Al       1.72156908       1.46172024       4.20876746      -0.00526396      -0.00613421      -0.00477155      -4.42053085
Ni       0.15453739      -0.02787143       5.89300507      -0.00344409       0.00979579      -0.00148860      -6.10665640
Al       1.59652279       1.58126206       7.42532363      -0.00541755      -0.00232643       0.00431149      -4.39501808
Al      -0.57649191       0.38134022       9.53823851       0.00042557      -0.00139488       0.00060554      -3.63533655
Al       1.85773737       1.67639227      10.15677237      -0.00149731       0.00163789       0.00411581      -4.14642784
Ni      -0.41422026       3.02179945       0.45940378      -0.00348223      -0.00646084       0.00385009      -6.09527656
Al       1.09510281       4.46296841       1.87654270       0.00549056       0.00674901      -0.00554137      -4.23707861
Ni      -0.18677736       2.70630399       3.04848576      -0.00044332       0.00125974      -0.00216869      -6.08035816
Al       1.34525782       4.38742882       4.47710701       0.00325107      -0.00131549       0.00541083      -4.50937632
Ni       0.25677070       2.66830055       5.80544451       0.00161233       0.00395941       0.00265297      -6.04929345
Al       1.58369899       4.39686619       7.26497514      -0.00266067      -0.00131273      -0.00006136      -4.40541335
Al      -0.37899600       3.14503156       9.99653069       0.00631121      -0.00178301      -0.00422044      -3.93233279
Al       1.98521132       4.46492520      10.61619094      -0.00185984       0.00168530       0.00087823      -4.23870882
Al       0.11527593       5.49407814      -0.26025799       0.01025091       0.00126706       0.00891647      -4.02328985
Al       0.81977426       7.28462838       1.78657763       0.00764417      -0.01371587      -0.00486322      -4.18203207
Ni      -0.43641319       5.84971209       3.32303921       0.00020538      -0.00919047      -0.00446321      -6.11041283
Al       1.13866990       7.39951587       4.47164165       0.00498138      -0.00282078      -0.00474487      -4.43599872
Ni       0.05832420       5.93429356       5.96747835      -0.00360526      -0.00872361       0.00003405      -6.07030490
Al       1.62962209       7.47078455       7.28432796       0.00281090      -0.00221553      -0.00017482      -4.43000256
Ni      -0.76375011       5.54249977       9.52528589      -0.01452971      -0.00637142       0.00175577      -5.76519634
Al       1.21478383       6.85869449       9.97464122       0.01144900       0.00590025       0.00191920      -4.07558965
Al       0.03775125       9.64139194       0.78969784       0.00122870      -0.00555058       0.00551953      -3.77929391
Al       2.19406892      11.02484576       1.50238050      -0.00778946      -0.00598320      -0.00379267      -3.91679775
Ni      -0.61566661       8.85408583       3.05548514      -0.01032076      -0.00123819      -0.00377407      -6.10994900
Al       1.11302761      10.05498990       4.39048994       0.00581973       0.00309583       0.00436265      -4.34265879
Ni      -0.24730327       8.81993366       6.17265738       0.00552441       0.00444258       0.00466659      -6.02726112
Al       0.88767885      10.30214335       7.90264769      -0.00186787       0.00066504       0.00667875      -4.28930432
Al      -0.53090885       9.11470948      10.10703741      -0.00359056       0.00201711       0.00365306      -3.94018951
Al       1.48340935      10.85489196      10.85488488       0.00158432      -0.00781437      -0.01099474      -4.11529276
Ni       3.82776014       0.25205145      -0.32183390       0.00169220       0.00241418      -0.00331699      -6.12297359
Al       4.46565414       1.33459256       1.76663301       0.00402843       0.01106034      -0.00597897      -4.52996017
Ni       3.37527593      -0.48888576       3.54510965      -0.00133834      -0.00622459       0.00771902      -6.07688120
Al       4.56800130       1.51993596       4.43751722      -0.00175399      -0.00061302       0.00309944      -4.44355982
Al       2.84198167      -0.38127926       5.97236926       0.00222787       0.00373927      -0.00001998      -4.06092212
Al       4.38867662       1.66866463       7.20783750      -0.00042121       0.00009262      -0.00181654      -4.35040070
Ni       3.08715612      -0.08191496       8.54498947       0.00256348      -0.00712772      -0.00125708      -6.31968546
Al       4.62371371       1.38647014       9.86948225       0.00928301      -0.00294259       0.00863771      -4.34081944
Ni       3.89795551       2.70733423      -0.65372787       0.00500354      -0.00583637      -0.00230360      -5.89542620
Al       4.19008975       4.42975244       1.01740115       0.00812762      -0.00629123      -0.00387270      -4.41644208
Ni       3.06869971       3.22826079       2.97016002       0.00260293      -0.00383941      -0.00285332      -6.08112719
Al       4.58449488       4.46487827       4.45387438      -0.00093316      -0.00718155       0.00080503      -4.54944879
Ni       2.98565747       3.01164720       5.70569897       0.00761828       0.00130040      -0.00545800      -6.17218301
Al       4.43694692       4.50419319       7.15798084       0.00627356      -0.00560289      -0.00155207      -4.62395908
Ni       3.16743762       3.15633170       8.80025058       0.00106659       0.01304464       0.00484226      -6.13256223
Al       4.62031239       4.63776157      10.20988754       0.00011713       0.00887867      -0.00248254      -4.42537232
Ni       2.38530150       6.12124262       0.42313457      -0.00945948       0.00288811      -0.00186292      -5.98431351
Al       4.77852758       7.20965536       0.79919229       0.00131630       0.00402804       0.00191955      -4.36217029
Al       3.10404128       5.95843769       2.84371125      -0.00357075       0.00556577       0.00182407      -4.06288700
Al       4.83962402       7.20319850       4.46244626      -0.00088245       0.00303479      -0.00099675      -4.47957773
Ni       2.83694855       5.98637793       5.68559614       0.00065108       0.00624164      -0.00953432      -6.21393267
Al       4.55018836       7.17759975       7.03756011      -0.00024419       0.01063933       0.00091727      -4.44666264
Ni       3.02181986       5.74009735       8.63491439       0.00341814       0.00441289       0.01184284      -5.98630267
Al       4.01701216       7.47708965       9.87327745      -0.00292710       0.00100993      -0.00026234      -4.23562473
Al       2.46703403       8.43864548      -0.06061898      -0.00258663      -0.00730068       0.00835163      -3.93314628
Al       4.73749123      10.27355278       1.49644116       0.00218540       0.00222076       0.00211935      -4.21945301
Al       3.17856525       8.75056634       2.97572980       0.01201827       0.00013065      -0.00349020      -3.99708980
Al       5.00859455       9.90426210       4.89531550       0.00475737       0.00405216       0.00118139      -4.43548481
Ni       2.98838341       8.68966161       5.48785033      -0.00935784      -0.00449518      -0.00162706      -6.13775969
Al       3.60387584       9.39805214       7.80860730      -0.00190160      -0.00453687      -0.00148619      -4.09141428
Ni       2.02846160       9.01248316       9.57877071      -0.01193076       0.00185859      -0.00103181      -5.98644273
Al       4.17748449      10.05487099      10.55155929      -0.00934376      -0.00210527      -0.00151461      -4.35945998
Al       6.33812308      -0.06652238      -0.33914409      -0.00826224      -0.00546972      -0.00407151      -3.97526976
Al       7.54741430       1.48594110       1.79111083      -0.00746589      -0.00148143      -0.00192854      -4.44575417
Ni       6.06483859      -0.10495323       3.21288029       0.00234359      -0.00043308       0.00501917      -6.06595307
Al       7.32710377       1.71538843       4.39344910      -0.00243318      -0.00528999      -0.00366169      -4.48213087
Ni       6.55818793      -0.09550861       5.84701372      -0.01154211       0.00665142      -0.00132700      -5.99236631
Al       7.30129726       1.64103505       7.31258884       0.00086056       0.00159200       0.00612990      -4.22998857
Al       5.60413809      -0.54288436       8.09860041      -0.00204431      -0.01107864      -0.00923739      -4.01543750
Al       7.37830385       1.66871863      10.08185010      -0.00102183      -0.00087661       0.00755240      -4.10480862
Al       6.20813372       2.92274487       0.04715214       0.00210315       0.00525223      -0.00512087      -4.17402759
Al       7.80767625       4.43199310       1.70460858      -0.00300081       0.00075194       0.00206056      -4.58624134
Ni       5.81234646       3.10137375       2.73795096       0.00182018       0.00333775      -0.01286030      -6.16322901
Al       7.36824577       4.35011104       4.30039422       0.00441909      -0.00227132       0.00122789      -4.47977800
Ni       5.90116339       3.06135617       5.89787783      -0.00499859      -0.00060690       0.00596263      -6.12454664
Al       7.37101684       4.37671960       7.39390351      -0.01217506      -0.00930814       0.00253484      -4.38004676
Ni       5.85785710       3.09923569       8.67989138       0.00742240       0.01260188      -0.00266360      -6.10194699
Al       7.35940985       4.60778387      10.16943978       0.00141216       0.00255014      -0.00699052      -4.44462614
Ni       6.35101528       5.37700713       0.07581857       0.00146657       0.00043407      -0.00700669      -5.93640970
Al       7.52337611       7.19030591       1.46730724       0.00149548       0.00047421       0.00002666      -4.49954055
Ni       5.76650598       5.77007899       2.60356544       0.00244206       0.00452869       0.00933060      -6.15904570
Al       7.55427398       7.14305613       4.14165320       0.00585890      -0.00002061      -0.00506270      -4.55186903
Ni       6.25003524       5.78591207       5.90001979       0.00227921      -0.01071647      -0.00983357      -6.16198738
Al       7.86210430       7.18942663       7.85916892       0.00299568       0.00989238       0.00684776      -4.50014451
Ni       5.82475498       5.98500047       8.67023161       0.00005491       0.00480438      -0.00066039      -6.08326769
Al       6.62971539       7.25963854      10.62751563      -0.00434634      -0.00174843      -0.00403900      -4.35254000
Ni       6.38272335       9.04351172       0.01528104       0.00227689       0.00241748       0.00076960      -6.11083615
Al       7.54474484      10.20259483       1.79734763      -0.00151240      -0.00400968       0.00160365      -4.41294530
Ni       5.89785279       8.52062503       2.66243762       0.01057956       0.00893644      -0.00586007      -6.09968359
Al       7.64265832       9.88144198       4.47610134      -0.01047000      -0.00390166      -0.00851949      -4.53620779
Ni       6.56089443       8.29873708       6.03168148      -0.00442152      -0.00839709       0.00382304      -5.89029639
Al       7.78258939       9.84030019       7.37755033       0.00206375       0.00098410      -0.00066381      -4.30996830
Ni       5.89017740       8.61624864       8.61978129      -0.00296375       0.01006916      -0.00622781      -6.05557231
Al       7.22895858      10.09723805      10.14011405       0.00202709      -0.00397203      -0.00360454      -4.15452226
Ni       8.74626742       0.28129557       0.03911780       0.00390146       0.00356832      -0.01079806      -6.07177350
Al      10.29356542       1.58571904       1.46694449       0.00518301       0.00579811       0.00069672      -4.48208308
Ni       8.96571726       0.09715475       3.21252044      -0.00216929       0.00202071       0.00331757      -6.22995076
Al      10.87589300       1.37084673       4.21700734       0.00237867      -0.00091276      -0.00369728      -4.40857100
Al       9.02885022       0.22276411       5.79323528       0.00670021      -0.00613362       0.00504694      -4.00170011
Al      11.17770800       1.40412488       6.91576686      -0.00374541       0.00750283       0.00901209      -4.08425226
Al       9.22570797       0.12249790       8.61211600       0.00714019       0.00228132      -0.00031457      -3.85711797
Al       9.98443561       1.72892880      10.80351308      -0.00304522      -0.00611504       0.00065091      -4.11238171
Ni       8.71171986       2.93163106      -0.06333780       0.00463509      -0.00602845       0.00551482      -6.17784773
Al      10.52711272       4.30396667       1.48373749      -0.00332725      -0.00427156      -0.00257912      -4.50106378
Ni       9.14428313       2.90629184       3.20034082      -0.00232568       0.00359272       0.00026003      -6.08654250
Al      10.98822297       4.10954345       4.35004274      -0.00243378      -0.00324801       0.00922542      -4.54440107
Ni       9.34029724       2.80774033       5.91164505       0.00026424       0.00069856       0.00839771      -6.22604410
Al      11.31486441       4.21829644       7.02692102      -0.00167179      -0.00360362      -0.00350818      -4.33657417
Al       9.45049386       2.85179676       8.41028631      -0.00586197      -0.00191252       0.00142591      -4.00907242
Al       9.93769782       4.41797191      10.70392349      -0.00467331       0.00758364       0.00243396      -4.28264037
Ni       8.91328164       5.88866842      -0.13102720       0.00148317       0.00111891       0.00138683      -6.09677268
Al      10.40730508       7.05118260       1.54280449      -0.00709101      -0.00528550       0.00324480      -4.34934972
Ni       9.35606079       5.55965960       3.28740032      -0.00478209       0.00156215      -0.00173940      -6.13546690
Al      10.77618404       7.28843462       4.36490957      -0.00317977       0.00529471       0.01055339      -4.55402746
Al       9.09246882       5.71457953       5.84882504       0.00119167       0.00760672       0.01281552      -4.12528444
Al      11.02921268       7.07973645       7.28661126       0.00123231      -0.00448027       0.00243604      -4.32462005
Ni       9.41286041       5.28448343       8.26999021      -0.00056371       0.00225372      -0.00055801      -6.00789497
Al       9.91525737       6.98538567       9.97731769       0.00612926       0.00230988      -0.00110268      -4.21860925
Al       9.07002799       8.44010780      -0.33255388      -0.01040160      -0.00411281       0.00214010      -3.82631128
Al      10.17036098      10.35628823       1.61954865       0.00583769       0.00274560      -0.00090334      -4.16453872
Ni       9.16955588       8.64478921       3.00024251      -0.00413560       0.00082318      -0.00661163      -6.09721952
Al      10.63041771      10.12547496       4.41458139       0.00678459       0.00895449       0.00984146      -4.46601460
Ni       9.20113695       8.38725627       5.85344889       0.00491892      -0.00638098      -0.00549769      -6.13751578
Al      10.62651103       9.98446044       7.21022852      -0.00491542      -0.00243070       0.00802948      -4.16896657
Ni       9.43383126       9.30180098       9.30148282       0.00379160      -0.00485663      -0.01226187      -6.00384535
Al      10.08644890      10.73834307      11.06195016       0.00552831       0.00360135      -0.00501064      -3.90189209
