125
Lattice="11.492045760076243 5.134250020982209e-06 -5.134251147128473e-06 5.134249889826864e-06 11.492045760077351 -5.134250605973644e-06 -5.13425050745202e-06 -5.134250598632772e-06 11.492045760077138" Properties=species:S:1:pos:R:3:forces:R:3:energies:R:1 energy=-677.7805401322436 stress="0.0004915649230664595 7.5988577995327415e-06 -7.5988578857341165e-06 7.5988577995327415e-06 0.0004915649230973757 -7.598857863762686e-06 -7.5988578857341165e-06 -7.598857863762686e-06 0.0004915649230908642" free_energy=-677.7805401322436 pbc="T T T"
Ni      -0.00852168      -0.00387127      -0.01276475       0.00471024      -0.00077248       0.00448137      -6.26648108
Al       1.44778223       1.42522921       1.43650444      -0.00232888       0.00232888       0.00000000      -4.63814412
Ni       0.01667422      -0.02014988       2.88506730      -0.00323268       0.00690190      -0.00166685      -6.05708552
Al       1.43616064       1.40671169       4.31118941       0.00247054      -0.00141644       0.00419042      -4.56259006
Ni       0.01403703      -0.02030165       5.73677310       0.00115097       0.00267553       0.00887408      -6.05870339
Al       1.44731136       1.42569495       7.18252732      -0.00216207       0.00216207      -0.00000000      -4.64295170
Ni      -0.00677148      -0.00639212       8.62722095      -0.00188947       0.00052320      -0.00441249      -6.26946647
Al       1.46629461       1.43684567      10.05386523       0.00141644      -0.00247054      -0.00419042      -4.56259006
Ni      -0.00952411       2.86975678      -0.00141025       0.00588843      -0.00315380       0.00330171      -6.25831603
Al       1.45095063       4.29606761       1.42057978       0.00152183       0.00096125       0.00146941      -4.63117089
Ni       0.00325466       2.88253555       2.87441913       0.00315380      -0.00588843      -0.00330171      -6.25831603
Al       1.43805968       4.30951588       4.31106855       0.00351221       0.00000000       0.00351221      -4.62830892
Ni       0.00099418       2.88336213       5.74785424       0.00140729      -0.00444988       0.00501923      -6.26090485
Al       1.45218483       4.29126218       7.19759340      -0.00202840       0.00381008      -0.00431194      -4.63966435
Ni      -0.01035582       2.87201212       8.61720039       0.00444988      -0.00140729      -0.00501923      -6.26090485
Al       1.44997966       4.29777756      10.05678725       0.00184976       0.00585120      -0.00480349      -4.62638232
Ni      -0.00010445       5.74591587       0.00010445       0.00276262       0.00276262      -0.00276262      -6.25268040
Al       1.43525851       7.19600511       1.44823762       0.00480349       0.00184976      -0.00585120      -4.62638232
Ni       0.00141025       5.73649621       2.87626354      -0.00330171       0.00588843       0.00315380      -6.25831603
Al       1.43818053       7.21232006       4.30916951       0.00419042       0.00141644       0.00247054      -4.56259006
Ni       0.01276475       5.73749863       5.74989159      -0.00448137       0.00471024       0.00077248      -6.26648108
Al       1.43657255       7.19580410       7.17138092      -0.00456907      -0.00009680       0.00526170      -4.64771360
Ni       0.01449749       5.74423331       8.61337886      -0.00253599       0.00482816      -0.00343142      -6.26108609
Al       1.43494117       7.18096148      10.05709946       0.00256240       0.00256240      -0.00256240      -4.62592901
Ni      -0.00178187       8.62468722      -0.01450262       0.00482816       0.00343142       0.00253599      -6.26108609
Al       1.44957714      10.06588707       1.44534912      -0.00118474      -0.00546710      -0.00193984      -4.57811762
Ni       0.01205843       8.63918164       2.88968309      -0.00166685      -0.00690190      -0.00323268      -6.05708552
Ni       0.01800019       8.63556058       5.73789467       0.00428940      -0.00291075       0.00934722      -6.06871745
Al       1.45060456      10.06892224       7.17059781      -0.00392342      -0.00526397      -0.01440788      -4.58574941
Ni       0.01308364       8.62575856       8.62554655      -0.00360872      -0.00148433      -0.00365743      -6.26955398
Al       1.44978379      10.06668002      10.05546807      -0.00009680      -0.00526170       0.00456907      -4.64771360
Ni       2.88954026       0.00812564      -0.01800019      -0.00291075      -0.00934722      -0.00428940      -6.06871745
Al       4.29917013       1.42343943       1.42765462       0.00546710       0.00118474       0.00193984      -4.57811762
Ni       2.86488580      -0.01652882       2.89100906       0.00934722       0.00291075       0.00428940      -6.06871745
Al       4.29837204       1.42322765       4.30958143       0.00526170       0.00009680      -0.00456907      -4.64771360
Ni       2.86843539      -0.01409886       5.73254041       0.00153792      -0.00572916       0.00169376      -6.07071023
Al       4.29612982       1.42240688       7.19445169       0.00526397       0.00392342       0.01440788      -4.58574941
Ni       2.88710516       0.00457092       8.63251422       0.00572916      -0.00153792      -0.00169376      -6.07071023
Ni       2.89316132       2.85633722      -0.01205843      -0.00690190       0.00323268       0.00166685      -6.05708552
Al       4.30951844       4.29962989       1.42661331      -0.00000000       0.00324718       0.00324718      -4.62448586
Ni       2.87688271       2.88153312       2.88577362       0.00077248      -0.00471024      -0.00448137      -6.26648108
Al       4.32458452       4.32776958       4.32519370      -0.00431194      -0.00381008      -0.00202840      -4.63966435
Ni       2.87939842       2.87977778       5.73783368      -0.00052320       0.00188947       0.00441249      -6.26946647
Al       4.31917000       4.30951588       7.19217887      -0.00552094       0.00000000      -0.00552094      -4.64178542
Ni       2.89330795       2.85896928       8.62828154      -0.00267553      -0.00115097      -0.00887408      -6.05870339
Al       4.31986162       4.30066606      10.04246862      -0.00546710       0.00193984       0.00118474      -4.57811762
Ni       2.87866690       5.76052294       0.00178187       0.00343142      -0.00253599      -0.00482816      -6.26108609
Al       4.29445236       7.19821028       1.45475300       0.00431194      -0.00202840      -0.00381008      -4.63966435
Ni       2.87484537       5.73566962       2.87400306       0.00501923       0.00444988       0.00140729      -6.26090485
Al       4.30951844       7.19333680       4.32032023       0.00000000      -0.00216207      -0.00216207      -4.64295170
Ni       2.86482481       5.73925397       5.75240729       0.00441249      -0.00188947      -0.00052320      -6.26946647
Al       4.32144282       7.19662488       7.16913870       0.01440788      -0.00392342       0.00526397      -4.58574941
Ni       2.86649408       5.75910395       8.61230238       0.00365743      -0.00360872       0.00148433      -6.26955398
Al       4.32065971       7.18259287      10.04225684      -0.00526170      -0.00456907       0.00009680      -4.64771360
Ni       2.87974338       8.61251953      -0.01308877      -0.00148433       0.00365743       0.00360872      -6.26955398
Al       4.29986689      10.06519545       1.43649930       0.00552094      -0.00552094      -0.00000000      -4.64178542
Ni       2.86376422       8.63933340       2.88704590       0.00887408      -0.00267553       0.00115097      -6.05870339
Al       4.29759407      10.04215527       4.32360830      -0.01440788       0.00526397      -0.00392342      -4.58574941
Ni       2.85953154       8.63313061       5.74144426       0.00169376       0.00572916       0.00153792      -6.07071023
Al       4.30951844      10.05553876       7.18252218      -0.00000000      -0.00000000      -0.00000000      -4.65868396
Ni       2.86735084       8.61337115       8.62468978       0.00179914       0.00179914      -0.00179914      -6.27821742
Al       4.32290193      10.06746313      10.04143606      -0.00526397       0.01440788       0.00392342      -4.58574941
Ni       5.72572380       0.00925235      -0.01404216       0.00267553      -0.00887408      -0.00115097      -6.05870339
Al       7.16905209       1.43775806       1.42476612      -0.00184976      -0.00480349       0.00585120      -4.62638232
Ni       5.75253767      -0.00672680       2.88609251      -0.00365743       0.00148433      -0.00360872      -6.26955398
Al       7.18409059       1.43807027       4.30795004      -0.00256240      -0.00256240       0.00256240      -4.62592901
Ni       5.75168091       0.00566060       5.74035971      -0.00179914      -0.00179914       0.00179914      -6.27821742
Al       7.16924796       1.43643889       7.19366858       0.00009680       0.00456907      -0.00526170      -4.64771360
Ni       5.73192146       0.01347990       8.62360524      -0.00572916      -0.00169376      -0.00153792      -6.07071023
Al       7.15273200       1.43483091      10.05587999      -0.00141644      -0.00419042      -0.00247054      -4.56259006
Ni       5.72587556       2.86095814      -0.01667935       0.00690190       0.00166685       0.00323268      -6.05708552
Al       7.16808625       4.29359636       1.42305104      -0.00152183       0.00146941       0.00096125      -4.63117089
Ni       5.74036998       2.87479844       2.88750636      -0.00343142      -0.00482816      -0.00253599      -6.26108609
Al       7.18377838       4.32125420       4.32298854      -0.00480349      -0.00585120       0.00184976      -4.62638232
Ni       5.73929351       2.85992780       5.73950295       0.00148433       0.00360872       0.00365743      -6.26955398
Al       7.16945974       4.31836570       7.19287049       0.00118474      -0.00193984      -0.00546710      -4.57811762
Ni       5.72949149       2.85501125       8.62715483       0.00291075      -0.00428940      -0.00934722      -6.06871745
Al       7.17124952       4.30951588      10.04425839       0.00232888      -0.00000000       0.00232888      -4.63814412
Ni       5.74215417       5.75879020       0.00851655      -0.00077248      -0.00448137      -0.00471024      -6.26648108
Al       7.18097721       7.18408513       1.43649930      -0.00351221       0.00351221       0.00000000      -4.62830892
Ni       5.74419152       5.74701963       2.86265305      -0.00501923       0.00140729       0.00444988      -6.26090485
Al       7.18085635       7.18218609       4.33930349      -0.00419042       0.00247054       0.00141644      -4.56259006
Ni       5.75527266       5.76006247       5.76631683      -0.00887408       0.00115097      -0.00267553      -6.05870339
Ni       5.75414596       5.76402050       8.60250036      -0.00934722       0.00428940       0.00291075      -6.06871745
Al       7.18287111       7.18420085      10.02574088      -0.00247054       0.00419042      -0.00141644      -4.56259006
Ni       5.73963847       8.61085026       0.00676121       0.00052320       0.00441249       0.00188947      -6.26946647
Al       7.16685206      10.07060997       1.41824560       0.00202840      -0.00431194       0.00381008      -4.63966435
Ni       5.75421208       8.62542387       2.86623739      -0.00441249      -0.00052320      -0.00188947      -6.26946647
Al       7.18246433      10.04439749       4.32278753       0.00456907       0.00526170      -0.00009680      -4.64771360
Ni       5.75950535       8.61446084       5.76011403      -0.00169376       0.00153792       0.00572916      -6.07071023
Al       7.16843232      10.04361438       7.19590567       0.00392342      -0.01440788      -0.00526397      -4.58574941
Ni       5.75059636       8.60555185       8.60493033      -0.00153792       0.00169376      -0.00572916      -6.07071023
Al       7.17172040      10.05553876      10.04472413       0.00216207      -0.00000000       0.00216207      -4.64295170
Ni       8.62938758      -0.00182880      -0.00099932      -0.00444988      -0.00501923      -0.00140729      -6.26090485
Al      10.06898959       1.42206594       1.45242396      -0.00096125      -0.00152183      -0.00146941      -4.63117089
Ni       8.60453427      -0.00565033       2.87122187       0.00253599      -0.00343142       0.00482816      -6.26108609
Al      10.06727451       1.42303178       4.30826225      -0.00585120      -0.00184976       0.00480349      -4.62638232
Ni       8.60594811       0.00651736       5.75274712       0.00360872      -0.00365743      -0.00148433      -6.26955398
Al      10.07378989       1.42082661       7.16745610      -0.00381008       0.00202840       0.00431194      -4.63966435
Ni       8.62579810       0.00818663       8.61264220       0.00188947      -0.00441249       0.00052320      -6.26946647
Al      10.05553619       1.43495176      10.05398095       0.00000000      -0.00351221      -0.00351221      -4.62830892
Ni       8.62856100       2.87160632      -0.00325980      -0.00588843       0.00330171      -0.00315380      -6.25831603
Al      10.05554132       4.30952101       1.43649930       0.00000000      -0.00000000       0.00000000      -4.60669445
Ni       8.61914133       2.87312102       2.87289929      -0.00276262      -0.00276262       0.00276262      -6.25268040
Al      10.03961667       4.32296927       4.32395437       0.00146941      -0.00096125       0.00152183      -4.63117089
Ni       8.62081875       2.85851395       5.75167064      -0.00482816       0.00253599       0.00343142      -6.26108609
Al      10.04565020       4.31940700       7.18252218       0.00324718      -0.00324718      -0.00000000      -4.62448586
Ni       8.62755343       2.86024669       8.61515791      -0.00471024       0.00448137      -0.00077248      -6.26648108
Al      10.04208793       4.32544053      10.04108999       0.00096125      -0.00146941      -0.00152183      -4.63117089
Ni       8.61578222       5.74743570       0.00951897      -0.00315380      -0.00330171      -0.00588843      -6.25831603
Al      10.07146598       7.19697608       1.44994757      -0.00146941       0.00152183      -0.00096125      -4.63117089
Ni       8.61762663       5.74928011       2.86347963       0.00330171       0.00315380       0.00588843      -6.25831603
Al      10.05554132       7.19380768       4.32078597       0.00000000      -0.00232888      -0.00232888      -4.63814412
Ni       8.60697846       5.76269966       5.76616506       0.00166685      -0.00323268      -0.00690190      -6.05708552
Al      10.04669150       7.19559746       7.17217387       0.00193984      -0.00118474       0.00546710      -4.57811762
Ni       8.60235754       5.75807874       8.59887930       0.00323268      -0.00166685       0.00690190      -6.05708552
Al      10.04380300       7.18127883      10.04205583       0.00585120       0.00480349      -0.00184976      -4.62638232
Ni       8.61804270       8.62087082       0.01034555      -0.00140729       0.00501923      -0.00444988      -6.26090485
Al      10.06543245      10.05554389       1.44638529      -0.00324718      -0.00000000      -0.00324718      -4.62448586
Ni       8.60627214       8.62290816       2.86448206       0.00448137       0.00077248       0.00471024      -6.26648108
Al      10.06439114      10.04519558       4.32257575      -0.00193984       0.00546710      -0.00118474      -4.57811762
Ni       8.60103670       8.61091124       5.76254400      -0.00428940       0.00934722      -0.00291075      -6.06871745
Al      10.05554132      10.04588720       7.17286549      -0.00000000       0.00552094       0.00552094      -4.64178542
Ni       8.60499473       8.60978454       8.59872754      -0.00115097       0.00887408       0.00267553      -6.05870339
Al      10.03728762      10.04047268      10.03985066       0.00381008       0.00431194       0.00202840      -4.63966435
