128
Lattice="11.581250882922621 3.183244934304058e-19 6.723377383882869e-21 -2.496470525984064e-17 11.57874889560492 -0.0003299080720687352 -1.6867267528292393e-18 -0.00032991753714359506 11.580536267448407" Properties=species:S:1:pos:R:3:forces:R:3:energies:R:1 energy=-683.1679191298155 stress="-0.00036161177009119564 -1.8466759054024548e-17 6.207719050437061e-18 -1.8466759054024548e-17 0.00019088138731648184 3.8022934799186256e-05 6.207719050437061e-18 3.8022934799186256e-05 -0.0003076289294116053" free_energy=-683.1679191298155 pbc="T T T"
Al       0.00000000       0.02056984      -0.00563053      -0.00000000      -0.00099299       0.00023180      -3.71056892
Al       1.51494715       1.50396514       1.52794058       0.00565210       0.00706790       0.00487924      -4.48926888
Ni       0.00000000      -0.03721907       2.86697966      -0.00000000       0.00238602       0.00081996      -6.36461557
Al       1.44878477       1.45045551       4.34284681      -0.00235176      -0.00301550       0.00045169      -4.56905623
Ni       0.00000000       0.00206212       5.77376671      -0.00000000       0.00158172       0.01284321      -6.20893465
Al       1.43208157       1.43852978       7.23764931       0.00170546       0.00310361       0.00256844      -4.58349361
Ni       0.00000000      -0.01179293       8.72361926      -0.00000000      -0.00131881      -0.00582514      -6.31304345
Al       1.50495516       1.50586692      10.04295096       0.00568967       0.00645906      -0.00296105      -4.50387972
Ni       0.00000000       2.82866124       0.01023889      -0.00000000       0.01455534       0.00114532      -6.30819896
Al       1.44063215       4.34134337       1.44774252       0.00383176      -0.00114384       0.00009114      -4.55581822
Ni       0.00000000       2.90557169       2.90282846      -0.00000000       0.00578233       0.00255098      -6.20609049
Al       1.44626723       4.34543555       4.34006442       0.00021461      -0.00015122       0.00461415      -4.56804018
Ni       0.00000000       2.89295887       5.78110662      -0.00000000      -0.00366068      -0.00236295      -6.23445454
Al       1.43874191       4.34533660       7.24025385      -0.00258075      -0.00095433       0.00211202      -4.58994008
Ni       0.00000000       2.90910204       8.67167489      -0.00000000      -0.00914111       0.00230972      -6.22713996
Al       1.43649567       4.34103889      10.13283698      -0.00035147      -0.00052891      -0.00677502      -4.58178585
Ni       0.00000000       5.78996909       0.00482477      -0.00000000      -0.00828708      -0.00129477      -6.20531515
Al       1.51078387       7.17745499       1.38258400       0.00702721      -0.00757098      -0.00623760      -4.48006834
Ni       0.00000000       5.83642932       2.88443076      -0.00000000      -0.00758343      -0.00071223      -6.28729993
Al       1.51858416       7.15490261       4.41149994       0.00613754      -0.00504346       0.00780632      -4.49077490
Ni       0.00000000       5.77931838       5.78784347      -0.00000000       0.00091251      -0.00159566      -6.22407237
Al       1.43613486       7.23529266       7.23925258       0.00033387      -0.00207416       0.00090728      -4.58106966
Ni       0.00000000       5.79464167       8.69337851      -0.00000000       0.00331039       0.00205799      -6.23386907
Al       1.44189500       7.23517295      10.12895819      -0.00197603      -0.00000575      -0.00248071      -4.57000218
Ni       0.00000000       8.72972956       0.03967822      -0.00000000      -0.00394291      -0.00255661      -6.35942665
Al       1.58621259      10.13548902       1.46017728       0.01424398       0.00137759      -0.00114872      -4.41718281
Al       0.00000000       8.66676931       2.92208335      -0.00000000      -0.00598439       0.00250105      -3.70016182
Al       1.52406508      10.20359738       4.39627899       0.00345303       0.00717469       0.01104442      -4.48935319
Ni       0.00000000       8.69269331       5.72269760      -0.00000000       0.00035742       0.01136040      -6.30926783
Al       1.43226087      10.13712039       7.23568722       0.00581313      -0.00110619       0.00010178      -4.57190791
Ni       0.00000000       8.67613372       8.68174325      -0.00000000       0.00373004      -0.00525593      -6.20937814
Al       1.50366969      10.07658281      10.06133019       0.00789300      -0.00644019      -0.00363416      -4.49457461
Ni       2.87674526       0.02430209      -0.02123689       0.00398774      -0.00033992      -0.00006581      -6.29937718
Al       4.35555835       1.44995678       1.44811505      -0.00091672       0.00204705      -0.00069155      -4.56866631
Ni       2.93558707       0.01443074       2.90666687       0.00201701      -0.00101363       0.00279069      -6.21353450
Al       4.35565814       1.45291517       4.34685773       0.00130548       0.00153189       0.00309218      -4.58038295
Ni       2.91440009       0.02356866       5.81313878      -0.00102327      -0.00079530      -0.00055278      -6.23190983
Al       4.35461616       1.45059233       7.24795148       0.00197435      -0.00167633      -0.00122530      -4.59457758
Ni       2.90340791      -0.00371758       8.66975374      -0.00177337       0.00336897       0.00021199      -6.22924050
Al       4.34895150       1.44772867      10.12048964       0.00186431      -0.00059126      -0.00283574      -4.58447297
Ni       2.86896990       2.86842060      -0.02526508       0.00771542       0.00650763      -0.00172481      -6.22014442
Al       4.27814051       4.27115387       1.36958237      -0.00105928      -0.00667417      -0.00867991      -4.50220514
Ni       2.91268971       2.91573458       2.91939756      -0.00416425      -0.00177314       0.00008404      -6.21806610
Al       4.28767237       4.28553880       4.42409170      -0.00499933      -0.00960464       0.00402540      -4.50615260
Ni       2.87590986       2.87623091       5.81810206       0.00086775       0.00230558      -0.00165670      -6.23489648
Al       4.36210686       4.34288449       7.24905379      -0.00612892       0.00011582      -0.00187259      -4.58498268
Ni       2.90794694       2.91801336       8.65889181       0.00021946      -0.00542434       0.00409134      -6.23379123
Al       4.34831844       4.33533582      10.12466541       0.00069943       0.00311138       0.00108983      -4.58311968
Ni       2.90235457       5.76910668      -0.02995486      -0.00502854       0.00059973      -0.00283254      -6.21998653
Al       4.29145766       7.30183041       1.37227528      -0.00709834       0.00466614      -0.00765670      -4.49429682
Ni       2.95335011       5.78614468       2.88697816      -0.00321393      -0.00449395       0.00193099      -6.29598725
Al       4.29711133       7.28855426       4.42292274      -0.00687411       0.00627601       0.00286863      -4.49945067
Ni       2.90961735       5.76595074       5.83236757      -0.00013091       0.00200924      -0.00275955      -6.22182513
Al       4.35370474       7.23084654       7.24358097       0.00020004       0.00103971       0.00186706      -4.58270051
Ni       2.89816827       5.78723134       8.68607211       0.00138255      -0.00011597      -0.00112893      -6.23778515
Al       4.34630747       7.23495244      10.12681802       0.00268503      -0.00178619      -0.00210687      -4.58057655
Ni       2.88755216       8.70378149      -0.03324810       0.00508440      -0.00458782      -0.00105166      -6.20865503
Al       4.36306158      10.13406483       1.44771980      -0.00586625       0.00053537       0.00011750      -4.54875137
Ni       2.88811523       8.65462536       2.92052429      -0.00035216       0.00537657       0.00011917      -6.28476533
Al       4.35419857      10.13119122       4.34665864       0.00046894       0.00215605       0.00136979      -4.56944066
Ni       2.87843025       8.70148440       5.81748717       0.00753650      -0.00260645       0.00108674      -6.22287426
Al       4.34905002      10.13211659       7.24010375       0.00455229       0.00237656       0.00224243      -4.59213048
Ni       2.90412326       8.66574386       8.66165259      -0.00150219       0.00073364       0.00148471      -6.23206793
Al       4.34686729      10.13688696      10.12491933       0.00255254       0.00113497      -0.00358394      -4.58167800
Ni       5.79062544       0.00509203      -0.00289574      -0.00000000      -0.00110457       0.00452503      -6.21904341
Al       7.22569253       1.44995678       1.44811505       0.00091672       0.00204705      -0.00069155      -4.56866631
Ni       5.79062544      -0.00289547       2.89509027      -0.00000000       0.00070283      -0.00430834      -6.21543060
Al       7.22559275       1.45291517       4.34685773      -0.00130548       0.00153189       0.00309218      -4.58038295
Ni       5.79062544       0.00153254       5.79029352      -0.00000000       0.00097995      -0.00412007      -6.23773894
Al       7.22663472       1.45059233       7.24795148      -0.00197435      -0.00167633      -0.00122530      -4.59457758
Ni       5.79062544      -0.00558807       8.68946260      -0.00000000       0.00583306       0.00434479      -6.23722042
Al       7.23229938       1.44772867      10.12048964      -0.00186431      -0.00059126      -0.00283574      -4.58447297
Ni       5.79062544       2.88025897      -0.01083715      -0.00000000      -0.00773738      -0.00814281      -6.22538232
Al       7.30311037       4.27115387       1.36958237       0.00105928      -0.00667417      -0.00867991      -4.50220514
Ni       5.79062544       2.95529008       2.89609450      -0.00000000      -0.01010769       0.00049026      -6.31139547
Al       7.29357852       4.28553880       4.42409170       0.00499933      -0.00960464       0.00402540      -4.50615260
Ni       5.79062544       2.88436543       5.79921665      -0.00000000       0.00600623       0.00712151      -6.22919315
Al       7.21914402       4.34288449       7.24905379       0.00612892       0.00011582      -0.00187259      -4.58498268
Ni       5.79062544       2.89780681       8.69109543      -0.00000000       0.00270627      -0.00186990      -6.24292112
Al       7.23293244       4.33533582      10.12466541      -0.00069943       0.00311138       0.00108983      -4.58311968
Ni       5.79062544       5.78304973       0.03395724      -0.00000000       0.00222663      -0.00677369      -6.30786794
Al       7.28979323       7.30183041       1.37227528       0.00709834       0.00466614      -0.00765670      -4.49429682
Al       5.79062544       5.77724770       2.88345383       0.00000000       0.00578854       0.00185608      -3.74127350
Al       7.28413956       7.28855426       4.42292274       0.00687411       0.00627601       0.00286863      -4.49945067
Ni       5.79062544       5.78708854       5.76465949      -0.00000000      -0.00087815       0.00176374      -6.31213551
Al       7.22754614       7.23084654       7.24358097      -0.00020004       0.00103971       0.00186706      -4.58270051
Ni       5.79062544       5.79443243       8.69768683      -0.00000000      -0.00470733      -0.00543631      -6.22173383
Al       7.23494342       7.23495244      10.12681802      -0.00268503      -0.00178619      -0.00210687      -4.58057655
Ni       5.79062544       8.69902406      -0.01367860      -0.00000000       0.00574057      -0.00018558      -6.22355522
Al       7.21818930      10.13406483       1.44771980       0.00586625       0.00053537       0.00011750      -4.54875137
Ni       5.79062544       8.63473148       2.89996402       0.00000000       0.00693041      -0.00170471      -6.28792618
Al       7.22705231      10.13119122       4.34665864      -0.00046894       0.00215605       0.00136979      -4.56944066
Ni       5.79062544       8.69449631       5.79950639      -0.00000000      -0.00389513      -0.00289324      -6.22616212
Al       7.23220086      10.13211659       7.24010375      -0.00455229       0.00237656       0.00224243      -4.59213048
Ni       5.79062544       8.67956067       8.68684832      -0.00000000      -0.00330361       0.00034350      -6.23768552
Al       7.23438359      10.13688696      10.12491933      -0.00255254       0.00113497      -0.00358394      -4.58167800
Ni       8.70450562       0.02430209      -0.02123689      -0.00398774      -0.00033992      -0.00006581      -6.29937718
Al      10.06630374       1.50396514       1.52794058      -0.00565210       0.00706790       0.00487924      -4.48926888
Ni       8.64566382       0.01443074       2.90666687      -0.00201701      -0.00101363       0.00279069      -6.21353450
Al      10.13246611       1.45045551       4.34284681       0.00235176      -0.00301550       0.00045169      -4.56905623
Ni       8.66685079       0.02356866       5.81313878       0.00102327      -0.00079530      -0.00055278      -6.23190983
Al      10.14916932       1.43852978       7.23764931      -0.00170546       0.00310361       0.00256844      -4.58349361
Ni       8.67784297      -0.00371758       8.66975374       0.00177337       0.00336897       0.00021199      -6.22924050
Al      10.07629572       1.50586692      10.04295096      -0.00568967       0.00645906      -0.00296105      -4.50387972
Ni       8.71228098       2.86842060      -0.02526508      -0.00771542       0.00650763      -0.00172481      -6.22014442
Al      10.14061873       4.34134337       1.44774252      -0.00383176      -0.00114384       0.00009114      -4.55581822
Ni       8.66856118       2.91573458       2.91939756       0.00416425      -0.00177314       0.00008404      -6.21806610
Al      10.13498365       4.34543555       4.34006442      -0.00021461      -0.00015122       0.00461415      -4.56804018
Ni       8.70534103       2.87623091       5.81810206      -0.00086775       0.00230558      -0.00165670      -6.23489648
Al      10.14250897       4.34533660       7.24025385       0.00258075      -0.00095433       0.00211202      -4.58994008
Ni       8.67330395       2.91801336       8.65889181      -0.00021946      -0.00542434       0.00409134      -6.23379123
Al      10.14475521       4.34103889      10.13283698       0.00035147      -0.00052891      -0.00677502      -4.58178585
Ni       8.67889631       5.76910668      -0.02995486       0.00502854       0.00059973      -0.00283254      -6.21998653
Al      10.07046701       7.17745499       1.38258400      -0.00702721      -0.00757098      -0.00623760      -4.48006834
Ni       8.62790077       5.78614468       2.88697816       0.00321393      -0.00449395       0.00193099      -6.29598725
Al      10.06266672       7.15490261       4.41149994      -0.00613754      -0.00504346       0.00780632      -4.49077490
Ni       8.67163354       5.76595074       5.83236757       0.00013091       0.00200924      -0.00275955      -6.22182513
Al      10.14511602       7.23529266       7.23925258      -0.00033387      -0.00207416       0.00090728      -4.58106966
Ni       8.68308261       5.78723134       8.68607211      -0.00138255      -0.00011597      -0.00112893      -6.23778515
Al      10.13935588       7.23517295      10.12895819       0.00197603      -0.00000575      -0.00248071      -4.57000218
Ni       8.69369872       8.70378149      -0.03324810      -0.00508440      -0.00458782      -0.00105166      -6.20865503
Al       9.99503830      10.13548902       1.46017728      -0.01424398       0.00137759      -0.00114872      -4.41718281
Ni       8.69313565       8.65462536       2.92052429       0.00035216       0.00537657       0.00011917      -6.28476533
Al      10.05718581      10.20359738       4.39627899      -0.00345303       0.00717469       0.01104442      -4.48935319
Ni       8.70282064       8.70148440       5.81748717      -0.00753650      -0.00260645       0.00108674      -6.22287426
Al      10.14899001      10.13712039       7.23568722      -0.00581313      -0.00110619       0.00010178      -4.57190791
Ni       8.67712762       8.66574386       8.66165259       0.00150219       0.00073364       0.00148471      -6.23206793
Al      10.07758119      10.07658281      10.06133019      -0.00789300      -0.00644019      -0.00363416      -4.49457461
