160
Lattice="13.776684764744605 -0.010182087766271442 0.4818563753708922 -0.005853847779163484 13.605292202226252 0.47253075999370514 0.48385658927514763 0.4690304270119765 13.594185603975744" Properties=species:S:1:pos:R:3:forces:R:3:energies:R:1 rep=5 n_sites=250 energy=-716.1835839904077 stress="0.00013056699811196494 -0.0003186543585707754 -7.645837335541765e-05 -0.0003186543585707754 6.378485623679202e-05 -9.101937000146833e-06 -7.645837335541765e-05 -9.101937000146833e-06 -8.522620261156605e-05" free_energy=-716.1835839904077 pbc="T T T"
Ni      -0.15713017       0.08794174       0.05275802      -0.00152744      -0.01024992       0.00581657      -6.00012735
Al       1.22586274       1.54444513       1.44390878       0.00156339      -0.00261266       0.00736588      -4.16140729
Ni      -0.20989091       0.03500921       2.74226406      -0.00475607       0.00203417      -0.00117012      -6.01085273
Al       1.33485891       1.27161404       4.30332357      -0.00474800      -0.00480720       0.00200574      -4.27955865
Al       2.14882470       1.92701396       6.90582257       0.00049031       0.00038571       0.00059259      -4.04955662
Ni       0.50068616       0.39820114       7.86601960      -0.00190582      -0.00100480       0.00305588      -5.86297191
Al       1.45056611       1.87171542       9.58904209       0.00011980       0.00509457       0.00157413      -4.02896003
Al       1.69377337       2.10269391      12.28688225       0.00105574      -0.00028086       0.00373883      -3.98700034
Al       1.54416029       4.10689039       2.63349613      -0.00221964      -0.00221330       0.00310245      -3.85007820
Ni      -0.26159552       2.58044972       3.17071432       0.00369323      -0.00032180       0.00464918      -5.88903788
Al       1.12176301       3.96973617       5.28880308       0.00481143       0.00237627       0.00013081      -3.76940973
Al       1.99355982       4.29446725       8.21283974      -0.00214601      -0.00043375      -0.00248154      -3.97862014
Al       1.31904634       4.63939710      10.81970973       0.00194780      -0.00202444       0.00090254      -3.87799629
Al       1.68613472       4.74559389      13.48390532       0.00273163       0.00482110      -0.00399599      -3.68037853
Al       1.42471912       6.63643201       1.33787040       0.00202085      -0.00333180      -0.00405820      -4.04986205
Al       1.64735132       6.52745572       4.11361004       0.00021864       0.00491716       0.00009554      -4.06277327
Al       1.04980438       6.43887948       6.76168704      -0.00167691       0.00032431      -0.00055763      -4.14249977
Ni       0.08563925       5.69830936       8.80600817       0.00097355      -0.00033144       0.00114529      -5.75147988
Al       1.88016166       7.16410847       9.45001176      -0.00133184      -0.00246656       0.00315128      -4.13539905
Al       2.65436839       7.12043258      12.13273760      -0.00666424       0.00225951       0.00305123      -4.12533571
Al       1.72227517       9.33345207       1.76932871      -0.00580032       0.00229318       0.00292006      -4.16172780
Ni       0.05609415       7.96264074       2.90252522       0.00224160      -0.00106992       0.00867792      -5.75513544
Al       1.28180950       9.35675971       4.48592834      -0.00174235      -0.00354008      -0.00176330      -4.41571602
Al       1.28514837       9.23459835       7.35596917      -0.00636534       0.00433191       0.00375607      -4.01945862
Al       2.84742062       9.83862379      10.00686403       0.00306329       0.00041225      -0.00028160      -3.84933445
Ni       0.90526827       8.53967728      11.19263785       0.00379735      -0.00167736       0.00033632      -5.75403994
Al       1.86405922      10.10566904      12.68309874      -0.00313946      -0.00129725      -0.00257953      -4.00892238
Al       1.07256415      12.05114567       1.88241561      -0.00569869       0.00496304      -0.00076060      -4.27770108
Al       1.27208669      12.22945190       4.61196261      -0.00083935       0.00325226       0.00132505      -4.30264412
Al       1.00241848      11.89296294       7.35209148       0.00709664      -0.00356652       0.00403267      -4.33569882
Al       1.96952848      12.64567593       9.89453332       0.00228697      -0.00596496      -0.00262653      -4.01398823
Al       1.91790568      12.81297401      12.77837344      -0.00362339       0.00685759       0.00227320      -3.94863469
Al       3.87410245       1.62889918       1.58230490      -0.00267215       0.00508795      -0.00154106      -4.24735510
Al       4.09542267       1.46268243       4.54300274       0.00082153       0.00234121       0.00193542      -4.20953422
Ni       2.64099262      -0.14154188       5.83403405      -0.00261594       0.00092197       0.00023814      -5.94411602
Al       4.77767971       0.90980390       7.12797482       0.00173335      -0.00053186      -0.00002796      -3.76128509
Al       4.20470920       2.29252068       9.45755454      -0.00739660      -0.00094081       0.00247783      -4.06083789
Ni       3.12872123       0.61938919      10.84821415       0.00797516       0.01126403       0.00415457      -5.75380067
Al       4.38524604       1.95260513      12.35160996      -0.00874833      -0.00661998      -0.01168410      -4.36319442
Al       3.99209221       4.32529633       1.50945618      -0.00024921      -0.00156066      -0.00657315      -4.11764858
Al       3.88829285       4.16999342       4.30093852      -0.00100245      -0.00025371       0.00219587      -4.17295789
Al       4.28239059       3.64131655       6.93774227      -0.00122598       0.00416486       0.00103896      -3.85227110
Al       4.24873941       5.04406530       9.65566082       0.00627814       0.00293559       0.00482424      -3.85627789
Al       4.24577988       4.84014373      12.37608380       0.00179743       0.00323982       0.00049863      -4.02082625
Al       4.13611860       6.94948862       1.74523785       0.00157722       0.00458601      -0.00499281      -4.38769880
Al       4.32003223       6.91686575       4.54264018       0.00223381       0.00137727      -0.00060968      -4.34964394
Al       3.92438642       6.36503485       7.22626962       0.00309749       0.00230105       0.00127248      -4.08653942
Al       4.69649969       7.73199948       9.59923862       0.00234386      -0.00096750       0.00470854      -3.67228831
Al       5.36664186       7.40322384      12.27898727       0.00245302      -0.00400837       0.00417665      -3.97571340
Ni       3.11355131       8.21050875       0.12105363       0.00595734      -0.00301208       0.00424683      -5.86013750
Al       4.36952263       9.84497510       1.74321232       0.00711392      -0.00333184       0.00199472      -4.38729584
Al       4.24807859       9.51661562       4.54146794      -0.00403353       0.00660536      -0.00011068      -4.41568793
Ni       2.68389721       7.99061661       5.91002604       0.00636453      -0.00373887      -0.00058847      -5.89602754
Al       4.11651959       9.18338844       7.42909752      -0.00294721       0.00599439       0.00352765      -4.24857737
Al       5.65258997      10.43241565       9.91779711      -0.00304308       0.00151369      -0.00335338      -3.67575972
Al       4.69598495      10.23649218      12.37361238       0.00133612      -0.00628775       0.00031643      -3.91967627
Al       3.80135721      12.51210159       1.97269249      -0.00050955       0.00154753       0.00013608      -4.30001926
Ni       2.73281434      10.89785334       3.25877045      -0.00015035      -0.00012202       0.00130194      -5.86885937
Al       4.17374700      12.30352854       4.78604524      -0.00482951      -0.00304926       0.00049114      -4.43762298
Ni       2.71924088      10.74620470       5.98505408       0.00433176       0.00245511       0.00033622      -6.17636048
Al       3.88377344      11.91020107       7.78160330       0.00348211       0.00220768      -0.00261215      -4.26542214
Al       4.79772734      13.11126878       9.97578840      -0.00049804       0.00415559      -0.00302579      -3.89219181
Al       4.75839321      12.86176749      12.68149010      -0.00482932       0.00215699       0.00014696      -3.93652634
Ni       5.36110678       0.15232801       0.24991063       0.00413860       0.01005683       0.01024729      -5.95806170
Al       6.90163321       1.50466749       1.37698756      -0.01525353      -0.01057789      -0.00461099      -4.43217948
Ni       5.41288834       0.26368673       2.91032503       0.00256657       0.00549860      -0.00403443      -5.99756715
Al       7.13393143       1.45318003       4.05099001      -0.00041545      -0.00293013      -0.00498105      -3.87580032
Al       7.52023207       1.23331757       6.60195947       0.00213232       0.00960217       0.00046671      -4.02362105
Al       6.86751402       1.66406541       9.50371326      -0.00354471       0.00002251       0.00625554      -4.37886439
Al       7.13540594       1.94775943      12.22200864       0.00512794       0.00031506       0.00111252      -4.42150594
Ni       5.33863215       2.93383447       0.03358501      -0.00280335       0.00122725       0.00672942      -6.13920720
Al       6.97284709       4.19626532       1.47229476      -0.00604482       0.00549694       0.00514259      -4.28880863
Ni       5.47325377       2.87783696       2.91591327      -0.00494006       0.00094085      -0.00284815      -6.14336974
Al       7.23941275       4.10405127       4.22478580      -0.00335336      -0.00010824       0.00128146      -4.31909341
Al       6.99024615       3.80273506       6.93571543       0.01418460      -0.01143690       0.00946590      -4.15260313
Al       7.19385477       4.60082480       9.45411570      -0.00187588      -0.00438117       0.00095309      -4.08433567
Ni       5.70584439       3.50742018      10.97063638       0.00207900      -0.00110952      -0.00987975      -5.94501392
Al       7.24342023       4.96882084      12.25464230       0.00167475       0.00146098      -0.00204467      -4.31914311
Al       6.90978178       6.78112031       1.47299829       0.00393283       0.00129903      -0.00070905      -4.06931498
Ni       5.56656930       5.45071422       3.04266284       0.00262271      -0.00366294       0.00145794      -6.14487432
Al       7.13469786       6.88443642       4.30469853       0.00508404      -0.00591997       0.00028103      -4.40241645
Ni       5.65634282       5.30414248       5.71012924      -0.00585488       0.00757275      -0.00760475      -6.00014131
Al       6.67246165       6.60361938       7.44269789       0.00415536       0.00297533       0.00362321      -4.00556090
Al       7.32300030       7.27434195       9.98634965       0.00436614       0.00058320       0.00208191      -3.62868571
Al       8.11497600       7.74785771      12.51407533       0.00009392       0.00134191      -0.00479295      -3.75418326
Ni       5.68391075       8.46821575       0.32502765      -0.00183079       0.00260194       0.00531911      -5.98664574
Al       7.38071613       9.57163576       1.86944077       0.00150594       0.00095810       0.00091661      -4.31231028
Ni       5.71537891       8.23419811       3.01437736      -0.00624545      -0.00627746       0.00018417      -5.99345744
Al       6.95577260       9.53878360       4.67846808       0.00435637       0.00432988       0.00665414      -4.35173014
Al       6.90749168       9.27608902       7.81353501      -0.00422350       0.00096433      -0.00595484      -4.05664990
Al       8.50966097       9.70542882      10.33317691      -0.00166822       0.00015329      -0.00247745      -3.66610022
Al       7.48677482      10.47374435      12.64724539       0.00068003       0.00006122      -0.00417716      -3.85870746
Al       6.63582078      12.19580534       2.24886012       0.00615448      -0.00295787      -0.00216803      -4.22595323
Al       6.84131768      12.45474509       4.97184298       0.00264835      -0.00408894       0.00213715      -4.34018888
Ni       5.51754272      10.79939135       6.31959649       0.00101259       0.00066231      -0.00198363      -6.07009104
Al       6.73976614      12.27471469       7.92095399      -0.00068642       0.00198241       0.00011507      -4.31422343
Al       7.46539223      12.43241968      10.62487992      -0.00192418       0.00139312      -0.00561096      -3.89529408
Al       7.67651680      13.03629156      13.26393751       0.00100092      -0.00493994      -0.00019826      -3.88052504
Al       9.55178373       1.45876430       1.54122458       0.00798909       0.00280862       0.00272737      -3.89948998
Al       9.64375718       2.27982614       4.19289426      -0.00161692      -0.00088246      -0.00295381      -3.56520394
Al      10.35671252       1.38715078       7.13533778       0.00616643      -0.00464732       0.00374358      -4.08199537
Ni       8.52823634       0.12445267       8.37949304      -0.00446833      -0.00828636      -0.00133739      -5.87990505
Al       9.80200353       1.46271048       9.91824883       0.00127876       0.00172584       0.00182540      -4.33824337
Al       9.78696140       1.46651440      12.49755306       0.00474087       0.00070071      -0.00093237      -4.38744562
Ni       8.28418993       2.95880735      -0.07432282       0.00203199      -0.00243049      -0.00371004      -5.94672008
Al       9.90893680       4.28139493       1.24193027       0.00196904       0.00289607      -0.00569357      -3.84717527
Al       9.88507404       5.01896099       3.91464184      -0.00219682       0.00054318      -0.00086718      -3.98995285
Al       9.73396387       3.85404708       6.54852147       0.00335902       0.00594898      -0.00483045      -4.28643995
Ni       8.62119413       2.73828094       8.33146169      -0.00655021       0.00486928      -0.00552530      -5.98787977
Al      10.03392424       4.48021673       9.31415280       0.00397872      -0.00025852       0.00161561      -4.01197606
Ni       8.58744730       3.28491226      10.91760487       0.00215471      -0.00152517      -0.00178833      -6.03543109
Al      10.19154998       4.69908483      12.02122990       0.00140666      -0.00288628      -0.00597727      -4.01992851
Al       9.46759494       7.02038566       2.00384023       0.00387045      -0.00360100      -0.00455815      -3.58238886
Al       9.73695189       7.52270840       4.78883597      -0.00113974       0.00119423      -0.00557642      -4.15322991
Ni       8.33006863       5.65929323       5.84640477       0.00279042      -0.00182710      -0.00107149      -6.03385739
Al       9.39866046       6.93130000       7.72181815      -0.00013520      -0.00091078       0.00137890      -4.16559335
Al      10.07598508       7.20528718      10.48730458      -0.00455272       0.00190127      -0.00264087      -3.68774335
Al      11.09736640       6.97541117      13.12983336       0.00075954       0.00267691      -0.00083991      -3.72635312
Al      10.11093899       9.60991566       2.60579205       0.00145101       0.00225490       0.00230917      -4.07494317
Al       9.98035582      10.30788049       5.23300610      -0.00776582      -0.00153187       0.00684776      -4.24353391
Al       9.64146727       9.72050899       7.86620349      -0.00178638      -0.00068128       0.00068839      -4.00618985
Al      11.21167809       9.76522631      10.17620772      -0.00000620      -0.00224509      -0.00176862      -3.57256285
Al      10.02842035       9.45376583      13.46423701       0.00216354      -0.00062288      -0.00191697      -3.91398405
Al       9.30003040      12.12506775       1.57892645      -0.00507010       0.00133184       0.00438064      -4.31462287
Ni       8.40664273      11.13033522       3.56488083      -0.00469170       0.00197887      -0.00075996      -5.89471435
Al       9.60797605      13.14128812       4.28355266      -0.00485024      -0.00167648       0.00049686      -3.91152689
Ni       8.00333019      10.86230991       6.37251880      -0.00245041      -0.00039137      -0.00539990      -5.70664453
Al       9.58023217      12.48778269       7.06663868       0.00188273      -0.00082230      -0.00160346      -4.11944643
Al      10.26993367      12.34890509       9.78337035      -0.00194179      -0.00431514       0.00086000      -4.05444780
Al      10.14896185      12.02009714      12.48203033      -0.00160244       0.00291539       0.00365876      -4.19356886
Ni      11.03761654      -0.04868165       0.20368189       0.00091733       0.00568884      -0.00138396      -5.95862122
Al      12.18638315       1.54141670       1.78071120      -0.00545290      -0.00380440      -0.00242121      -4.34555802
Al      11.92949517       1.05772865       4.71506563      -0.00037085      -0.00439361       0.00330099      -4.04885469
Al      13.18004678       2.05196570       6.88909296       0.00149881      -0.00007761      -0.00484131      -3.90391369
Al      12.52215855       1.61744129       9.49469332       0.00284848       0.00613586      -0.00382253      -4.04246634
Ni      11.42327152       0.22400963      11.14335562       0.00166859      -0.00382192      -0.00062392      -5.89477207
Al      12.80834554       1.84706225      12.34287488       0.00004493       0.00369461      -0.00447260      -4.20465262
Al      12.62565248       4.21213961       2.16588108      -0.00655030       0.00122772       0.00162352      -3.78437818
Al      12.13025442       3.96607355       5.01876249      -0.00140727       0.00260867      -0.00239812      -4.15079716
Al      12.45867658       4.50784487       7.68863389      -0.00135376       0.00051420      -0.00088466      -4.06790912
Al      12.48233330       4.13357935      10.49115905       0.00189516      -0.00343900      -0.00392551      -3.83704574
Al      12.75705131       4.51741392      13.11943660       0.00710187      -0.00257224       0.00065368      -3.65047670
Al      12.08345833       6.81284620       2.27234063       0.00057758      -0.00790768       0.00310590      -3.82058378
Al      12.77094073       6.82166115       5.23394629       0.00048306       0.00447706      -0.00232807      -4.26188669
Ni      10.91676117       5.83374488       6.19784374      -0.00731793      -0.00560696      -0.00331921      -5.97341256
Al      12.18236573       7.17575746       8.19900094      -0.00404478      -0.00019815      -0.00252056      -4.29064741
Al      12.83653613       7.21712701      10.84254187       0.00077354      -0.00051487       0.00138285      -4.08785457
Al      13.79728307       7.01068382      13.41189430      -0.00323483      -0.00518252      -0.00255336      -3.84198358
Al      12.87584678       9.52387215       1.75260663      -0.00042067       0.00186601       0.00200722      -4.18448260
Al      12.33328556       9.38385414       4.56255577       0.00730879      -0.00268882      -0.00103208      -4.03752833
Ni      11.12998479       8.39330823       6.46852463       0.00022997       0.00232021      -0.00398925      -5.89353130
Al      12.41825305      10.14554272       7.57373348      -0.00151542       0.00183321      -0.00001780      -3.92454213
Al      13.89050987      10.05172436      10.04714268       0.00065322      -0.00344531      -0.00163771      -3.85284598
Al      12.71415256       9.65786044      12.62095839      -0.00036732      -0.00313407       0.00263971      -4.18090182
Ni      11.08690720      10.64725625       0.65619351      -0.00127609      -0.00500443       0.00505043      -5.84690322
Al      12.08131832      12.18467058       2.35117521      -0.00246305      -0.00063171      -0.00278323      -4.39735649
Al      12.25534175      12.01862704       5.11079199      -0.00131578       0.00013049       0.00638917      -3.82110400
Al      12.27963278      13.02225385       7.61592994      -0.00116694      -0.00306895       0.00020944      -3.85751802
Al      12.95847019      12.50181502      10.28432907       0.00429647      -0.00341107      -0.00161557      -4.02377232
Al      13.02939889      12.54670272      13.02887111       0.00386636       0.00353344       0.00075372      -4.27945602
