231
Lattice="14.32271726632404 -0.0015374463844166914 -0.0014079787975827458 -0.0015374198131892331 14.322570005947815 -0.0006177478464594303 -0.0014079926964971662 -0.0006177878571966374 14.321959459908063" Properties=species:S:1:pos:R:3:forces:R:3:energies:R:1 energy=-1225.285258451514 stress="2.5877789735828148e-05 0.00017405218159231996 0.00018082106261620433 0.00017405218159231996 0.00017065619721200707 7.991555533928536e-05 0.00018082106261620433 7.991555533928536e-05 0.00018653274111128578" free_energy=-1225.285258451514 pbc="T T T"
Ni       0.01035407       0.04100209      -0.00229262       0.00046970       0.00118034      -0.00747388      -6.20760587
Al       1.44677179       1.45618792       1.43584847      -0.00576063       0.00071800       0.00326244      -4.63220651
Ni      -0.01092276       0.01268085       2.81792243       0.00478267       0.00626645       0.00828778      -6.13780006
Al       1.38892282       1.39309790       4.34590843       0.00022391      -0.00167237       0.00380175      -4.55909369
Al       1.37058133       1.39861146       7.13600188       0.00922529      -0.00850033      -0.00239248      -4.56194082
Ni       0.01784387      -0.02065689       8.63974460       0.01006472       0.00027471      -0.00084797      -6.20803085
Al       1.44719680       1.47484216      10.06122160       0.01171935      -0.00324289      -0.00050925      -4.56216782
Ni       0.02062104      -0.00513815      11.46700821       0.00090132      -0.00605732       0.00012756      -6.25942274
Al       1.46482529       1.46970425      12.84075273      -0.00292922       0.00114922       0.00280400      -4.54117065
Ni       0.02840736       2.87836284      -0.04330756      -0.00124210      -0.00061124       0.00191168      -6.25493827
Al       1.44084803       4.28408112       1.45485621       0.00400435       0.00315575      -0.00449854      -4.62823147
Ni       0.00416332       2.86162091       2.90736516       0.00472407      -0.00051972      -0.00635700      -6.25096615
Al       1.46570181       4.34296576       4.35376669       0.00122587       0.00612665      -0.00096868      -4.54465090
Ni       0.00963634       2.94013636       5.75942539       0.00591929      -0.00450766      -0.00403907      -6.21915523
Al       1.47669374       4.36274385       7.17403346       0.00220202       0.00173400      -0.00120713      -4.45755868
Ni       0.02383480       2.90639041       8.61017248       0.00299242      -0.00176054       0.00019355      -6.27975247
Al       1.50733903       4.33141148      10.00665748       0.00989664      -0.00420767       0.00354860      -4.29445692
Ni      -0.01548854       2.92609735      11.42042931       0.00446534      -0.00141980       0.00345066      -6.20987251
Al       1.47876149       4.30123976      12.82023879       0.00272603       0.00194680      -0.00084708      -4.43955725
Ni       0.05116020       5.71537586      -0.03352982      -0.00516831      -0.00045294      -0.00231284      -6.25377227
Al       1.45961762       7.14365010       1.43819502      -0.00219606       0.00145299       0.00294173      -4.63001193
Ni       0.02716821       5.72444398       2.89132423      -0.00361708       0.00200097       0.00196925      -6.24915026
Al       1.44825387       7.14973802       4.35108795      -0.00149480      -0.00083314      -0.00500065      -4.58228978
Ni      -0.03506719       5.73921212       5.78964230      -0.00409029      -0.00194740       0.00246559      -6.22095099
Al       1.48422943       7.17327581       7.15993136       0.00355404      -0.00074714       0.00906642      -4.29565075
Ni       0.04768746       5.79522302       8.60202889       0.00015983       0.00134791      -0.00257319      -6.22506829
Al       1.50298875       7.16798784      10.01459172       0.01354477      -0.00217165       0.00004865      -4.27591756
Ni      -0.00536558       5.70821800      11.38937177      -0.00762050       0.00265200       0.00431591      -6.21659302
Al       1.46546305       7.13354622      12.82959536      -0.00035382      -0.00478921      -0.00130017      -4.56029558
Ni       0.02676665       8.55209484       0.00628579      -0.00426141       0.00247665       0.00230614      -6.20402555
Al       1.42907246      10.03072837       1.44037246       0.00217256       0.00594924      -0.00147901      -4.44344132
Ni       0.00688553       8.56900763       2.84752827      -0.00589913      -0.00078412      -0.00180165      -6.20702253
Al       1.40206227      10.04330239       4.25966875      -0.00250584       0.00187966       0.00571844      -4.57991484
Ni      -0.00542102       8.62251609       5.75741857       0.00608631      -0.00161116       0.00640016      -6.29677331
Al       1.46615642      10.02034305       7.22763537       0.00461554       0.00161576      -0.00610662      -4.47968176
Ni       0.01597724       8.56626497       8.59945916      -0.00146666      -0.00534110      -0.00575508      -6.23239969
Al       1.45947107      10.02990706       9.96772740       0.00607844       0.00183947      -0.00208020      -4.45903327
Ni       0.02619577       8.59285415      11.42017506      -0.00171529      -0.00229039      -0.00038245      -6.28203568
Al       1.40306855      10.04096569      12.91056185       0.00186313       0.00112788      -0.00061544      -4.54477315
Al       1.39563315      12.85917874       1.42318630      -0.00185740      -0.00287521      -0.00430589      -4.43684209
Al       1.35912357      12.86964367       4.29950799      -0.00801657      -0.00367109      -0.00251741      -4.44553487
Ni       0.04672823      11.40563100       5.79538266       0.00122588       0.00309813       0.00037981      -6.07341750
Al       1.43044375      12.87501179       7.17956423      -0.00102429      -0.00596439      -0.00563947      -4.50931747
Ni      -0.07600473      11.43174864       8.55735419      -0.00034186       0.00247499       0.00328074      -6.23421235
Al       1.44973563      12.83012245       9.98742296       0.00107782      -0.00178034       0.00134174      -4.56249964
Ni       0.00034976      11.42721081      11.39563232       0.00542939       0.00536937      -0.00222231      -6.22132468
Al       1.39761134      12.84268648      12.91311493      -0.00259077      -0.00693898       0.00132411      -4.53851942
Ni       2.84644511       0.00339431      -0.02698754      -0.00433367       0.00223651      -0.00078863      -6.25962225
Al       4.29198541       1.42489917       1.44165772      -0.00625714       0.00240082       0.00100495      -4.64833620
Ni       2.81367752      -0.02630152       2.89245063      -0.00322581       0.00268902      -0.00062444      -6.25690212
Al       4.29266105       1.42096523       4.31591982      -0.00249744      -0.00130837       0.00097123      -4.64766462
Ni       2.87541961      -0.03719984       5.75116538       0.01034629       0.00213319      -0.00237823      -6.20900949
Al       4.30079170       1.41507308       7.17852993      -0.00446061      -0.00361195      -0.00603990      -4.65870047
Ni       2.81892910       0.04671823       8.60504565       0.00061347       0.00636519       0.00071043      -6.21772830
Al       4.26842251       1.45847982      10.04763884      -0.00852078       0.01046031       0.00302782      -4.58814062
Ni       2.84817819      -0.05787228      11.43390878       0.01186077      -0.00489282       0.00244051      -6.21856474
Al       4.27065888       1.45899563      12.83394347      -0.00450541       0.00463041      -0.00157354      -4.55556343
Ni       2.88192190       2.89014338      -0.00193968      -0.00143122       0.00062827       0.00231734      -6.20498436
Al       4.32252664       4.29037995       1.45804690      -0.00939638       0.00092498      -0.00731922      -4.63331939
Ni       2.86521716       2.87019235       2.92263225      -0.00306997       0.00739958      -0.01170156      -6.25225596
Al       4.28290795       4.30469038       4.36683532      -0.00178901       0.00151848      -0.00115995      -4.56138203
Ni       2.83566030       2.82726875       5.76403645       0.00014382       0.00179839      -0.00081934      -6.21924805
Al       4.26435173       4.30034316       7.16603462       0.00157543       0.00442917       0.00157464      -4.47865488
Ni       2.84524707       2.85687545       8.54793028       0.00535686      -0.00210074       0.00279239      -6.15099089
Al       4.24352616       4.28255161      10.01115345      -0.01059341       0.00338935       0.00227044      -4.31382082
Al       4.27478188       4.28325856      12.80598721      -0.00739247       0.00264430       0.00455091      -4.44688711
Ni       2.87465166       5.68795880      -0.00497658       0.00015619      -0.00080943       0.00074086      -6.20451179
Al       4.29771050       7.14434792       1.41541931       0.00029848       0.00564893      -0.00048475      -4.65264835
Ni       2.88819046       5.73431724       2.87145532      -0.00429795       0.00397272      -0.00818561      -6.20280601
Al       4.29166416       7.16748658       4.39671488      -0.00065389       0.00215961       0.00275819      -4.42796624
Al       4.25732180       7.18699535       7.16128942      -0.00246777       0.00477259      -0.00114955      -4.03207558
Al       4.23299329       7.14857330       9.96354394      -0.00509021       0.00040270       0.00071557      -4.16206729
Al       4.25569147       7.11431739      12.84928761      -0.00735164      -0.00133350       0.00093896      -4.55355148
Ni       2.84816239       8.58162101      -0.03511192       0.00145226       0.00169411       0.00100455      -6.26278659
Al       4.30691961      10.00442072       1.42945177      -0.00023675       0.00737025      -0.00255464      -4.63889881
Ni       2.88071909       8.57579640       2.92278404       0.00440387      -0.00318589       0.00106155      -6.26880203
Al       4.32096135      10.01579791       4.33136888      -0.00067008      -0.00920055      -0.00024222      -4.56927664
Ni       2.84286519       8.65196246       5.75760958       0.00471773      -0.00103754      -0.00233518      -6.04397002
Al       4.28820669      10.02089399       7.19167610      -0.00149165      -0.00855877       0.00477650      -4.19329001
Al       4.28199409      10.02854731       9.94487711       0.00391020      -0.00506225      -0.00224089      -4.30548573
Ni       2.89438101       8.63734983      11.42025074      -0.00037664       0.00414518      -0.00211736      -6.14043642
Al       4.30514441      10.02938758      12.89235722      -0.00260973       0.00095550       0.00646462      -4.64380653
Ni       2.89008972      11.45835489       0.02402463       0.00040483      -0.00342365      -0.00366058      -6.20236198
Al       4.31815377      12.92321278       1.43147483       0.00188772      -0.00663111       0.00424575      -4.64447760
Ni       2.88521029      11.46432160       2.84710388      -0.00094878      -0.00424324      -0.00179080      -6.20947145
Al       4.29779577      12.88419410       4.30170117       0.00417371       0.00621025       0.00058912      -4.64791746
Ni       2.83409827      11.43809943       5.70371932      -0.00059750      -0.00517264      -0.00262326      -6.24235430
Al       4.25232759      12.87609794       7.21090195       0.00125433       0.00209998       0.00205286      -4.57481919
Al       4.26504958      12.86796747       9.97775509      -0.00169795       0.00170990      -0.00134742      -4.56926480
Ni       2.85166876      11.42729747      11.47624637      -0.00308120       0.00412830       0.00093209      -6.22121837
Al       4.30404372      12.88628044      12.87972630      -0.00491975      -0.00094220       0.00215787      -4.64221335
Ni       5.76737415       0.03670033      -0.03949094       0.00110521      -0.00602300      -0.00165888      -6.25550788
Al       7.18559301       1.48049335       1.39488451      -0.00003894      -0.00064507      -0.00235838      -4.54863633
Ni       5.76300575       0.01559407       2.88773562       0.00244694      -0.00165595       0.00148488      -6.24915961
Al       7.19725655       1.39432339       4.36124975       0.00243980      -0.00251804      -0.00056183      -4.55809274
Ni       5.70021045      -0.00973709       5.76002756      -0.00650344       0.00237801      -0.00474804      -6.20585647
Al       7.22214470       1.43722823       7.18053907       0.00426902       0.00336196       0.00120621      -4.46781883
Ni       5.77647977       0.00088942       8.60554551       0.00318628       0.00411774       0.00219589      -6.27459944
Al       7.22920682       1.42866823      10.00836902       0.01383810      -0.00196512      -0.00124712      -4.46812565
Ni       5.68873916       0.01884019      11.42813963      -0.00842801       0.00248299       0.00503974      -6.21265176
Al       7.22158330       1.43775800      12.86724961       0.01265130       0.00398551      -0.00210553      -4.43940291
Ni       5.68574022       2.87145293      -0.05190276      -0.01404725      -0.00059449       0.00275723      -6.21228143
Al       7.15154135       4.27459642       1.42536567       0.00055614       0.00085794      -0.00628141      -4.56202847
Ni       5.74770214       2.84939320       2.89536484       0.00305905       0.00476852      -0.00741183      -6.25169604
Al       7.15881881       4.31778754       4.32608421      -0.00430089       0.00095774      -0.00226177      -4.64872987
Ni       5.75860726       2.85388496       5.77204771      -0.00248733       0.00777553      -0.00633182      -6.27467593
Al       7.19404727       4.26338441       7.21806355      -0.00327154       0.00084776       0.00277911      -4.60422153
Ni       5.68754532       2.86708559       8.61753704      -0.01418759       0.00994943       0.00290894      -6.23497088
Al       7.23031045       4.32317936       9.98551496       0.00992695       0.00169865       0.00586265      -4.48474691
Ni       5.83329455       2.89088875      11.41638624      -0.00324155      -0.00122032       0.00880102      -6.23665994
Al       7.22013035       4.31316247      12.86282092       0.00586483       0.00046793       0.00311603      -4.44187757
Ni       5.73750640       5.69529611      -0.06972073       0.00548658       0.00191199      -0.00151242      -6.26276943
Al       7.12653772       7.14879171       1.44495904       0.00520342       0.00293749      -0.00249948      -4.62424973
Ni       5.69733389       5.75219346       2.94901740      -0.00074437       0.00320560      -0.00383568      -6.25312526
Al       7.14795558       7.17922557       4.36349276       0.00372135       0.00050684      -0.00520099      -4.56727559
Ni       5.73805233       5.71315632       5.81554636      -0.00297696      -0.00125484       0.00231160      -6.14004298
Al       7.10636292       7.23123147       7.15120861       0.00615623      -0.00200069       0.00411466      -4.47085339
Ni       5.70865084       5.72796190       8.57277053       0.00857589      -0.00128870      -0.00286626      -6.15426510
Al       7.12294456       7.17574736       9.99912136       0.00868026      -0.00384664      -0.00161375      -4.49796330
Ni       5.68923730       5.71753528      11.36624499      -0.00675730       0.00609597       0.00698436      -6.22753514
Al       7.17293911       7.12281196      12.81046713       0.00635628       0.00245805       0.00689086      -4.56833871
Ni       5.72446502       8.55930121      -0.03147287       0.00451420       0.00320359       0.00097855      -6.24792468
Al       7.15874941      10.02416015       1.43162726      -0.00508570      -0.00223188      -0.00466340      -4.63918213
Ni       5.71344939       8.57485432       2.86483972       0.00164341       0.00191642      -0.00233711      -6.20157140
Al       7.11051647       9.98341191       4.35356796       0.00001534      -0.00132755       0.00435467      -4.55275733
Al       7.13823408       9.98106269       7.17886536      -0.00090515      -0.00915644      -0.00118518      -4.46753555
Al       7.12402765       9.98906912       9.96658945      -0.00118415      -0.00178727       0.00107270      -4.56417240
Ni       5.66404540       8.55114367      11.43791342       0.00112404      -0.00396812       0.00575253      -6.21603995
Al       7.13337067      10.00821450      12.86010803       0.00073799      -0.00240441      -0.00148044      -4.64598216
Ni       5.73697169      11.46691722      -0.01185871       0.00235756      -0.00101711       0.00760073      -6.24336308
Al       7.15351230      12.87856709       1.44294113       0.00093514       0.00474284      -0.00413955      -4.63103434
Ni       5.73249502      11.44451797       2.89394603       0.00141884      -0.00243489       0.00219067      -6.25277580
Al       7.18818982      12.90983633       4.34189299      -0.00370386       0.00887271       0.00618380      -4.56855752
Ni       5.72151888      11.49050311       5.78945400      -0.00943155       0.00065304       0.00588336      -6.22704952
Al       7.20202601      12.91040024       7.13469156      -0.00013525       0.01067246       0.00060386      -4.57425272
Ni       5.74711481      11.46285588       8.56336430      -0.00329505       0.00028223       0.00074994      -6.14345794
Al       7.19301229      12.89379667      10.04117294       0.00008739       0.01348108      -0.00312348      -4.57661225
Ni       5.71581788      11.44783636      11.38970841      -0.00587115      -0.00529535       0.00052173      -6.27030426
Al       7.17441390      12.90941837      12.82628713       0.00082028       0.00158612      -0.00318679      -4.56303599
Ni       8.58939651      -0.03615314       0.02707400      -0.00397114       0.00264809      -0.00450026      -6.13502372
Al      10.02477960       1.43202107       1.42439113       0.00702496       0.00263161       0.00209586      -4.56535305
Ni       8.59122212       0.01145577       2.82945806      -0.00453662       0.00278533      -0.00287780      -6.21116708
Al      10.01424401       1.40598304       4.32280172      -0.00299391      -0.00708945       0.00480089      -4.56858794
Al       9.95289129       1.42598832       7.15770085      -0.01007993       0.00092757      -0.00173163      -4.45906190
Ni       8.60937663      -0.05415552       8.58510836      -0.00552880       0.00388201      -0.00113507      -6.11603507
Al       9.97149912       1.40780816      10.01693623      -0.00778241       0.00267500       0.01072141      -4.47266910
Al       9.95545175       1.43911950      12.88646249      -0.00832450       0.00205454      -0.00370532      -4.44549522
Al       9.97062409       4.25271955       1.40941658       0.00574779      -0.00282604      -0.00212074      -4.54658905
Ni       8.58705699       2.84406644       2.92451786      -0.00472747      -0.00107478      -0.00000980      -6.20855916
Al      10.02988898       4.31262366       4.31137112      -0.00260681       0.00139640      -0.00086502      -4.65218868
Ni       8.60538497       2.90966011       5.72041548      -0.00691931      -0.00269683      -0.00890800      -6.13954045
Al      10.02911666       4.31425936       7.23537977      -0.00256325      -0.00442852       0.00557123      -4.47686276
Al       9.97509278       4.35251183       9.96133998      -0.00688563       0.00384644      -0.00304748      -4.30651410
Ni       8.59851774       2.88124567      11.42976964      -0.00212118      -0.00524794       0.00457730      -6.06849398
Al       9.94333206       4.31239179      12.88374888      -0.00395866      -0.00353471      -0.00384777      -4.45084484
Ni       8.56809476       5.76905879       0.03633270       0.00079250      -0.00031405       0.00122132      -6.13653700
Al      10.03005390       7.19035787       1.44832211       0.00703952      -0.00430850       0.00276950      -4.64078357
Ni       8.57553407       5.72397167       2.85618870       0.00572517      -0.00336458      -0.00677368      -6.25464817
Al      10.02120155       7.15851338       4.27903499       0.00020168      -0.00207808      -0.00281780      -4.65493155
Ni       8.60304040       5.74063539       5.79385022      -0.00509767       0.00336213      -0.00197980      -6.28112980
Al      10.09288812       7.17589838       7.19755518      -0.00946331      -0.00289987       0.01705238      -4.47712731
Ni       8.55299171       5.82539021       8.54352246      -0.00731730       0.00169577       0.00310359      -6.07126492
Al      10.01511046       7.11228695      10.03312626      -0.00074683      -0.00737450      -0.00886008      -4.38340916
Al       9.98239430       7.14356632      12.87542009       0.00008783      -0.00496352      -0.00282760      -4.56074328
Ni       8.55871887       8.56630525      -0.02051445       0.00879757       0.00459183      -0.00547870      -6.24886157
Al       9.99743380      10.01872351       1.42897382       0.00768773       0.00711205       0.00131547      -4.64766569
Ni       8.56082133       8.60151716       2.90069946       0.00148296      -0.00322678       0.00396211      -6.25057833
Al      10.07568030      10.05164707       4.31798093      -0.00262332      -0.00317206       0.01109252      -4.57763261
Ni       8.65831628       8.61845701       5.76752790      -0.00044710      -0.00651498       0.00983395      -6.23423258
Al      10.11143383      10.02212403       7.16888677       0.00810159      -0.00501599      -0.00196489      -4.45350867
Ni       8.60262629       8.55581220       8.59137656       0.00030662      -0.01268342      -0.00358884      -6.23544535
Al      10.07098213       9.99091006       9.98223452       0.00938533       0.00221248      -0.00036028      -4.57216907
Ni       8.58338947       8.62254434      11.39425871       0.00183230       0.00533884      -0.00163874      -6.21098277
Al      10.01812501      10.00773520      12.89083391      -0.00040208       0.00113566      -0.00411637      -4.63913936
Ni       8.57555503      11.47018094      -0.03211170       0.00348098      -0.00361654       0.00161896      -6.25187116
Al      10.02494948      12.89215925       1.43888137       0.00496626      -0.00802194       0.00234524      -4.64901057
Ni       8.59789947      11.45875475       2.92472463      -0.00688069      -0.00011106      -0.00136255      -6.25923281
Al      10.02587871      12.88184267       4.35674535      -0.00600133       0.00402887       0.00693320      -4.45864694
Ni       8.56065408      11.38330622       5.73662302      -0.01062885      -0.00088000      -0.00363311      -6.16017067
Al      10.02945606      12.86968589       7.07620880      -0.00412717       0.00175587      -0.01140111      -4.46899601
Ni       8.63121541      11.44491452       8.56542074      -0.00771636       0.00383492       0.00604796      -6.28675534
Al      10.00528352      12.90691037      10.06383652       0.00047324      -0.00006021      -0.00514698      -4.58395132
Ni       8.58694817      11.39308708      11.42947291       0.00075126       0.00107543       0.00349075      -6.20569832
Al       9.99188571      12.90011523      12.84767124      -0.00564390      -0.00192886      -0.00119379      -4.55870135
Ni      11.43573249       0.01335904      -0.05251386       0.00323895      -0.00496542      -0.00510301      -6.26689113
Al      12.87901238       1.44360963       1.42462147       0.00425894      -0.00158226       0.00201315      -4.64890857
Ni      11.49884398      -0.04614454       2.94098117       0.00259243      -0.00321885       0.00900228      -6.26919470
Al      12.91827204       1.43072695       4.33760578      -0.00419738      -0.00333444       0.00579663      -4.57492337
Ni      11.46967914       0.03051962       5.72769720      -0.00188256       0.00231639      -0.00138260      -6.11507062
Al      12.93236926       1.41463535       7.16009636       0.00305281      -0.00225051      -0.00867331      -4.58339645
Ni      11.41418206      -0.00668631       8.54287592      -0.00141956       0.00329531      -0.00032622      -6.27720421
Al      12.88067525       1.43693401      10.02900585      -0.00395956      -0.00344086      -0.00184844      -4.68638178
Ni      11.48424506       0.00606114      11.47900034       0.00155190      -0.00088815      -0.00172855      -6.20006041
Al      12.88792517       1.46757145      12.85514455       0.00605112       0.00074600       0.00089637      -4.65532075
Ni      11.46688799       2.86899976      -0.01571279       0.01146862      -0.00256058       0.00507286      -6.19947893
Al      12.90786378       4.29352481       1.42067711      -0.00038452      -0.00521347      -0.00141826      -4.64277896
Ni      11.44262452       2.86374947       2.85753298       0.00353479      -0.00199375      -0.00623311      -6.25241983
Al      12.87279630       4.29484684       4.31293598       0.00054694       0.01127506       0.00191749      -4.64667210
Ni      11.43217768       2.85577884       5.79249155      -0.00074638       0.00188213       0.00071615      -6.27154557
Al      12.85317340       4.33705916       7.21930615      -0.00135238      -0.00018072       0.00024797      -4.56724825
Ni      11.46908573       2.82794256       8.59330111      -0.00092503      -0.00249350      -0.00413307      -6.14378449
Al      12.83369860       4.33250237       9.97783576      -0.00648696       0.00240594      -0.00414830      -4.57776910
Ni      11.34013925       2.90358144      11.41340459       0.00892562      -0.00213211       0.00131039      -6.26841285
Al      12.87186348       4.30069069      12.86894725      -0.00249159      -0.00272133      -0.00442766      -4.65480940
Ni      11.40352966       5.69902824      -0.01259711       0.00851295       0.00668221      -0.00596736      -6.25571619
Al      12.89105235       7.12827757       1.41547872      -0.00070422       0.00307291       0.00767635      -4.64209958
Ni      11.45310514       5.71102406       2.84716369      -0.00330929       0.00357033       0.00215463      -6.24330527
Al      12.90829498       7.15560794       4.28588844      -0.00373871      -0.00273328      -0.00476306      -4.64913225
Ni      11.46123459       5.75231703       5.72782428      -0.00092641      -0.00565779      -0.00621731      -6.20844996
Al      12.85312055       7.17584652       7.20402263       0.00867158      -0.00603946       0.01642507      -4.46665091
Al      12.84806560       7.16176976       9.99389992       0.00252645      -0.00449619      -0.01047241      -4.46292733
Ni      11.46463526       5.74371198      11.46780342       0.01426014      -0.00323185       0.00661670      -6.13795101
Al      12.90987676       7.14141628      12.88915104       0.00221081       0.00181875       0.00049383      -4.65256005
Ni      11.48278749       8.60420717      -0.00578747       0.00124204       0.00260955       0.00059073      -6.25579480
Al      12.94323277      10.06286792       1.41440080      -0.00422961       0.00940314       0.00036119      -4.43441215
Ni      11.50475056       8.64297362       2.87257378      -0.00341081      -0.00138895       0.00018663      -6.25844532
Al      12.91439065      10.08787659       4.29812955       0.00074949       0.00684334       0.00565080      -4.46914541
Ni      11.47721936       8.55091523       5.69306854      -0.00031772       0.00690870       0.00608352      -6.14558361
Al      12.81313124      10.00894104       7.16408746      -0.00400584       0.00236579       0.00097244      -4.46379775
Al      12.84324358       9.97466679       9.99305795      -0.00656290      -0.00042957      -0.00659314      -4.57108088
Ni      11.44259305       8.54414090      11.48109364       0.00026300       0.00374739       0.00075496      -6.20896718
Al      12.92506845      10.02819773      12.89875318       0.00242679      -0.00234515      -0.00139574      -4.55204750
Ni      11.43616700      11.45563383       0.00053926      -0.00053981      -0.00081605       0.00649508      -6.20703542
Al      12.90226671      12.88915490       1.40631344      -0.00729912      -0.00890282       0.00067302      -4.45435628
Ni      11.45869435      11.46799767       2.81834090      -0.00622864      -0.00329822      -0.00529755      -6.13916945
Al      12.93858142      12.84207085       4.34050635       0.01101875      -0.01094453       0.00954698      -4.28530151
Al      12.89506701      12.90451523       7.10119103      -0.00086428      -0.00103444      -0.00637610      -4.48121028
Ni      11.45862912      11.50426822       8.61303778      -0.00003161      -0.00920816       0.00458327      -6.15015013
Al      12.87731745      12.90634594      10.02836005       0.00023894      -0.00209847      -0.00618510      -4.66309842
Ni      11.46968490      11.44126623      11.46654835       0.00343576      -0.00037181      -0.00546520      -6.26658912
Al      12.92473395      12.85751954      12.91125090       0.00507564      -0.00261062      -0.00515331      -4.55012788
