128
Lattice="11.475174092681367 0.00042093853013880746 -0.0007050472023744933 0.00042096660400805743 11.477469833916295 7.611953803896003e-06 -0.0007049447327122343 7.450430824545604e-06 11.48658034952507" Properties=species:S:1:pos:R:3:forces:R:3:energies:R:1 energy=-704.2755109700058 stress="0.001118198104856408 2.9533165255326872e-05 0.00012925358841154612 2.9533165255326872e-05 0.0006224092636038979 -9.564302838364156e-06 0.00012925358841154612 -9.564302838364156e-06 -0.0005220187715825257" free_energy=-704.2755109700058 pbc="T T T"
Ni      -0.05909771       0.00919616       0.03515723       0.00176913       0.00032555       0.00389536      -6.27091781
Al       1.41456029       1.56177188       1.42347142       0.00574841       0.00391284       0.00487741      -4.74138768
Ni       0.00683610       0.00337832       2.84162856       0.01233654       0.00122322      -0.00713954      -6.27456720
Al       1.52068894       1.41548896       4.25998216       0.00843622       0.00036562       0.00274856      -4.73945531
Ni       0.02326150       0.03468605       5.74047190      -0.00062378      -0.00383176      -0.00339902      -6.28928124
Al       1.54471130       1.52093130       7.18769628       0.00655835       0.00488740      -0.00458123      -4.86077016
Ni       0.00972445      -0.00320256       8.61096197       0.00472049      -0.00350509       0.00349037      -6.29266817
Al       1.41220553       1.40694249      10.09995607      -0.00151442       0.00104828      -0.00093573      -4.66075265
Ni      -0.08468939       2.83578564      -0.04271306      -0.00115443      -0.00031421       0.00387118      -6.10507344
Ni       1.42217459       4.29718012       1.38825196      -0.00035379      -0.00051677       0.00329144      -5.80225399
Ni      -0.02269233       2.87061271       2.93892905      -0.00634275      -0.00544275      -0.00026998      -6.13813874
Al       1.45351320       4.25815822       4.39342143       0.00258722      -0.00133591      -0.00683717      -4.82504434
Ni      -0.04377721       2.75641635       5.67735899      -0.00075030      -0.00022948      -0.00495730      -6.13058211
Ni       1.45847549       4.15809409       7.10453675       0.00436797      -0.00012550       0.00231320      -5.73715843
Ni       0.01007765       2.82429390       8.66921153      -0.00517144      -0.00117064       0.00578484      -6.14255552
Al       1.42729526       4.28659257      10.13725527      -0.00360312       0.00119250      -0.00519242      -4.79601915
Ni      -0.00322306       5.79653441      -0.05948983      -0.00201864      -0.00120840      -0.00072677      -6.10786013
Al       1.42962909       7.08229573       1.45811384       0.00043501      -0.00404403       0.00117530      -4.72210051
Ni       0.03331928       5.73527603       2.96699719       0.00224639      -0.00501735      -0.00208589      -6.13155862
Al       1.45821473       7.19846616       4.45461746      -0.00511188      -0.00563835      -0.00014016      -4.75573227
Ni       0.02172576       5.71721518       5.74377991       0.00413056      -0.00148031      -0.00448009      -6.04422296
Ni       1.45217375       7.28216201       7.17130820       0.00102969      -0.00259910      -0.00160478      -5.77463619
Ni       0.06936061       5.67268281       8.59399146       0.00494459      -0.00118192       0.00394215      -6.03494365
Al       1.43296559       7.20743864       9.90249749      -0.00625921      -0.00108450      -0.00030131      -4.74868657
Ni      -0.01324884       8.57314402      -0.00693156      -0.00395753      -0.00246038      -0.00072844      -6.28411845
Al       1.41230225      10.01745752       1.39954615       0.00462874      -0.00055064       0.00924794      -4.62461749
Ni       0.03381686       8.60026702       2.89881815      -0.00639261       0.00320904       0.00484172      -6.27364839
Al       1.44531091      10.07833900       4.30552795      -0.00041801       0.00127880      -0.00260864      -4.66069974
Ni      -0.03304433       8.70115817       5.69087694      -0.00661338      -0.00241752      -0.00744431      -6.11619179
Al       1.44439841       9.99610228       7.16203612       0.00544305       0.00351815       0.00487679      -4.76062697
Ni      -0.04264831       8.72200181       8.65070686       0.00214723       0.00032832       0.01004218      -6.12922741
Al       1.41184668      10.05265006      10.10928524       0.00538713       0.00361103      -0.01093423      -4.65036684
Ni       2.89621202       0.02355908       0.03478878      -0.00264285      -0.00383554      -0.00360635      -6.29064881
Al       4.32790771       1.43516393       1.53949605      -0.00049489      -0.00167539       0.00728051      -4.77265624
Ni       2.79708446      -0.04031531       2.76419908      -0.00654457       0.00333664      -0.00711026      -6.09833097
Ni       4.37414490       1.37887649       4.17059670       0.00107553       0.00227018       0.00593244      -5.78890009
Ni       2.86163860       0.02614837       5.73923152       0.00261738       0.00470464       0.00711144      -6.02569278
Ni       4.30994092       1.40694981       7.29991566      -0.00154267       0.00555126      -0.00235937      -5.80567336
Ni       2.79628690      -0.03769880       8.68900538      -0.00130210      -0.00210357      -0.00660130      -6.12776411
Al       4.34962556       1.41908956       9.95608480      -0.00869007       0.00190500      -0.00620251      -4.78062226
Ni       2.94236236       2.80498488      -0.02864831       0.00364691      -0.00203750       0.00675247      -6.13146382
Al       4.18761342       4.34788742       1.41027507       0.00084962      -0.00784823       0.00656078      -4.76415149
Ni       2.86325228       2.90891240       2.87030962       0.00689263      -0.00502439       0.00231137      -6.03133219
Al       4.39738533       4.21472019       4.30000673       0.00865018      -0.00090382       0.00468482      -4.89004630
Ni       2.95996132       2.75664027       5.63216619      -0.00043722       0.00494145      -0.01031237      -5.89768835
Al       4.15103093       4.15249144       7.20406370      -0.00176998      -0.00128952      -0.00417677      -4.88440768
Ni       2.82125024       2.85894553       8.77066097       0.00404250      -0.00019572       0.00076941      -5.95802531
Al       4.29491092       4.32617456      10.05515920       0.00318071      -0.00621830      -0.00358825      -4.70985126
Ni       2.85751115       5.81411542      -0.05445660      -0.00506628       0.00280987       0.00665567      -6.10870409
Al       4.27524738       7.15634227       1.47051708      -0.00078421       0.00090943      -0.00750173      -4.66865564
Ni       2.84950032       5.73696546       2.95045341       0.00020572      -0.00019073      -0.00458256      -6.13945344
Al       4.28777154       7.17755789       4.30729432       0.00257525      -0.00653824       0.00932924      -4.70240115
Ni       2.88675719       5.71123400       5.74796170      -0.00219161      -0.00650137      -0.00078394      -6.04805302
Al       4.19042862       7.19943543       7.19473597      -0.00157751      -0.00462005      -0.00449296      -4.83289788
Ni       2.81851050       5.67496933       8.60579478      -0.00094876      -0.00393196      -0.00596230      -6.04581325
Al       4.27616030       7.15256797       9.99743903       0.00217069       0.00648353       0.00145272      -4.69652879
Ni       2.85990164       8.56800667      -0.00308215       0.00309655      -0.00096444       0.00046129      -6.28467338
Al       4.32234426      10.00910037       1.42673300      -0.00233170       0.00430861       0.00060786      -4.67144648
Ni       2.84330493       8.61590017       2.88282458       0.00161857       0.00184643      -0.00162977      -6.28394376
Al       4.32045914      10.19362617       4.25367032       0.00295104       0.00353065       0.00910017      -4.77643885
Ni       2.94554893       8.72679699       5.69377079       0.00156982       0.00020404      -0.00564048      -6.13567080
Al       4.30754965      10.20267568       7.19394615      -0.00067243       0.00328054       0.00014184      -4.78285376
Ni       2.90982076       8.72854845       8.65939984       0.00218898       0.00181618       0.00542983      -6.14089354
Al       4.39464968      10.05644184      10.10166887       0.00141558      -0.00368020      -0.00908942      -4.76092919
Ni       5.73167356       0.04835181       0.02997728      -0.00080328      -0.00077984       0.00108040      -6.12377179
Al       7.18233146       1.47758684       1.42321455       0.00694188      -0.00720664       0.00188486      -4.65979014
Ni       5.86494406      -0.08795390       2.77652675       0.00113422      -0.00073602       0.00342325      -6.10718727
Al       7.04485847       1.55339484       4.27945108      -0.00857382       0.00744407      -0.00020690      -4.86048271
Ni       5.78850718      -0.00518368       5.74575155       0.00302163      -0.00001767      -0.00064478      -6.01806836
Al       7.06211187       1.44259373       7.20254357      -0.01025163       0.00063889       0.00098352      -4.74336191
Ni       5.82232253      -0.05356270       8.66276376       0.00412562       0.00152900      -0.00566686      -6.00830948
Al       7.18644151       1.40296169      10.06468651      -0.00657950      -0.01127023       0.00439595      -4.73566657
Ni       5.73408465       2.90086385       0.00150036       0.00144679       0.00103012      -0.00639594      -6.30333506
Al       7.19451151       4.35634772       1.46106101      -0.00032012       0.00527471       0.00654094      -4.71155721
Ni       5.76384741       2.96548480       2.74509622      -0.00518983      -0.00442407       0.00604516      -5.93163500
Ni       7.15499467       4.33302045       4.38601178      -0.00074834       0.00084007      -0.00775984      -5.84513645
Ni       5.68599040       2.84400803       5.82070303      -0.00151174       0.00055097      -0.00131659      -5.89209325
Al       7.15640620       4.40418246       7.04564015      -0.00009506      -0.00158395      -0.00054891      -4.85818630
Ni       5.80324958       2.95608653       8.64561033      -0.00640194       0.00198954       0.00499921      -6.13118735
Al       7.18728166       4.36123443      10.04098784      -0.00669191      -0.00107687      -0.00508368      -4.66640476
Ni       5.73685535       5.77264537      -0.01611037       0.00511801       0.00038380       0.00164334      -6.28766377
Al       7.17185658       7.15148191       1.45176493       0.00608500      -0.01078817       0.00434144      -4.63072807
Ni       5.71298464       5.75017011       2.86304148       0.00736250      -0.00178729      -0.00358497      -6.13203462
Al       7.14634482       7.04526601       4.46815904       0.00310893      -0.00392364       0.00094809      -4.86227655
Ni       5.55580367       5.73114552       5.80732999      -0.00924012       0.00477283      -0.00025795      -5.95361554
Ni       7.13054039       7.18855393       7.15698432      -0.00033554       0.00127069      -0.00309374      -5.76934831
Ni       5.68359911       5.70551068       8.57680078       0.00318419       0.00415478       0.00232181      -6.14773213
Al       7.17008470       7.25862920       9.89933575       0.00325141       0.00537135      -0.00204557      -4.85269155
Ni       5.70433605       8.49936151       0.01004824       0.00414383       0.00613241      -0.00884850      -6.09966543
Al       7.19391184       9.97903996       1.28560074      -0.00071437       0.01113500      -0.00416026      -4.72822789
Ni       5.76766437       8.59298564       2.88905918      -0.00592478       0.00591785       0.00311662      -6.28271556
Al       7.17301076      10.01100402       4.34065768      -0.00420335       0.00260413      -0.00011497      -4.65835058
Ni       5.65070284       8.64856221       5.72482212      -0.00350334       0.00362504       0.00023473      -6.14996784
Al       7.16839711       9.91000068       7.24347381       0.00410267      -0.00060894      -0.00168342      -4.85999632
Ni       5.61316412       8.61953765       8.58790970      -0.00684630      -0.00308396       0.00442827      -5.95614358
Ni       7.21116545       9.97043210      10.08673105       0.00080885      -0.00238349       0.00606098      -5.82878255
Ni       8.63655505       0.04919925       0.04469492      -0.00397809      -0.00112146       0.00456294      -6.09319016
Al      10.02728760       1.46337533       1.47259584      -0.01126934      -0.00271868      -0.00509837      -4.65248062
Ni       8.55257095      -0.01770995       2.85431460      -0.00893277      -0.00268573      -0.00517650      -6.27615560
Al       9.98449092       1.40656148       4.28063994       0.00402200       0.00888732       0.00833131      -4.67031413
Ni       8.53726854       0.02926522       5.74712577       0.00048554       0.00073779       0.00709036      -6.28768947
Al      10.03901760       1.42689269       7.19691292      -0.00146066       0.00576322      -0.00488921      -4.67347666
Ni       8.57375875       0.01614744       8.56980302      -0.01299547      -0.00198855      -0.00330766      -6.12370596
Al       9.99732362       1.42627202      10.01926438       0.01672061       0.00122612       0.00154673      -4.66700059
Ni       8.62811702       2.91608976       0.00244264      -0.00123140      -0.00713529      -0.00571917      -6.28495943
Al      10.15482244       4.33761365       1.44542781      -0.00043840      -0.00333170       0.00277231      -4.75555827
Ni       8.60431370       2.90379581       2.85296603       0.00047099      -0.00091545       0.00216960      -6.12676398
Al       9.96119152       4.29685664       4.34201443      -0.00572970      -0.00130012      -0.00428676      -4.77998120
Ni       8.60819639       2.81793756       5.78868165      -0.00039157      -0.00242439      -0.00143860      -6.13275159
Al      10.16720981       4.25305674       7.16742042       0.00136408       0.00691494       0.00040715      -4.77158396
Ni       8.56908753       2.90206389       8.57737785       0.00764085       0.00073321       0.00374406      -6.30145812
Al      10.04254692       4.32310152      10.01530328       0.00321583      -0.00125553       0.00409484      -4.68821984
Ni       8.62436229       5.76113145      -0.01522022      -0.00122577       0.00424536       0.01095394      -6.28497881
Al      10.07756585       7.14274714       1.48291182      -0.00681874       0.00592358      -0.00729186      -4.66035813
Ni       8.62455809       5.75651012       2.88477897      -0.00814391      -0.00052150      -0.01588726      -6.12134008
Al      10.06550245       7.16689051       4.32015587      -0.00087192       0.00668258       0.00769504      -4.69156342
Ni       8.74489417       5.76474608       5.81170926       0.00927957       0.01183955       0.00641811      -5.94763300
Al      10.18229920       7.18545577       7.18161387       0.00218128      -0.00515171      -0.00226590      -4.80748514
Ni       8.64291040       5.72355879       8.55407807       0.00080104       0.00121294      -0.00218124      -6.14096496
Al      10.06907708       7.14307863       9.98714466       0.00005592       0.00930195       0.00497342      -4.68912442
Ni       8.66178903       8.48673392       0.02378915       0.00022918       0.00079869      -0.00554952      -6.09439745
Al      10.02098902      10.00592067       1.45277163       0.00031165      -0.00013831      -0.00638480      -4.64585205
Ni       8.57331667       8.57127823       2.89860063       0.00904428       0.00187392       0.00328309      -6.27244823
Al      10.01724313      10.07765246       4.29078586       0.00024719      -0.00860108       0.00294493      -4.66063380
Ni       8.65840967       8.59780462       5.73320577       0.00350993       0.00102806      -0.00165328      -6.13975121
Al      10.02971414      10.08904537       7.15028380      -0.00549011      -0.00569878       0.00700308      -4.67087757
Ni       8.72479340       8.57419872       8.55665635      -0.00386089       0.00326313       0.00322954      -5.94804637
Al       9.91644397      10.05495462      10.06881670      -0.00102396      -0.01152421      -0.00209899      -4.75617691
