84
Lattice="10.961052979048663 -0.1236791843038869 0.11426323247270569 -0.1241288954226791 10.819138681353932 0.12214257800482252 0.11388437541771093 0.12113227100730514 11.021663605443479" Properties=species:S:1:pos:R:3:forces:R:3:energies:R:1 energy=-382.1399746973138 stress="-0.0003482523100014248 -0.00023160649933836295 -0.0004552340333564245 -0.00023160649933836295 -0.0004606101250111832 -0.00026001527778965347 -0.0004552340333564245 -0.00026001527778965347 0.0005479861747634332" free_energy=-382.1399746973138 pbc="T T T"
Al       1.28522678       1.29909922       1.24976763      -0.01115722       0.00356363       0.01261321      -4.01971085
Al       0.79072000       1.22195070       3.94367736      -0.00203043      -0.00397721       0.00096627      -4.04546404
Al       1.16120408       1.08600317       6.79192634       0.00025759      -0.00053652       0.00668244      -4.32873900
Ni      -0.10978068       0.04271158       8.43902945       0.01129091       0.00763214      -0.00236993      -5.96226500
Al       1.60119509       1.41976825       9.58293713      -0.00899277       0.01722933       0.00132137      -4.33981735
Al       0.97322544       4.07650425       1.31304415       0.00344322       0.00292453       0.00706613      -3.96995372
Al       1.05714026       4.17025842       4.15164916      -0.00218914      -0.00051033       0.00439229      -4.09479875
Al       1.47656043       3.78109937       6.86426896      -0.00008831       0.00005325       0.00390482      -4.31622782
Ni      -0.03588600       2.71653968       8.44909755       0.00448842      -0.00758241      -0.00325163      -6.12651050
Al       1.71329687       4.09613786       9.74993662       0.00163713       0.00272261      -0.00869306      -4.06734020
Al       1.57425793       6.77896451       0.75088249       0.00244464      -0.00066569      -0.00774412      -3.83520676
Al       1.11214582       7.05565735       3.47618734      -0.00602313       0.00591294       0.00446016      -4.10000829
Al       1.65897293       6.48366344       6.32494700      -0.00178650      -0.00050470       0.00138813      -4.21384370
Ni       0.37556983       5.39579837       8.22468839      -0.00211299      -0.00374373       0.01045924      -6.01683210
Al       2.03073453       6.98734948       9.10476814      -0.00358427       0.00299942       0.00027008      -4.03669208
Al       1.23523629       9.42995931       1.90047056      -0.00293121      -0.00626294       0.00138146      -3.89353724
Al       1.94141470       9.38806666       4.65905388      -0.00482673       0.00014351      -0.00225855      -3.85590274
Ni       0.07356108       8.10179869       5.45902693       0.00032212       0.00418931      -0.01140822      -5.87416826
Al       1.06477381       8.99396991       7.41637945       0.00300919       0.00719869      -0.00047339      -4.27135356
Al       0.83757868       9.39619469      10.22116242      -0.00362447      -0.00979511       0.00391750      -4.31019423
Ni       2.65174430      -0.23047782       0.00656288       0.01233115      -0.00579730       0.00562412      -5.89504407
Al       4.21546632       1.28624667       1.11954724      -0.00292768      -0.00180694      -0.00942508      -4.32471290
Al       3.55510483       0.84914690       3.80955831       0.00018512      -0.00215127      -0.00138111      -4.42349620
Al       3.85905549       0.66531151       6.58856492       0.00254125       0.00112161      -0.00613442      -4.04965679
Ni       2.64713333      -0.41492510       8.43172618      -0.00338178      -0.00486372      -0.00324812      -5.98060787
Al       4.36745331       0.94017133       9.41502122      -0.00298986      -0.00274894      -0.00121561      -4.01109274
Al       3.96015558       3.92948684       1.22356961      -0.00390362       0.00133133      -0.00188901      -4.04863960
Ni       2.50332854       2.75100279       2.75287907      -0.00525287       0.00400905      -0.01398236      -6.04131609
Al       3.81458900       4.16520366       4.18722943       0.01029292       0.00277050      -0.00197014      -4.25954848
Ni       2.47750277       2.36787156       5.28568462      -0.00418646       0.00502791       0.01155726      -5.90177811
Al       4.21058989       3.36619920       6.79209520       0.00068036       0.00054377      -0.00391901      -4.03934033
Al       4.43531801       3.70629862       9.56108519      -0.00033693       0.00005799      -0.00423306      -3.77400373
Al       4.35496822       6.53209515       1.32726198      -0.00102339      -0.00118290      -0.00137647      -4.26952489
Ni       2.54640140       5.41188755       2.53863838       0.00572582       0.00154226      -0.00257394      -5.90563171
Al       3.83798004       6.97772519       3.91147271       0.00421312      -0.00469119       0.00354223      -4.00145301
Al       4.49677038       6.11174752       6.34993018      -0.00725076      -0.00776065      -0.00405683      -3.89696035
Ni       3.11035950       5.17810839       8.08842174       0.00263004      -0.00419047       0.00528561      -5.89627321
Al       4.92690229       6.49590167       9.21172977       0.00374190      -0.00259101      -0.00552133      -4.15714705
Al       3.99103348       9.39400640       1.62006536      -0.01185382       0.00045334      -0.00836144      -4.33327466
Al       4.65989758       9.37950913       4.70969043       0.00247288       0.01142622       0.00221832      -4.06226181
Al       4.11343245       8.81226219       7.33415939       0.00630977      -0.00321948       0.00287374      -3.76815342
Al       3.66094135       8.84321805      10.07574077      -0.00499778       0.00203796       0.00176684      -4.26631845
Al       7.24564694       1.46399319       2.06488762      -0.00050421       0.00010625       0.00094749      -4.30508506
Ni       5.55768348       0.01475339       2.80216886       0.00342981      -0.00636918      -0.00290848      -6.01925197
Al       6.24700996       1.31056168       4.85947349       0.00313457       0.00717802       0.00006379      -4.29742915
Al       6.38210640       1.57703244       7.62485019       0.00634975      -0.00277243      -0.00345409      -4.11249408
Al       6.85468375       1.45020915      10.33855473       0.00555189       0.00035262      -0.00355710      -3.97084971
Al       6.64259015       4.13447319       1.90025475      -0.00280266       0.00131861       0.00138195      -3.92810523
Ni       5.20000056       2.53710445       2.98006252      -0.00097538       0.00524418       0.00145694      -6.00768039
Al       6.36106736       4.06728308       4.68544790      -0.00731190      -0.00084146      -0.00426230      -4.23255716
Al       6.73387137       4.41525229       7.54996359      -0.00710782      -0.00031248       0.00242932      -4.20984661
Al       6.95985414       4.59565062      10.22847324       0.00469528       0.00795936      -0.00070853      -3.98857963
Al       7.18401792       6.72124884       1.38726400      -0.00198034       0.00051645      -0.00234232      -4.16106611
Al       6.70433688       6.81852055       4.27300861      -0.00193784       0.00310212      -0.00615720      -4.42628954
Al       6.86613642       7.14089338       7.14276824      -0.00328876       0.00205159      -0.00533569      -3.98212931
Al       7.62362921       7.23306221       9.70918375       0.00154712       0.00288573       0.00171790      -3.74569881
Ni       5.59270672       7.96867947      -0.01410064       0.00218706      -0.00620555      -0.00181658      -5.88630297
Al       6.88817828       9.66850418       1.15788498       0.00423367       0.00141441      -0.00144209      -4.31203578
Ni       5.68474710       8.21218058       2.67857441       0.00313539      -0.00294419      -0.00162887      -6.03594723
Al       7.29479735       9.84899842       4.07034741      -0.00606103       0.01096208       0.00007168      -4.39336604
Al       6.69158647       9.78909009       6.69034970       0.00325649      -0.00360929       0.00130613      -3.74638384
Al       6.33868054       9.74685527       9.34839921       0.00761983       0.00112688      -0.00356350      -3.82514004
Al       9.84659967       2.19159234       2.10280475       0.00350313       0.00122802       0.00455826      -3.89933077
Al       9.07957453       1.19317955       4.60377605       0.00042575      -0.00050904       0.00199530      -3.82001183
Al       9.21216630       1.27313704       7.41677052      -0.00116344      -0.00132482       0.00368937      -4.31174961
Al       9.73486578       1.38313357      10.30309883      -0.00213456      -0.00402421       0.00265315      -4.35998874
Ni       8.22655683       2.93124064       0.40783590      -0.00824684       0.00150856      -0.00579666      -5.91283009
Al       9.31527948       4.86782145       1.60513384      -0.00366658      -0.00248805      -0.00014241      -3.81581544
Al       9.28849901       3.88232766       4.30783513       0.00941710       0.00122953      -0.00208949      -3.89068714
Ni       7.87082440       2.80996918       6.08446831       0.00022658       0.00022744       0.00084874      -6.01064429
Al       9.59464590       4.07635095       7.15457294      -0.00244774       0.00012285       0.00173633      -4.46519037
Ni       8.16843142       2.88431058       8.86896171      -0.00129306      -0.00099649       0.00648197      -6.12680647
Al       9.88644522       4.24172654      10.02364571       0.00160552      -0.00388013      -0.00063307      -4.37531368
Al      10.07346456       7.56276744       1.38685821       0.00444190      -0.00297899       0.00283786      -3.93966607
Al       9.51844252       6.54792428       4.11406274       0.00297554      -0.00044629      -0.00648917      -4.24463490
Ni       8.05776355       5.44552783       5.76119011       0.00171345      -0.00122530       0.00274642      -6.07685648
Al       9.71703501       6.71813504       7.11847914       0.00018954      -0.00167369       0.00617066      -4.34902408
Al      10.32432769       6.91273781       9.86989807      -0.00476205      -0.00770905       0.00353897      -3.82915339
Al       9.53466650      10.25599407       1.55253787      -0.00037413      -0.00326674       0.00241788      -3.82848228
Ni       8.33069216       8.25823467       2.79819439       0.00284818      -0.00116265      -0.00356694      -5.96803200
Al      10.07221287       9.49387085       4.06621295       0.00468778      -0.00020932       0.00754505      -4.24031177
Ni       8.38333229       8.10496085       5.51686207      -0.00124560       0.00518430       0.00363210      -6.04733119
Al       9.56603249       9.61300644       6.87341698       0.00014304      -0.00229106       0.00344687      -4.23516431
Al       9.08287990       9.51287993       9.94456885      -0.00057986      -0.00678741       0.00601593      -3.82190945
