128
Lattice="11.60069050154711 0.000583888810633705 -0.0008440759331954263 0.0005838888106720768 11.600690501544664 -0.0008440759349817157 -0.0008439823675918763 -0.0008439823687119958 11.59711641247554" Properties=species:S:1:pos:R:3:forces:R:3:energies:R:1 energy=-679.3324984716011 stress="-0.0003608514587383227 -9.154951685656367e-05 4.316076904690384e-05 -9.154951685656367e-05 -0.0003608514587892194 4.3160768907952066e-05 4.316076904690384e-05 4.3160768907952066e-05 0.0005349723765574669" free_energy=-679.3324984716011 pbc="T T T"
Ni       0.02674166      -0.02528681      -0.02697543       0.00371714      -0.00115537      -0.00367574      -6.21623159
Al       1.44847730       1.44364222       1.44682731      -0.00241198       0.00143457       0.00289911      -4.56733134
Ni       0.01288508      -0.01453580       2.89657849       0.00025719       0.00138591      -0.00074951      -6.22253851
Al       1.43955529       1.44496856       4.34465294       0.00103177      -0.00108623      -0.00529037      -4.55900180
Ni       0.02219782      -0.02374019       5.82300958       0.00001094      -0.00461696       0.00139309      -6.21629121
Al       1.38726832       1.50855623       7.19586644       0.00086037       0.00634654       0.00163423      -4.50928560
Ni       0.04396788       0.00869563       8.70259388      -0.00039644      -0.00703413       0.00406530      -6.31666387
Al       1.36540852       1.53089745      10.20873979      -0.00153902      -0.00423075      -0.00468584      -4.50223148
Ni      -0.02592363       2.92768544       0.02218985      -0.00176342      -0.00238733      -0.00039971      -6.21592193
Al       1.44282539       4.34441392       1.45813024       0.00700365      -0.00280467       0.00119638      -4.56842910
Ni      -0.07467002       2.89357050       2.89979993       0.00501723       0.00357997       0.00531381      -6.30790466
Al       1.42627061       4.34598481       4.33607513       0.00603812       0.00085672      -0.00040958      -4.54890623
Ni      -0.02400366       2.91249217       5.78504500       0.00020916       0.00524215      -0.00161869      -6.20203733
Al       1.43842330       4.34448529       7.25829294       0.00187676      -0.00127706       0.00188867      -4.57128458
Ni      -0.02378312       2.90284248       8.68739004      -0.00184991       0.00193229       0.00353210      -6.22075999
Al       1.44384515       4.34303502      10.14065535       0.00174232      -0.00072105      -0.00382517      -4.57868124
Ni       0.02879591       5.81533640      -0.02353728       0.00204408      -0.00172124      -0.00280628      -6.23045895
Al       1.44357252       7.25844896       1.43935840       0.00105049      -0.00145290       0.00931396      -4.58056054
Ni       0.00760209       5.81606110       2.89493112       0.00509808       0.00415924      -0.00100379      -6.20999750
Al       1.44412857       7.25625546       4.34660062       0.00550364      -0.00087331      -0.00263193      -4.57940864
Ni       0.02246625       5.82090335       5.81982686      -0.00155841       0.00022890       0.00178472      -6.22835139
Al       1.45535999       7.25546586       7.26724037      -0.00905202       0.00197240      -0.00087762      -4.58281919
Ni       0.00596598       5.80082740       8.70595312       0.00245661       0.00222930      -0.00102089      -6.23577363
Al       1.45336910       7.25527410      10.14015833      -0.00347294      -0.00274424      -0.00184883      -4.58372489
Ni      -0.01701580       8.68306415       0.01910369       0.00405248       0.00405248      -0.00796873      -6.23695230
Al       1.45310782      10.15318778       1.44294503      -0.00074421      -0.00074421       0.00947113      -4.58100432
Ni       0.00495484       8.70503480       2.89518367      -0.00071991      -0.00071991       0.00287182      -6.23366564
Al       1.45125410      10.15133406       4.34586903       0.00070045       0.00070045      -0.00845253      -4.58062708
Ni      -0.01038856       8.68969140       5.78710536      -0.00048951      -0.00048951       0.00527247      -6.23295780
Al       1.38405894      10.08413890       7.20781189       0.00056951       0.00056951       0.00356752      -4.50845905
Ni      -0.01573189       8.68434807       8.69479285       0.00150379       0.00150379      -0.00237139      -6.22721055
Al       1.36191632      10.06199628      10.19727179       0.01285286       0.01285286      -0.00468549      -4.49175448
Ni       2.89990741      -0.00011924      -0.07778527      -0.00260710      -0.00260710       0.00890264      -6.31228791
Al       4.34549004       1.44546338       1.44662833       0.00135265       0.00135265       0.00230616      -4.54638343
Ni       2.89128737      -0.00873928       2.88521215      -0.00781624      -0.00781624      -0.00779248      -6.20799047
Al       4.28943297       1.38940632       4.29830654       0.00635573       0.00635573       0.00671270      -4.47771075
Ni       2.89304974      -0.00697691       5.83378459      -0.00488226      -0.00488226       0.00552677      -6.28503928
Al       4.35041619       1.45038954       7.24412314       0.00662592       0.00662592       0.00146274      -4.31818773
Al       2.87337121      -0.02665544       8.75704356      -0.00716530      -0.00716530       0.00523600      -3.71950774
Al       4.43165442       1.53162776      10.20112364       0.00283511       0.00283511      -0.00132027      -4.50278344
Ni       2.88757593       2.88554845      -0.01075622      -0.00739340      -0.00277989       0.00121408      -6.21351839
Al       4.28049303       4.28046480       1.39782830       0.00039616       0.00767796       0.00749574      -4.47778900
Ni       2.88154304       2.87139461       2.89337661      -0.00785457       0.00152116      -0.00214331      -6.19209540
Al       4.19861751       4.35892377       4.33867947       0.00369576      -0.00086087      -0.00227226      -4.39626367
Ni       2.89566195       2.88450752       5.80247008       0.00215158       0.00089984      -0.00243061      -6.27372303
Al       4.27294282       4.40500826       7.30715253       0.00328357      -0.00833911      -0.00122354      -4.48783991
Ni       2.89535722       2.86246878       8.70570895       0.00071555      -0.00558920      -0.00195499      -6.28933776
Al       4.35589880       4.34873935      10.14539536      -0.00077168      -0.00295505       0.00180807      -4.55836825
Ni       2.88734311       5.78567556      -0.01286317      -0.00306280       0.00283629      -0.00858858      -6.22337421
Al       4.25289894       7.32949802       1.36130728       0.00238416       0.00403573       0.00529804      -4.49159509
Ni       2.90748381       5.82341833       2.86975016       0.00047249      -0.00152846       0.00097191      -6.29765040
Al       4.25545851       7.31573715       4.42843886      -0.00100688      -0.00214091      -0.00668938      -4.48439064
Ni       2.86325494       5.79845512       5.81730245       0.00343371       0.00545094       0.00289914      -6.21231800
Al       4.33633038       7.24758926       7.25493343       0.00643011       0.00095776      -0.00022948      -4.56012793
Ni       2.88582416       5.80671373       8.71922643      -0.00359930       0.00152305       0.00517554      -6.21089031
Al       4.34421448       7.24412384      10.14097856       0.00806676       0.00460967       0.00006596      -4.57062657
Ni       2.87532374       8.72740551      -0.02781950      -0.00115537       0.00371714      -0.00367574      -6.21623159
Al       4.34425276      10.14914115       1.44598324       0.00143457      -0.00241198       0.00289911      -4.56733134
Ni       2.88607474       8.71354893       2.89573442       0.00138591       0.00025719      -0.00074951      -6.22253851
Al       4.34557910      10.14021914       4.34380887      -0.00108623       0.00103177      -0.00529037      -4.55900180
Ni       2.87687035       8.72286167       5.82216550      -0.00461696       0.00001094       0.00139309      -6.21629121
Al       4.40916677      10.08793217       7.19502236       0.00634654       0.00086037       0.00163423      -4.50928560
Ni       2.90930617       8.74463173       8.70174980      -0.00703413      -0.00039644       0.00406530      -6.31666387
Al       4.43150800      10.06607237      10.20789571      -0.00423075      -0.00153902      -0.00468584      -4.50223148
Ni       5.78557510      -0.01245073      -0.01075622      -0.00277989      -0.00739340       0.00121408      -6.21351839
Al       7.18049145       1.38046638       1.39782830       0.00767796       0.00039616       0.00749574      -4.47778900
Ni       5.77142126      -0.01848362       2.89337661       0.00152116      -0.00785457      -0.00214331      -6.19209540
Al       7.25895042       1.29859085       4.33867947      -0.00086087       0.00369576      -0.00227226      -4.39626367
Ni       5.78453418      -0.00436470       5.80247008       0.00089984       0.00215158      -0.00243061      -6.27372303
Al       7.30503491       1.37291617       7.30715253      -0.00833911       0.00328357      -0.00122354      -4.48783991
Ni       5.76249543      -0.00466943       8.70570895      -0.00558920       0.00071555      -0.00195499      -6.28933776
Al       7.24876601       1.45587214      10.14539536      -0.00295505      -0.00077168       0.00180807      -4.55836825
Ni       5.82706902       2.92704237       0.02706096       0.00635165       0.00635165      -0.00216144      -6.18571511
Al       7.27288205       4.37285539       1.35451243      -0.00077366      -0.00077366       0.00477248      -4.40946247
Ni       5.83690017       2.93687351       2.95297207       0.00051706       0.00051706      -0.00428484      -6.39591870
Al       7.37299861       4.47297196       4.38097786       0.00117417       0.00117417       0.00036344      -4.32599272
Al       5.85106769       2.95104104       5.76853377      -0.00146516      -0.00146516      -0.00106169      -3.65930878
Al       7.33697272       4.43694606       7.31819843      -0.00317689      -0.00317689      -0.00800648      -4.47023451
Ni       5.82120651       2.92117985       8.64092240       0.00291568       0.00291568       0.00194859      -6.28510984
Al       7.25206321       4.35203656      10.13802460       0.00117437       0.00117437       0.00191216      -4.55308840
Ni       5.78061144       5.81211175       0.03640782      -0.00184667      -0.00326477      -0.00447340      -6.29813838
Al       7.34194014       7.31190536       1.38247026      -0.00489898      -0.00222568       0.00108043      -4.49039792
Al       5.76037254       5.86208520       2.87923526      -0.00655713      -0.00421381       0.00152281      -3.66901853
Al       7.33617652       7.31310422       4.40964305      -0.00193498      -0.00953359      -0.00396113      -4.47344764
Ni       5.77820045       5.77722134       5.77914510       0.00158619       0.00149961      -0.00280289      -6.35760661
Al       7.25202649       7.25472385       7.25608542       0.00330553      -0.00680344       0.00057947      -4.56966254
Ni       5.78624598       5.79959374       8.69355373      -0.00097618       0.00749495       0.00432342      -6.20397406
Al       7.24531545       7.24725295      10.14058380      -0.00220085      -0.00216027      -0.00485554      -4.58088807
Ni       5.82829598       8.67474022       0.02134578      -0.00238733      -0.00176342      -0.00039971      -6.21592193
Al       7.24502446      10.14348923       1.45728617      -0.00280467       0.00700365       0.00119638      -4.56842910
Ni       5.79418104       8.62599383       2.89895586       0.00357997       0.00501723       0.00531381      -6.30790466
Al       7.24659535      10.12693446       4.33523105       0.00085672       0.00603812      -0.00040958      -4.54890623
Ni       5.81310271       8.67666019       5.78420092       0.00524215       0.00020916      -0.00161869      -6.20203733
Al       7.24509584      10.13908715       7.25744886      -0.00127706       0.00187676       0.00188867      -4.57128458
Ni       5.80345302       8.67688072       8.68654596       0.00193229      -0.00184991       0.00353210      -6.22075999
Al       7.24364556      10.14450900      10.13981128      -0.00072105       0.00174232      -0.00382517      -4.57868124
Ni       8.68570221      -0.01268355      -0.01286317       0.00283629      -0.00306280      -0.00858858      -6.22337421
Al      10.22952467       1.35287228       1.36130728       0.00403573       0.00238416       0.00529804      -4.49159509
Ni       8.72344498       0.00745716       2.86975016      -0.00152846       0.00047249       0.00097191      -6.29765040
Al      10.21576381       1.35543186       4.42843886      -0.00214091      -0.00100688      -0.00668938      -4.48439064
Ni       8.69848177      -0.03677171       5.81730245       0.00545094       0.00343371       0.00289914      -6.21231800
Al      10.14761592       1.43630372       7.25493343       0.00095776       0.00643011      -0.00022948      -4.56012793
Ni       8.70674038      -0.01420249       8.71922643       0.00152305      -0.00359930       0.00517554      -6.21089031
Al      10.14415049       1.44418782      10.14097856       0.00460967       0.00806676       0.00006596      -4.57062657
Ni       8.71213841       2.88058478       0.03640782      -0.00326477      -0.00184667      -0.00447340      -6.29813838
Al      10.21193201       4.44191349       1.38247026      -0.00222568      -0.00489898       0.00108043      -4.49039792
Al       8.76211186       2.86034589       2.87923526      -0.00421381      -0.00655713       0.00152281      -3.66901853
Al      10.21313087       4.43614987       4.40964305      -0.00953359      -0.00193498      -0.00396113      -4.47344764
Ni       8.67724800       2.87817380       5.77914510       0.00149961       0.00158619      -0.00280289      -6.35760661
Al      10.15475050       4.35199984       7.25608542      -0.00680344       0.00330553       0.00057947      -4.56966254
Ni       8.69962039       2.88621933       8.69355373       0.00749495      -0.00097618       0.00432342      -6.20397406
Al      10.14727960       4.34528879      10.14058380      -0.00216027      -0.00220085      -0.00485554      -4.58088807
Ni       8.71076871       5.81074206      -0.03113578       0.00154329       0.00154329       0.00298958      -6.21650550
Al      10.16442858       7.26440193       1.43743285      -0.00196585      -0.00196585       0.00222043      -4.57473136
Ni       8.72796111       5.82793446       2.86403219      -0.00360932      -0.00360932       0.00122624      -6.34063903
Al      10.16561497       7.26558831       4.34354330      -0.00499342      -0.00499342       0.00269983      -4.57206604
Ni       8.74746705       5.84744040       5.83943251      -0.00255437      -0.00255437       0.00186902      -6.20098807
Al      10.16316570       7.26313905       7.26269262      -0.00249986      -0.00249986       0.00442268      -4.58695659
Ni       8.72598441       5.82595775       8.72539872       0.00059682       0.00059682      -0.00175102      -6.22618952
Al      10.16041609       7.26038944      10.15220848      -0.00472468      -0.00472468      -0.01187186      -4.59179486
Ni       8.71594694       8.72945976      -0.02438136      -0.00172124       0.00204408      -0.00280628      -6.23045895
Al      10.15905951      10.14423637       1.43851432      -0.00145290       0.00105049       0.00931396      -4.58056054
Ni       8.71667164       8.70826594       2.89408704       0.00415924       0.00509808      -0.00100379      -6.20999750
Al      10.15686600      10.14479242       4.34575654      -0.00087331       0.00550364      -0.00263193      -4.57940864
Ni       8.72151389       8.72313010       5.81898279       0.00022890      -0.00155841       0.00178472      -6.22835139
Al      10.15607640      10.15602384       7.26639630       0.00197240      -0.00905202      -0.00087762      -4.58281919
Ni       8.70143794       8.70662983       8.70510905       0.00222930       0.00245661      -0.00102089      -6.23577363
Al      10.15588465      10.15403295      10.13931426      -0.00274424      -0.00347294      -0.00184883      -4.58372489
