91
Lattice="11.070382232234149 0.0327427563956298 0.48862812985797427 0.03190076730849736 11.202426737756824 0.2154442250853883 0.4893811893716195 0.2167619580462139 11.003297783692947" Properties=species:S:1:pos:R:3:forces:R:3:energies:R:1 energy=-431.9350811058193 stress="-7.218390979551799e-05 -0.00033963505240253573 0.00018280967788108032 -0.00033963505240253573 -0.0006146534602538702 -0.0003629872948276478 0.00018280967788108032 -0.0003629872948276478 -0.00047458469778281494" free_energy=-431.9350811058193 pbc="T T T"
Ni      -0.04225317       0.01360446      -0.00208060       0.00866606       0.00104293      -0.00082965      -6.24996722
Al       1.31086733       1.51273519       1.47434525      -0.00347860       0.00039284      -0.01089290      -4.56743129
Ni      -0.22117861       0.15100273       2.80088052       0.00845320       0.00990519      -0.00294981      -5.96804730
Al       1.05407684       1.43218195       4.37662944       0.00156697      -0.00840829      -0.00764752      -4.11669535
Al       2.31955112       1.65768854       6.88088107       0.00794701      -0.00316832      -0.01070401      -4.19748297
Ni       0.54986138       0.33953024       8.00448308       0.00239499       0.00963457       0.00408457      -6.04155293
Al       1.88678946       1.68903164       9.69565651      -0.00122550      -0.00520840      -0.00043262      -4.60228221
Al       1.37522743       4.28736448       1.56514363      -0.00166163       0.00398814      -0.00949455      -4.44998351
Al       1.11990330       4.14527090       4.41864392      -0.00867188       0.00380582      -0.00597214      -4.17840315
Al       2.25977384       4.64829278       6.85746945      -0.00478422       0.00669572      -0.00629972      -4.18971100
Ni       0.76238137       3.14685351       8.12353471      -0.00166962      -0.00162716      -0.00532606      -6.15640909
Al       1.94636993       4.62620378       9.75328943       0.00017131       0.00935529       0.00293344      -4.46119896
Al       1.42020979       7.13999119       1.58683666      -0.00627348       0.00043273      -0.00011437      -4.40904160
Ni      -0.00586917       5.70088282       2.99003570       0.00405883      -0.00323504       0.00577473      -5.89374708
Al       1.27395702       7.00455505       4.63666991      -0.00471412      -0.00619334      -0.00173335      -4.13707547
Al       2.30122148       7.36699120       7.11049156       0.00020622       0.00404930       0.00676300      -3.79649295
Ni       0.58607338       5.92613126       8.15824781      -0.00348611       0.00228939       0.00653702      -6.01432208
Al       1.95463034       7.31349691       9.82010605      -0.00480442      -0.00258700      -0.00991850      -4.04857340
Ni      -0.00462898       8.52655862       0.10216086      -0.01060334       0.01037240       0.00570278      -6.00261044
Al       1.35578036       9.81125393       1.66143208      -0.00897785      -0.00595138      -0.00364582      -4.53668849
Al       0.90745628       9.73044441       4.47448653      -0.00224987      -0.00206075      -0.00731050      -4.15024376
Al       2.14458595      10.09659256       7.03694522      -0.00018210       0.00510533      -0.00644107      -3.78569997
Al       1.99255034      10.09122162       9.75188925       0.01010836      -0.00200193      -0.00237740      -4.20842792
Ni       2.81607256       0.07235000       0.08398798      -0.00431480      -0.00176618      -0.00257966      -6.14595663
Al       4.10080266       1.37093083       1.67992145       0.00835017       0.01038436       0.01157483      -4.63823540
Ni       2.51441779      -0.03645623       3.05365643       0.00742626       0.00207587       0.00013605      -6.15750296
Al       3.91745956       1.35518555       4.58954924       0.00419392       0.00432484      -0.00280171      -4.15575435
Al       4.85068955       0.21212055       6.89525423      -0.00207450      -0.00300529      -0.01023387      -3.64081912
Al       4.74631723       1.65590762       9.61645271      -0.00457903       0.00561522      -0.00219877      -4.44128888
Ni       2.84697998       2.89724733       0.10501067      -0.00023713       0.00005946       0.00709287      -6.24088818
Al       4.14208941       4.23692163       1.75340041       0.00463731      -0.00122999       0.00872099      -4.73707893
Ni       2.68836292       2.77616266       3.10372265       0.00170810      -0.00014706       0.00195230      -6.14068435
Al       3.98140222       4.21904091       4.66199901      -0.00146112      -0.00422563      -0.00787239      -4.34142874
Al       5.16922046       3.04940900       6.95850661       0.00853138      -0.00709581      -0.00871520      -3.92672632
Ni       3.33234435       3.17275636       8.43304929       0.00924554      -0.00401533      -0.00269072      -5.78176256
Al       4.82522318       4.55060647       9.70269803       0.00097776       0.00080692       0.01265593      -4.46183143
Ni       2.92315128       5.68404079       0.22530574       0.00142515      -0.00969902       0.00166596      -6.03972660
Al       4.20270003       7.10493805       1.82463632       0.00482383       0.00250983      -0.00137026      -4.50739963
Ni       2.69028280       5.72532015       3.16522174      -0.00431295       0.00226771      -0.00041291      -6.23000935
Al       4.22255299       7.10970466       4.69048324       0.00260860       0.01020781       0.00083359      -4.21120975
Al       4.84419857       5.91144078       7.15658468       0.00008866      -0.00481677      -0.00325125      -3.64900143
Al       4.77915257       7.34244317       9.79270930      -0.00320552      -0.00446113       0.00383336      -4.17008461
Al       4.13023951       9.81198661       1.86339640       0.01146713      -0.00294589      -0.00085862      -4.42744607
Ni       2.70155102       8.46390669       3.28051997      -0.00289094      -0.00001808       0.00910692      -6.06432038
Al       3.84428238       9.85446181       4.87597272      -0.00687843       0.00587847      -0.00002151      -4.01393779
Al       4.70102282       8.69930914       7.28389718       0.00350844      -0.00461124       0.00672086      -3.67190597
Al       4.72752774      10.06940354       9.80222006       0.00436387       0.00293327       0.01235732      -4.08747761
Ni       5.52400228       0.01016370       0.19028678      -0.00044664      -0.00205683      -0.00049804      -6.23361194
Al       6.87306937       1.40506093       1.77610421       0.00762395      -0.00156126       0.00319361      -4.25076806
Al       6.61874746       0.96562763       4.55722906       0.00575121       0.00043494       0.00982471      -3.87187455
Al       7.69327944       1.89134555       6.88466572       0.00072616       0.00331852       0.00631096      -3.86228641
Al       7.47160706       1.70696089       9.79503361      -0.00311728      -0.00327344       0.00565597      -4.24999739
Ni       5.55067318       2.82120856       0.27090776      -0.00584969      -0.00319322       0.00247270      -6.15116924
Al       6.94769601       4.17469886       1.84914248      -0.00426685       0.00061942       0.00054312      -4.40471969
Ni       5.43367177       2.75202596       3.23515788      -0.00507716       0.00178989      -0.00729908      -6.02987749
Al       6.89559937       3.82160275       4.70527790      -0.00024176       0.00503173       0.01657476      -4.05997033
Al       7.51443443       4.65616515       7.17464445      -0.00519098      -0.00615377      -0.01140434      -3.88075556
Al       7.54724918       4.41569139       9.96157632       0.01228648       0.00906272      -0.00348722      -4.29065062
Ni       5.58484886       5.65653099       0.38702860       0.00388236       0.00209186      -0.00778554      -6.25044804
Al       6.94886427       7.03354944       2.01275560      -0.00326013       0.00613741       0.00648035      -4.42774368
Ni       5.54745962       5.53122907       3.37425335      -0.00677093       0.00974373       0.00025047      -6.00460237
Al       7.14854616       6.60759769       4.90016474       0.00278272       0.00420495      -0.00207831      -4.01795487
Al       7.21696407       7.35125255       7.51854930       0.00305220       0.00242949      -0.00535598      -3.98833193
Al       7.54075728       7.31486492      10.08072134      -0.00065012      -0.01379782      -0.00390289      -4.34403961
Ni       5.64612101       8.51903270       0.41033496      -0.00389599       0.00741188       0.00229959      -6.12452512
Al       6.89823858       9.85700185       2.07167157       0.00570892      -0.00003733      -0.00961423      -4.19086387
Al       6.45379284       9.30380945       4.77882842      -0.00687252      -0.00265671       0.00443242      -3.82956693
Al       7.36959540      10.32394225       7.25428485      -0.00040241       0.00945800       0.00197493      -4.07014646
Al       7.53359292      10.08597924       9.94148321       0.00162052      -0.00166796       0.00484607      -4.38236413
Ni       8.28753452       0.03796337       0.30935314      -0.00816660       0.00620505       0.00296444      -6.17638299
Al       9.57767250       1.56815647       1.74068562      -0.00485768      -0.00431912      -0.00634540      -4.03166602
Al       9.37259856       2.00622663       4.45331901      -0.00190234       0.00233183       0.00324774      -3.78724845
Al      10.44967261       1.84281275       7.02345221       0.00947672      -0.00398476       0.00421779      -4.11977556
Ni       8.94023038       0.40248373       8.37670131       0.00623225       0.00331314       0.00112068      -5.97727065
Al      10.23185174       1.78784808       9.94473901      -0.00487340      -0.00692174       0.00031997      -4.37703334
Al       9.67989077       4.23952237       2.05787044       0.00204523      -0.01008573      -0.00015401      -3.88213407
Al       9.37613429       4.74602799       4.81798362      -0.00337157      -0.00850321      -0.00108805      -3.78733368
Al      10.35297792       4.50420452       7.25070627       0.00242891       0.00001604      -0.00174640      -4.10944632
Al      10.32752007       4.46247912      10.15054853      -0.00168980       0.00645666      -0.00242631      -4.28968183
Ni       8.32475365       5.61996188       0.46186484      -0.00317916      -0.00029006      -0.00733708      -6.05470647
Al       9.77387010       6.95495369       1.84630991      -0.00381366      -0.00123654       0.00104735      -4.30525680
Al       9.81664949       7.63364738       4.39648583      -0.00478230       0.00589314       0.00599320      -4.07348920
Al      10.23014755       7.35120900       7.15914715      -0.00349987      -0.00118717       0.00362764      -4.19422496
Ni       8.96539381       5.91022145       8.68114234       0.00536410       0.00217258       0.01811674      -6.01922711
Al      10.30630634       7.35916603      10.06552820      -0.00508183      -0.00772113      -0.00619640      -4.49738030
Ni       8.35829554       8.49651045       0.57621225      -0.00151734       0.00324139      -0.00013597      -6.24300449
Al       9.64799136       9.81230347       2.12297792       0.00922121      -0.00498288      -0.00947595      -4.45252934
Al       8.95712719      10.49687038       4.63018039      -0.00399485      -0.01162202       0.00399168      -4.13354287
Ni       8.44325378       8.62382833       5.98541040      -0.00050255      -0.00763005      -0.00596426      -5.74522036
Al      10.23830156      10.08000795       7.18138302      -0.00209666      -0.00704087       0.01020350      -4.14994550
Al      10.26027077      10.10387931      10.05531766      -0.00302278      -0.00709511      -0.00076462      -4.56774728
