128
Lattice="12.844258542256828 0.10402416452832547 0.13327082623146566 0.10148758644192281 12.55328098414448 -0.230196530401276 0.11099345850096128 -0.24354596213401636 11.990162207853974" Properties=species:S:1:pos:R:3:forces:R:3:energies:R:1 energy=-587.1833908472887 stress="-0.0008737369549093529 -0.0005082790087369116 -0.0006639301674043806 -0.0005082790087369116 0.0008212767033459684 0.00022108192886606992 -0.0006639301674043806 0.00022108192886606992 -0.0007655881428768617" free_energy=-587.1833908472887 pbc="T T T"
Al      -0.81503714       0.70930467       0.09048816       0.00021883      -0.00432845      -0.00064336      -3.91604476
Al       1.77468898       1.30466995       1.32865040      -0.00393097      -0.00384747       0.00091172      -3.90304939
Ni      -0.08278270      -0.17122453       2.20811219      -0.00145709       0.00489089      -0.00047292      -6.21820035
Al       0.91789224       1.58729625       3.94599129       0.00748199       0.00590161      -0.00583058      -4.35239589
Ni       0.48261242       0.56906842       6.32566880       0.00595967       0.00368630       0.00167522      -5.95365914
Al       2.50351952       1.83404603       6.96790819       0.01386529      -0.00835130      -0.03253236      -4.53908075
Al       0.93071404       0.34045738       8.64766520      -0.00485935      -0.00396822      -0.00189272      -4.07479035
Al       1.67649815       1.83602978      10.84125782       0.00163527      -0.00951678       0.00250641      -4.10698153
Al      -0.18615375       3.52050034       0.41365430      -0.00182893       0.00662587       0.00149070      -3.67442471
Al       1.99396433       3.88469416       2.03248862       0.00070149      -0.00188603       0.00118399      -3.85650230
Ni       0.20110015       3.83413809       3.79809151       0.00604342      -0.00608485      -0.00841651      -5.82560880
Al       2.43593241       3.95723233       4.73775126      -0.00157162       0.00167078      -0.00287101      -4.24830832
Al      -0.36854282       2.82167369       6.05092227      -0.01167865       0.00200518      -0.00083133      -4.34772358
Al       1.42391232       4.67031705       7.26545184      -0.01548289       0.01116009       0.01791719      -4.02859290
Ni       0.66627859       2.73054136       8.36760541      -0.00242560       0.00650126      -0.00373338      -6.10432194
Al       0.63445722       4.47731040      10.06919910       0.00279369       0.00939513       0.00227448      -3.92010507
Al      -0.40053062       6.22111722       0.14281947      -0.00871512      -0.01009329       0.00044361      -3.67460957
Al       1.02244177       8.46355815       0.86563031      -0.00040807       0.00015123      -0.00854949      -3.97742031
Al       0.68991718       6.06958178       2.74885339       0.01008829       0.00504137      -0.00588399      -4.16682195
Al       2.17727754       8.28513170       3.61385680       0.00003945      -0.00028264      -0.00199365      -4.30610757
Al      -0.25144364       5.79747486       5.37023282      -0.00477242      -0.00323363      -0.00136346      -4.16444926
Al       2.27317526       9.29246697       8.21229183      -0.00314909       0.00325723      -0.00096364      -4.32543073
Al       0.93096429       6.92098421       8.45131305       0.00684819      -0.01975492       0.01235048      -4.00917453
Al       2.03382722       6.72749724      10.85871918       0.00272246      -0.01248331       0.00839575      -3.86838845
Ni       0.99167266       9.51400531      -1.36032645       0.00083307      -0.01086395      -0.00010352      -6.12836690
Al       1.74424934      11.30172911       0.36690012       0.00413006       0.00379131       0.00621225      -4.24730789
Ni      -0.30039756       7.89949373       3.93584296       0.00167095      -0.01360273      -0.01124321      -5.87082348
Al       0.07637751       9.97764374       2.77406277       0.00130002       0.01613298       0.00470994      -4.03898262
Al       0.71838819       8.63313028       6.05764297       0.00967572       0.00364325       0.00412835      -4.27383950
Al       2.18504266      11.16862567       5.90293783      -0.00944445      -0.00459828       0.00219601      -4.26326173
Ni      -0.17151466       8.97661087       8.39741802      -0.00364549       0.00477993       0.00377384      -5.89683933
Al       2.72374489      11.29217167       9.87115140      -0.02265015      -0.00986901      -0.00574606      -4.26427964
Ni       3.43059542       0.59903351      -0.32603964       0.00359524       0.00921112      -0.00044047      -5.81944614
Al       5.18497635       1.87573606       1.05131569      -0.00106006      -0.00161865       0.00775015      -4.08873857
Al       2.07583372      -0.87883836       3.27065297      -0.00073184      -0.00596907      -0.01774488      -4.32065383
Al       4.95967636       0.06596799       5.27747672       0.01196055       0.00222674      -0.00615819      -4.27273964
Ni       2.70294637       0.57500289       5.02358686      -0.01388643       0.02981848       0.02621905      -5.50930284
Al       5.17524117       1.66641164       7.68751592      -0.00914011      -0.00299635       0.00365481      -4.47621470
Ni       3.28514989       1.03070412       9.24462778       0.01328277      -0.00346641      -0.00000701      -5.87127319
Al       5.02376859       2.11446635      10.44457967      -0.00575539      -0.00984610      -0.00138722      -4.37725725
Al       3.86133882       5.05779496      -0.80302104       0.00242120      -0.00043180      -0.01910206      -3.94770732
Al       4.56034053       4.46174766       1.89490576       0.00700458      -0.00172854      -0.00165239      -4.16684695
Al       3.82307610       1.69291140       3.26408981      -0.00662134       0.00256650       0.00349581      -4.21697806
Al       5.33127388       4.83297339       4.50305373      -0.00850358       0.00280610      -0.00388381      -4.52176127
Ni       4.26228486       2.54490443       5.48697321      -0.02491753      -0.00796831       0.00415716      -5.99118386
Al       4.05701300       4.64076251       6.80689094      -0.00067162       0.00617154       0.01480312      -4.29508200
Al       2.98860189       3.40111037       9.09677902      -0.00152135      -0.00036138       0.00339684      -4.17966168
Al       5.67249611       4.81361277       8.78225327      -0.00324781      -0.00400254       0.00279744      -4.39360229
Al       3.33134618       7.02070194       1.33813166      -0.00000230      -0.00063948       0.00840012      -4.17345983
Al       5.28378779       8.82128940       1.51760059       0.00669851       0.00959575      -0.00149473      -4.18803543
Ni       3.25030930       5.87444466       3.39410593       0.00658632       0.00968696       0.00467117      -6.03018241
Al       4.84845831       7.52267092       4.79853296      -0.00778359       0.00750234       0.00782400      -4.38881931
Al       2.44213361       6.55642170       5.68919029       0.00492006       0.00337670      -0.00334644      -4.00810560
Al       4.34708624       7.53433061       7.50201483      -0.00427562      -0.00301430      -0.01012490      -4.24695065
Ni       3.26546223       5.73416917       8.95527244      -0.00757344      -0.01384084      -0.00395363      -6.12922253
Al       5.05050779       7.20481547      10.04983765      -0.00350261       0.00663027       0.00640338      -4.13879822
Al       3.32942756       9.23324201      -0.53732964       0.00450588      -0.00258133      -0.00914296      -4.26592023
Al       4.42522898      11.67092593       1.22566160       0.00405903       0.00731364       0.00607751      -4.25709641
Ni       3.02638908       9.72430485       1.85154213      -0.00648016       0.00351951      -0.00811721      -6.07666428
Al       4.37339926      10.07190354       3.95530671       0.01043697       0.00879988       0.00757436      -4.12386700
Ni       3.11982778       8.91062630       5.83681052       0.00758697      -0.00234127      -0.00623382      -6.01464905
Al       4.70406865      10.35081582       7.02186701      -0.00566660      -0.01003260      -0.00433466      -4.17861022
Ni       4.48435809       9.49537715       9.29858115       0.00288120      -0.01093081       0.00166798      -5.99389658
Al       5.22789725      11.83025759       9.25181049       0.01035119       0.01095093      -0.00893736      -4.17549913
Al       6.63840043      -0.13360264      -0.07711770      -0.00407152      -0.00810045       0.00801221      -3.74643177
Al       8.03649541       1.28200997       2.08072727      -0.01067198      -0.00100172       0.00170901      -4.09513942
Ni       5.99322408       0.38761905       2.83741147       0.00236295      -0.00167126      -0.00173860      -5.93453143
Al       9.50309229       1.60921407       4.60631960       0.00136696      -0.00128503      -0.00992614      -4.26327377
Ni       6.40007393      -0.50217325       7.12517377       0.00971687       0.00029392       0.00034790      -5.93489304
Al       7.79814087       1.74661472       6.83089961       0.00514474       0.00374735       0.00552734      -4.37991845
Al       7.52236947       0.34046853       9.21576188      -0.00997457       0.00063346      -0.00696497      -4.05841897
Al       7.72804095       2.06517505      11.34688670      -0.00158038      -0.00659998      -0.01149691      -4.01794243
Ni       5.95158518       3.95310852       0.01342410       0.00109594       0.01212220      -0.00280705      -5.89047545
Al       7.29224125       4.51542933       2.09350727       0.01310566       0.00352276      -0.01404906      -4.33703501
Al       6.45850043       2.32696844       4.25272771       0.00125468      -0.00188395      -0.00059434      -4.22422109
Al       8.23116206       4.23390394       5.07821398       0.00276861      -0.00353202       0.00585822      -4.52228742
Ni       6.27955124       3.60003889       6.49978012       0.00851725       0.00464854       0.01468878      -5.96891732
Al       8.18206569       4.62875693       7.71951491      -0.00097281       0.00388773      -0.01275637      -4.58242322
Ni       7.05527010       2.77375450       9.05344539       0.00835643      -0.00655589       0.01372705      -6.14764870
Al       7.81139367       4.68689494      10.53581461       0.00019994       0.00410642       0.01828936      -4.17788467
Al       6.02287453       6.37384747       0.27825321      -0.00197923      -0.00123969      -0.00161386      -3.95933734
Al       7.99757272       7.47170837       1.92299438       0.00714491      -0.00662675      -0.00463876      -4.28072067
Ni       5.65676936       6.60252796       2.65213630       0.00129207      -0.00077282       0.00282013      -6.14969325
Al       7.36830371       6.91094660       4.52470687       0.01079319       0.00731976       0.00414952      -4.33097848
Ni       6.20898798       6.12939689       6.55945532      -0.00348332      -0.01069715       0.00228371      -5.99704037
Al       8.38709755       7.26539683       7.04895577      -0.00099841      -0.00108917       0.01794571      -4.38929880
Ni       7.31964497       6.60162281       9.07834906      -0.00060058       0.00405803       0.00814806      -5.88407906
Al       7.98790902       7.72469450      11.12052546       0.00117888       0.00028035      -0.00502439      -4.07295320
Al       5.94959602       9.98758114      -0.82634765      -0.00602093      -0.01711748       0.00481828      -3.81811023
Al       7.15691555      10.82860332       1.93552633      -0.00159939       0.00349974       0.00133987      -4.03911412
Ni       6.57512269       8.94121893       3.47468872       0.00115151       0.00004907      -0.01353965      -5.84232276
Al       7.58307787      12.25294529       4.46794676      -0.00268533       0.00459567      -0.00270434      -4.18702392
Al       6.98673951       9.75009208       5.76740036       0.00001645       0.00591996       0.00327590      -4.11153479
Al       8.84416312      11.48509092       7.02650443      -0.00069995      -0.00197738       0.00176454      -4.19695750
Al       6.79159392       8.97337884       8.59544492      -0.01004954       0.00372104       0.00175855      -4.03518768
Al       8.51039955      10.43279878      10.28305799      -0.00130225       0.00412343       0.00247666      -3.55456007
Al       9.37672996      -0.15689663       0.19097427       0.00723908       0.00036217      -0.00595524      -3.65770298
Al      11.57867853       2.23883564       2.65940193      -0.00141152       0.00098755       0.00062247      -4.19031351
Al      10.23918424      -0.68536987       2.69645193       0.00412978       0.00370393      -0.00569789      -4.03594459
Al      12.09903137      -0.30282256       4.67373774       0.00037039      -0.01177322      -0.00335298      -4.25548029
Ni       9.78365200      -0.83672702       5.05684941       0.00511606      -0.01241660      -0.00753891      -5.91935853
Al      10.78616031       0.80273364       6.89385184       0.00646170       0.00042570       0.00260761      -4.16881289
Al      10.22652153      -0.12491212       9.54353599      -0.00114430      -0.00678142       0.00415325      -3.64991512
Al      11.84924872       2.11038734      10.10885977      -0.00857498       0.00793808       0.00112251      -3.92520139
Al      10.00426314       2.59113844       0.45696867       0.00596923      -0.00081284       0.00074218      -3.83179323
Al      10.25740912       5.09989302       1.46229520      -0.00193238      -0.00374736      -0.00470330      -4.05833481
Ni       9.25094815       3.25151301       2.79045355       0.00328383       0.01014523      -0.00277970      -5.91415052
Al      10.74491452       4.25154749       4.43183354       0.00899700       0.00320757       0.00195978      -4.45677386
Ni       9.96235984       3.05710688       6.61910687      -0.00805686      -0.00223619       0.01047312      -6.03025653
Al      11.43202377       4.35933287       8.25965093      -0.01005393       0.00442350      -0.00604457      -4.22195050
Al       9.44258507       2.45392295       9.02493673      -0.00086264      -0.00593712      -0.00453942      -4.06874948
Al      10.67533630       4.51503762      10.88092679       0.00882959       0.00908321      -0.00362148      -3.77374164
Ni      10.13933440       7.18371556      -0.05964540       0.00817150       0.00513687      -0.00021000      -5.92366304
Al      10.91434489       7.69728768       2.26422147      -0.00099734      -0.01243733       0.00504694      -4.16600959
Ni       9.08357152       5.74683225       3.33141795      -0.01104632      -0.00111562       0.00803016      -5.81637462
Al      10.22276125       7.27582195       4.81951056      -0.00411746       0.00384419      -0.00411470      -4.31256795
Ni      10.24739227       5.52815260       6.53579833       0.00338543      -0.00410205       0.00772444      -5.96844440
Al      11.20720681       7.56399415       7.35410757       0.00331875      -0.01291983       0.00962226      -4.22926039
Al       9.73499407       6.51547486       9.44099991       0.00407835      -0.00212223       0.00374617      -3.96881583
Al      11.73521098       8.26898749      10.60681669      -0.00757539      -0.00048328      -0.00159655      -4.28767540
Al       9.51409683       9.56512975       0.66738472       0.00289758       0.01050178       0.00252384      -3.76681640
Al      11.94893033      10.68063601       0.46418138       0.00232234      -0.00219304       0.00414806      -3.88116556
Al       8.88772014       9.69547164       3.72734961       0.00421839      -0.00651028      -0.00947798      -4.20758839
Al      11.32558815       9.77647447       5.11361092      -0.01910115       0.01331050       0.00036537      -4.17627651
Ni       9.33693227       9.26302277       6.20133963       0.00693506       0.00607975      -0.00957501      -5.82752283
Al      12.48201618      11.15292426       7.17544788       0.00701844       0.00045207      -0.00069163      -4.10229283
Al      10.32168226       9.78055730       8.44393601      -0.00277607       0.00468067      -0.00455913      -3.90026604
Al      12.60166568      11.10740260       9.90801313       0.00119388       0.00065073       0.00055407      -3.97569707
