184
Lattice="14.026880198956995 -0.00604908227306621 -0.013963996617899006 -0.006040299299847263 14.075505696899466 -0.019002747214498968 -0.01395086114168273 -0.018997006450463923 14.097951015382703" Properties=species:S:1:pos:R:3:forces:R:3:energies:R:1 rep=5 n_sites=250 energy=-891.1493408545417 stress="0.0008699433632553347 0.00037992434734586406 0.000584572654226906 0.00037992434734586406 -0.00016459330312932903 0.0006514781404723562 0.000584572654226906 0.0006514781404723562 -0.0005906537334233047" free_energy=-891.1493408545417 pbc="T T T"
Ni       0.01269070      -0.00333972      -0.00669794       0.00086314       0.00127745      -0.00044220      -5.90451687
Al       1.34426096       1.43469944       1.47942823      -0.00177197       0.00412152      -0.00015348      -4.31699968
Al       1.37967763       1.37795607       4.26618495      -0.00029409       0.00073599       0.00267736      -3.71013493
Al       1.53852404       1.31996162       6.96977241       0.00024381      -0.01104398      -0.00463758      -3.33389034
Al       1.30261472       1.39221875       9.66671013      -0.00335917       0.00795387      -0.00700289      -3.93631065
Al       1.31109128       1.32125297      12.60043024       0.00267647       0.00575915       0.00163207      -4.55319268
Al       1.32824524       4.15588642       1.41562717      -0.00224816      -0.00301844       0.00004213      -4.08150190
Al       1.33083002       4.11601981       4.12934431       0.00426722       0.00106853      -0.00565773      -4.11680621
Al       1.31427414       4.05542628       7.02342211       0.00878513      -0.00498586       0.00051715      -3.98080321
Al       1.33391020       4.24230241       9.71948056      -0.01102351      -0.00499949       0.00080630      -4.26396782
Ni      -0.09235623       2.82567698      11.15194173      -0.00231087       0.00663011       0.00167939      -6.13971274
Al       1.29003398       4.14554790      12.74064932      -0.00083069       0.00780442       0.00017761      -4.58378006
Al       1.30403885       7.03187531       1.40456269       0.00230823       0.00486450       0.00000812      -4.23816249
Al       1.36124672       7.04171924       4.17320335       0.00272298       0.00418224       0.00342556      -4.62437016
Ni       0.03216692       5.60930279       5.59345597       0.00152501       0.00104631       0.00204093      -6.01667424
Al       1.44442936       6.94707704       7.08864072      -0.00119515      -0.00034150      -0.00207434      -4.64344788
Al       1.37235687       7.06238249       9.90187114      -0.00025279       0.00670918       0.00475138      -4.41998428
Ni       0.00858083       5.60548644      11.30434132      -0.00254469       0.00151170      -0.00630177      -5.99790063
Al       1.35389489       7.06201030      12.74388006       0.00183891      -0.00526545      -0.00263891      -4.27402052
Al       1.34273018       9.89010284       1.46565114       0.00125097       0.00049989      -0.00158750      -4.36243511
Al       1.35040778       9.87331259       4.24001523      -0.00253485      -0.00748044      -0.00353716      -4.44162597
Ni      -0.03357143       8.34317772       5.68867278       0.00287142      -0.00247902       0.00263660      -6.05848747
Al       1.39042117       9.94637274       7.01978143      -0.00177803      -0.00338972       0.00389185      -4.59399273
Ni       0.07116559       8.49494132       8.41413795      -0.00320101      -0.00304309       0.00257143      -6.08187501
Al       1.43729363       9.93769339       9.88002595       0.00790583       0.00026669      -0.00075742      -4.33705800
Al       1.35913689       9.82520283      12.61344261       0.00182922      -0.00359891       0.00529752      -4.17587550
Al       1.35110883      12.62438639       1.49733480       0.00531412       0.00244220       0.00082174      -4.45999128
Ni      -0.12631102      11.21583456       2.82256981       0.00410185      -0.01047032      -0.00065941      -5.91215289
Al       1.43092234      12.62451690       4.21436021      -0.00067530       0.00398045       0.00516080      -4.16427525
Al       1.42821187      12.67308236       7.09695959      -0.00687327       0.00134279       0.00310739      -3.96456096
Ni      -0.05562137      11.34253126       8.54113421      -0.00143372      -0.00030353      -0.00310487      -6.07735475
Al       1.38450858      12.78298670       9.91615226       0.00109530      -0.00700773      -0.00264675      -3.91596894
Ni      -0.09939723      11.25880049      11.22646498      -0.00384829      -0.00218559      -0.00227956      -6.02236983
Al       1.32021904      12.55409301      12.66930669       0.00515516       0.00648140       0.00683242      -4.35016369
Ni       2.67498987      -0.05151138       0.03299639       0.00917500       0.00376815       0.00043500      -6.19178667
Al       4.25051611       1.36311476       1.32488518      -0.00240436      -0.00364516       0.00008813      -4.52206455
Ni       2.86740655       0.03732380       2.85108815      -0.00083896       0.00004680       0.00095424      -6.01361933
Al       4.17012397       1.50783743       4.27283548      -0.00744164      -0.00249273       0.00521471      -3.88450154
Al       4.22467412       1.36459467       6.98587602       0.00167001      -0.00916259      -0.00006976      -3.66444290
Al       4.15126464       1.32954461       9.84028246       0.00265036       0.00211299       0.00251149      -4.16591736
Al       4.19385216       1.31339348      12.58829288      -0.00356755       0.00046346       0.00575993      -4.44193211
Ni       2.81290848       2.72554538      -0.06018821       0.00170761      -0.00573975       0.00387686      -6.16102126
Al       4.20130631       4.12320044       1.41043171      -0.00166604       0.01014037       0.00326519      -4.58476516
Al       4.22939649       4.16534626       4.21902873       0.00647643       0.00621174      -0.00075417      -4.07895284
Al       4.13190971       4.19707340       7.00145502       0.00030333      -0.00575480      -0.00262531      -4.25915033
Al       4.12990393       4.08906779       9.87031732       0.00269456       0.00366962      -0.00034269      -4.53539214
Ni       2.61917017       2.74693210      11.20501382       0.00066816      -0.00263473      -0.00245120      -6.03624535
Al       4.18579673       4.12957998      12.64237679      -0.00198369       0.00152183      -0.00557045      -4.67986877
Ni       2.75813128       5.58654565       0.03301359      -0.00196094      -0.00026565       0.00249927      -6.23260366
Al       4.23943199       7.06168870       1.40248005       0.00175147      -0.00358403      -0.00113890      -4.66846161
Ni       2.80501201       5.60202840       2.79386733       0.00348580      -0.00307221       0.00151679      -6.17377857
Al       4.23804139       6.99721131       4.23072035      -0.00215730       0.00493333      -0.00211924      -4.56108363
Ni       2.69424263       5.50434417       5.57063684       0.00339720      -0.00711338      -0.00508810      -6.03949010
Al       4.21698418       6.94925529       7.05776709      -0.00118275       0.00277133      -0.01268081      -4.39361888
Al       4.10558037       6.97388821       9.79515826       0.01036106       0.00013315      -0.01307748      -4.30651858
Ni       2.71103776       5.56897213      11.30422754       0.00513743       0.00069367       0.00025454      -6.16719306
Al       4.15568105       7.07080004      12.67134231       0.00029241       0.00193864      -0.01028255      -4.58740976
Ni       2.79593765       8.56540090       0.04280098       0.00127666      -0.00388185       0.00439453      -6.14352759
Al       4.29935307       9.87869435       1.46278940      -0.00273567       0.00069080      -0.00547278      -4.21958282
Ni       2.77061683       8.40514757       2.79641921      -0.00093848      -0.00005622       0.00090557      -6.12686913
Al       4.20066144       9.87665611       4.14169278      -0.00564032      -0.00073549      -0.00233333      -4.44813711
Ni       2.83683464       8.46077298       5.63869247      -0.00031831      -0.00130098       0.00188550      -6.31370454
Al       4.22488574       9.85248350       7.16098366      -0.00242480       0.00152201      -0.00277841      -4.44828858
Ni       2.75183236       8.46531117       8.47513134       0.00216862      -0.00734406      -0.00225519      -5.98054364
Al       4.20526708       9.82156394       9.91900567      -0.00002922      -0.00014861      -0.00234902      -4.03691762
Al       4.29624094       9.88485207      12.70414048      -0.00324727      -0.01176831       0.00515691      -4.30111310
Ni       2.80553990      11.22673987      -0.00692991       0.00257684      -0.00376683       0.00010100      -6.06930025
Al       4.20577072      12.60492948       1.41861782      -0.00242975      -0.00352435      -0.00558074      -4.37711380
Al       4.21348801      12.71937472       4.26227119       0.00027299      -0.00724780       0.00353089      -4.47694463
Ni       2.89276061      11.30775475       5.67979271       0.00313935      -0.00222964      -0.00435104      -5.98464028
Al       4.21343076      12.75516350       7.12866627      -0.00100268      -0.00247494       0.00650888      -3.88984992
Al       4.07431074      12.62457597       9.79194154      -0.00027143      -0.00107361       0.00223341      -3.88541367
Al       4.14673921      12.66454439      12.70199219      -0.00927267       0.00303224       0.00601570      -4.46688172
Al       7.03461667       1.33331131       1.41005256       0.00576222       0.00567172      -0.00508830      -4.19016476
Ni       5.53166862       0.03613106       2.83605656      -0.00829383      -0.00219395       0.00091523      -5.91188846
Al       6.93776241       1.43660974       4.20756844       0.00594613       0.00307647       0.00461420      -4.21110656
Al       7.06046201       1.46417380       7.12632073       0.00387885      -0.00607545      -0.00266327      -4.23698747
Al       6.93649992       1.39889275       9.88562574      -0.00711101      -0.00200828       0.00651042      -4.14737325
Ni       5.59214204      -0.16381813      11.23207826      -0.00245649      -0.00511582      -0.00554532      -5.92950725
Al       6.97362581       1.29644774      12.61500731       0.00000624       0.00217750      -0.00011547      -4.36796927
Ni       5.69563681       2.80142232      -0.01944874      -0.00606897      -0.00723088      -0.00073537      -6.11506678
Al       7.10835435       4.20063780       1.38696650      -0.00467994      -0.00850794      -0.00015646      -4.29839090
Al       7.01648822       4.20493835       4.16546032       0.01106283      -0.00389599       0.00679424      -4.19252695
Al       7.04704049       4.18185392       7.02191867      -0.00485924       0.00083106      -0.00400876      -4.51834342
Ni       5.54354184       2.80346766       8.39033404       0.00718401      -0.00075195      -0.00045303      -5.89562337
Al       7.08103130       4.13052211       9.88555570      -0.00235693       0.00583644      -0.00416939      -4.40983257
Al       7.01530116       4.18379284      12.57244758      -0.00660656      -0.00703835       0.00000889      -4.50116247
Ni       5.62580348       5.60895740      -0.02141120       0.00050211      -0.00069382      -0.00571204      -6.24099163
Al       7.10735470       7.00823718       1.41688687       0.01157189       0.00448320       0.00123186      -4.31424432
Ni       5.62188518       5.55862246       2.73362050      -0.00276204       0.00449933      -0.00352452      -5.98639201
Al       6.92501466       6.99382585       4.17814130       0.00848398       0.00598478       0.00319270      -4.29613134
Al       6.91257974       7.01202335       7.07830319       0.00503225      -0.00085940      -0.00344153      -4.54872431
Ni       5.62812652       5.47173467       8.51700253       0.00295634      -0.00404300       0.00202158      -6.08000110
Al       6.97787428       7.01339293       9.88910643      -0.00059092      -0.00262286      -0.00200240      -4.48817362
Ni       5.50539262       5.61888136      11.22828625       0.00123410       0.00070408      -0.00556164      -6.12557147
Al       6.99666335       6.99200052      12.60432778       0.00121472       0.00430662      -0.00175605      -4.46158753
Ni       5.72661731       8.43815078       0.01105306      -0.00246727       0.00056608      -0.00301431      -6.11757682
Al       7.09245128       9.87364492       1.38401211      -0.00481788      -0.00198450      -0.00173329      -4.20110951
Al       6.99805328       9.87311632       4.16477933      -0.00308836       0.00022261      -0.00079948      -4.44538653
Ni       5.59900810       8.49254018       5.62515687       0.00191054       0.00323628      -0.00264429      -6.13573882
Al       6.99010754       9.85392874       7.09507338      -0.00638925       0.00273584      -0.00371556      -4.57955219
Al       6.99625613       9.91376679       9.90192256      -0.00253232      -0.00074394      -0.00043842      -4.29766244
Al       7.02231172       9.90165151      12.62164675       0.01122435      -0.00167617       0.00741136      -4.31432882
Al       6.98198805      12.66679632       1.42013146      -0.00274359      -0.00462074       0.00326917      -3.89396511
Al       6.96438456      12.73025554       4.19839186       0.00000263       0.00410279       0.00479954      -4.41701892
Ni       5.54951347      11.26579426       5.67246723       0.00189284       0.00501834       0.00319778      -6.13926462
Al       6.96078332      12.76039909       7.06600631       0.00343666      -0.00308844      -0.00100448      -4.24060246
Al       7.05005991      12.67876336       9.79323004      -0.00821202       0.00345226       0.00966507      -4.24969678
Ni       5.57995002      11.35072082      11.24897402       0.00052456       0.00523629      -0.00336088      -5.93795719
Al       7.04810478      12.63973213      12.75390756      -0.00040936      -0.00629993       0.00434011      -3.89623570
Al       9.80697169       1.32592091       1.37401905      -0.00084561       0.01044925      -0.00183695      -4.23545450
Al       9.80111268       1.44465553       4.08709604      -0.00607122      -0.00815010      -0.00825908      -4.46604855
Ni       8.41166953       0.14446545       5.67433308      -0.00424483       0.00544449      -0.00242322      -6.11019187
Al       9.90474476       1.46880426       7.11469810       0.00244205       0.00311197      -0.00149348      -4.24315649
Al       9.78364151       1.28116322       9.78641326      -0.00093890       0.00579597       0.00077719      -3.92592307
Al       9.83536810       1.21228353      12.67059888      -0.00391159       0.00134429       0.00078414      -4.27717336
Ni       8.42116455       2.73187003      -0.06100003      -0.00676815       0.00548862       0.00200831      -6.14926985
Al       9.81315337       4.23434604       1.42043079      -0.00606456      -0.00694579      -0.00645324      -3.87008325
Al       9.88889286       4.26810269       4.12517269       0.00435925       0.00261897       0.00393024      -4.08657520
Ni       8.46822637       2.81516213       5.55454537      -0.00345910       0.00370909      -0.00183292      -6.13333880
Al       9.87694209       4.22228214       6.97648618      -0.00078209      -0.00272744      -0.00865739      -4.51371672
Al       9.79692871       4.15662459       9.83613564      -0.00439673       0.00645286       0.00764827      -4.45608716
Ni       8.51739652       2.70463509      11.28816405      -0.00267903       0.00013634      -0.00422049      -6.02058786
Al       9.79270433       4.26345933      12.65883359      -0.00785766       0.00347393      -0.00249290      -4.24194973
Al       9.81596291       6.93338657       1.39935947       0.00026704       0.00944100      -0.00591362      -3.85049995
Al       9.83521907       7.05238227       4.11524102       0.00563245      -0.00084544       0.00315141      -3.87237139
Ni       8.43674555       5.63036390       5.58273138      -0.00103067       0.00499696      -0.00375958      -6.13213148
Al       9.88095963       7.09416174       7.00478455       0.00262891       0.00902579      -0.00094421      -4.43429927
Ni       8.48278368       5.66136423       8.41102802      -0.00026264      -0.00197856      -0.00486019      -6.18560428
Al       9.89977881       7.04379873       9.91940034      -0.00157850      -0.00169345      -0.00374352      -4.34273975
Al       9.84108765       6.91317401      12.63774280      -0.00474992       0.00389736       0.00484572      -4.08446036
Ni       8.47138851       8.43821050      -0.10956496       0.00293777       0.00182321      -0.00296840      -6.16348317
Al       9.84807360       9.82818262       1.39934354       0.00534078      -0.00808510      -0.00180837      -4.41793280
Al       9.81148373       9.82991469       4.25959263      -0.00060826      -0.00170627       0.00048678      -4.43521786
Ni       8.34207414       8.34453850       5.61345322       0.00703415       0.00285758      -0.01175694      -6.13618834
Al       9.83454885       9.82140176       7.02091346      -0.00141510       0.00442892       0.00126073      -4.55662459
Ni       8.40424870       8.45682045       8.54601283      -0.00021633       0.00450532       0.00262255      -6.23527210
Al       9.85670868       9.86906040       9.90449548       0.00643746       0.00557661      -0.00462915      -4.46951581
Ni       8.44315044       8.42164107      11.26445811       0.00201634      -0.00155410       0.00164094      -6.06688207
Al       9.90390537       9.83132184      12.63425670      -0.00378797      -0.00595364      -0.00627903      -4.32906965
Al       9.79608505      12.67591738       1.34204903       0.00328347       0.00214589       0.00534179      -4.10345580
Ni       8.46841269      11.25181235       2.79031539      -0.00003610       0.00610618      -0.00014332      -5.98668655
Al       9.77376605      12.74967967       4.21739593       0.00932175       0.00923635      -0.00095143      -4.70005293
Ni       8.35268947      11.35250789       5.63840304      -0.00809793       0.00145485       0.00778565      -6.30103378
Al       9.81555015      12.81460511       7.08709012       0.00188027       0.00065395      -0.00149062      -4.60811809
Ni       8.46924568      11.28427178       8.42562965      -0.00374117       0.00061053       0.00091125      -6.06049584
Al       9.78735658      12.70341164       9.94732220      -0.00103165      -0.00443550      -0.00119033      -4.06297971
Al       9.78070022      12.60361104      12.72381813      -0.00581292       0.00353088      -0.00257176      -3.69540239
Al      12.58754049       1.38441231       1.32572223      -0.00272615       0.00345689      -0.00383277      -4.15001286
Ni      11.23476540      -0.00980560       2.81417648      -0.00593778      -0.01110049      -0.00044829      -6.00413262
Al      12.70874385       1.48951961       4.05924932      -0.00040925       0.00037967       0.00765342      -4.15133152
Ni      11.30362608       0.12204501       5.58140809       0.00155111      -0.00381957      -0.00333523      -6.15750053
Al      12.84134207       1.49204090       6.96272614      -0.00216433       0.00008679      -0.00064676      -3.94444471
Al      12.55126306       1.39288548       9.69969624       0.00310249       0.00098017       0.00216711      -3.92998460
Al      12.64217720       1.39290765      12.67891819      -0.00081406      -0.00696728       0.01084072      -4.35654180
Ni      11.13657503       2.82784927      -0.04805654      -0.01148799      -0.00120641       0.00869483      -6.00807633
Al      12.61001513       4.17885259       1.40503184      -0.00168658       0.00213848       0.00762684      -3.68356875
Al      12.61289372       4.24726073       4.16346957       0.00187139      -0.00705664       0.00034883      -3.94843991
Ni      11.26260903       2.75835518       5.56537391       0.00712865      -0.00002662       0.00133922      -6.01391839
Al      12.58819454       4.23914787       7.00968845       0.00315398      -0.00420313       0.00297673      -4.13241874
Al      12.53172027       4.26953954       9.83149271       0.00425740      -0.01234823       0.00771251      -4.37468180
Ni      11.20230449       2.72503845      11.27142723      -0.00330269      -0.00302753       0.00009487      -6.15813551
Al      12.56974775       4.22699250      12.69223607       0.00076110       0.00432791       0.00230029      -4.34581915
Al      12.61959293       6.92065914       1.44622118      -0.00336573       0.00131941      -0.00210515      -3.62831790
Al      12.55821690       7.00948018       4.17329694      -0.00012017      -0.00262941       0.00454055      -3.89921657
Al      12.62399114       6.96958415       7.09529229       0.01168038       0.00494541      -0.01305454      -4.36940902
Ni      11.14802313       5.62207854       8.45472852      -0.00513981      -0.00194721      -0.00166252      -5.90810131
Al      12.66120035       7.03235932       9.82665374      -0.00180308       0.00182064       0.00923391      -4.09153126
Al      12.60977170       6.99371199      12.66941034       0.00062171       0.00120653       0.00726152      -4.02432677
Ni      11.20604136       8.35374204       0.01389920      -0.00625529      -0.00217452       0.00446309      -5.90544919
Al      12.57615339       9.74893463       1.41793459       0.00508839       0.00315380       0.00098917      -4.23553326
Al      12.59869402       9.81118955       4.31501647      -0.00559421       0.00612334      -0.00235108      -4.32484366
Al      12.63067680       9.89255736       7.02178530      -0.00034286      -0.00817069       0.00191668      -4.49481247
Al      12.58576113       9.74785520       9.83953664       0.00206919       0.00756084       0.00257010      -4.46426870
Al      12.61818622       9.79435972      12.71760870      -0.00230281       0.00494978       0.00346201      -4.17945721
Al      12.63362615      12.67198226       1.35392398      -0.00343911       0.00220963       0.00338279      -4.40105275
Ni      11.23495639      11.28612384       2.84358700       0.00201006      -0.00057098      -0.00540911      -6.18516592
Al      12.72124114      12.72494061       4.25659789      -0.00574038       0.00627588       0.00666095      -4.50196562
Ni      11.20047728      11.36630431       5.68587708       0.00378485       0.00470180       0.00126140      -6.16383075
Al      12.66583904      12.81022837       7.06817808       0.00423248       0.00112510       0.00202271      -4.35376180
Ni      11.21394523      11.33422003       8.45708604       0.00640943      -0.00240314      -0.00383389      -6.26649185
Al      12.58509371      12.81937643       9.86556452       0.00099636       0.00000441       0.00250314      -4.24731870
Ni      11.30115020      11.29487041      11.26905802       0.00243728      -0.00957426      -0.00152734      -6.00409344
Al      12.59092982      12.70968422      12.69782335       0.00463105      -0.00017016       0.00695696      -4.27444311
