139
Lattice="12.698599113164175 0.30933724614459696 0.21912013543211648 0.3290100536077634 13.59048776057462 0.31046116016539177 0.22572662892300152 0.31989668409563154 13.325034985271722" Properties=species:S:1:pos:R:3:forces:R:3:energies:R:1 rep=5 n_sites=250 energy=-564.0256958007812 stress="-0.0005159610882401466 0.0005679532187059522 4.40411786257755e-05 0.0005679532187059522 -0.0003416406107135117 -0.0005739438929595053 4.40411786257755e-05 -0.0005739438929595053 0.00036392855690792203" free_energy=-564.0256958007812 pbc="T T T"
Al       1.31143136       1.65923911       0.91486985       0.00201659      -0.00828551       0.00247288      -4.00435156
Al       0.31307380       1.10836977       3.51666349       0.01200197      -0.01770249       0.00625026      -4.08968657
Al       0.88173524       2.76039748       6.27789222      -0.01956850       0.01282817      -0.01352705      -3.72918844
Al       1.07293853       1.38731441       8.85634727      -0.01751688      -0.00010115       0.00760924      -3.72967887
Al       0.85978228       2.56362454      11.40526802       0.00075112       0.00665548       0.00883946      -3.64198112
Al       0.65061740       4.70676174       0.62906311       0.00277274       0.00238793      -0.00433984      -4.27150995
Ni      -0.35262028       2.99207585       2.06134782      -0.00322152       0.03176988      -0.01534929      -5.92267334
Al       1.62971450       3.75756619       3.26667295       0.03191930       0.01278007      -0.00563274      -4.05632764
Al       1.93727930       5.25817895       7.31353494       0.00072886       0.01111086       0.00225887      -3.64749396
Al       0.41287346       4.21039099       9.22660761       0.00170727       0.00179426       0.00235278      -3.68526626
Al       2.27852775       4.86375902      11.63733943       0.00081199       0.01356988       0.00566857      -3.89391077
Al       1.48781280       7.08481755       1.82485307       0.00047937      -0.01390529      -0.00930224      -4.14634180
Ni      -0.07793305       5.41519406       2.83063827       0.00622763      -0.00001183      -0.02330347      -5.86515576
Al       1.41869032       6.46865147       4.49480295       0.01013427       0.00878642      -0.01245621      -4.04398298
Al       1.46991511       7.89103717       7.28267576      -0.01358449       0.00066819       0.01114116      -3.68111694
Al       2.97397780       6.54391375       9.49800735       0.00335629      -0.00466718      -0.00955539      -3.72816992
Al       1.88066838       7.70491416      12.00090885       0.00227143       0.00312510       0.00992125      -3.97646976
Al       2.29059475       9.71986876       1.89676465      -0.00308408      -0.00202205       0.00995696      -3.83347666
Al       1.68585785       9.56567465       4.61421663      -0.00136220      -0.00154652      -0.01574950      -3.79594922
Al       2.25291826      10.67337422       7.16731006       0.00579602      -0.01210298      -0.00030600      -3.68870318
Al       2.24319014       9.34958471       9.67212915       0.00853571      -0.02011844      -0.01344180      -3.77308404
Al       2.24251650      10.37991825      12.30977769      -0.02375167      -0.00825867       0.00665437      -3.71811271
Al       2.25920374      12.44436836       0.70393730      -0.00516304       0.00430188       0.00578758      -3.87907690
Al       1.03937517      11.92244072       3.19076091      -0.02836996      -0.00107098      -0.00636927      -3.80074298
Al       1.59200897      13.59179929       6.62658192      -0.00553322      -0.00817889       0.01803404      -3.87047940
Al       0.98258339      11.91123140       9.77910135      -0.00024008      -0.00342651      -0.00455900      -3.73516226
Al       2.32683072      13.69402118      11.44386049      -0.01598320       0.01409596       0.01224113      -3.68706691
Al       4.09171282       1.28998380       1.41829643       0.01601013      -0.00368863       0.01771203      -4.20972162
Ni       2.34544074       0.01638686       2.49642841      -0.00327767       0.00827331      -0.00878397      -5.90540224
Al       2.84370004       1.49741152       4.43213860      -0.01130280      -0.00974721      -0.00552673      -4.25069070
Al       3.41424061       2.06402232       7.29408401       0.01101395      -0.01897201      -0.00680624      -3.97713262
Al       4.39959147       1.01762190       9.95133256       0.00337793       0.00951493      -0.00706889      -3.76955616
Al       3.44975411       2.25344979      12.15625570       0.00901303      -0.02273122       0.00276161      -3.68280792
Al       4.20992406       3.92729253       0.42311455       0.00098267      -0.00753120       0.00356992      -3.89172727
Al       4.38990223       3.46428126       3.12089597      -0.01184668       0.00356867       0.01417348      -3.63667512
Al       3.25262118       4.06221672       5.40896465      -0.00436199       0.01671770      -0.00568576      -3.63467515
Al       3.01043239       3.43655218       9.52403282       0.02609667      -0.00143706       0.01510870      -3.68900621
Al       4.77506989       6.20451772      11.72229247      -0.00941113       0.00281276       0.02440113      -3.88839656
Ni       2.81937462       5.88927575       0.12818609      -0.01828589      -0.00727318       0.00380714      -5.73482579
Al       4.02916735       6.09483194       2.25236364       0.02288184      -0.02105284       0.01697013      -4.06184429
Al       3.75237935       6.75656502       5.67766972       0.00806356      -0.01163442       0.01251285      -3.85884625
Al       4.62770569       4.86846838       7.80969489      -0.01509696       0.00125422       0.00602435      -3.73789430
Al       4.73398460       8.99519545      10.78330017       0.01854219       0.00957720       0.02371508      -3.71351087
Al       4.27509476       8.29129806      13.41544282      -0.01213259       0.00794446       0.01972377      -3.89841962
Al       4.93434852       9.29983763       2.38082194       0.00439094       0.01444970      -0.02210313      -3.84415948
Ni       3.23646096       7.96714716       3.61281130      -0.00086971       0.00548079      -0.01027140      -5.96957976
Al       4.29095754       9.59481862       5.22263786       0.00932699       0.01947045       0.00944360      -3.83371747
Al       4.15864350       8.41731314       7.79567890      -0.00513746      -0.00397535       0.00463972      -3.71173799
Al       4.04640537      11.71885059      10.87141655       0.00988667       0.02838385      -0.01388710      -3.68574941
Al       4.59455669      10.93337916      13.40516785       0.01909842      -0.01456001       0.00349260      -3.63933158
Al       4.58629771      12.12978052       2.27278451      -0.02194344      -0.00267249       0.00001442      -4.19657469
Al       3.18349392      12.15893707       4.77092703       0.01277769      -0.00172991      -0.00020117      -4.12067795
Al       4.93569431      10.84603140       8.49254720      -0.00173065       0.01370852      -0.01659487      -3.58848059
Al       3.27345213      12.97759355       8.61312043       0.01717684      -0.01068410       0.01003975      -3.85168648
Al       5.38123331      13.48986466      12.72118754       0.01297869      -0.01909937      -0.00741440      -3.93955153
Ni       6.22166531      -0.06611603       1.08108345      -0.00594058       0.00281490       0.00618166      -6.05899966
Al       6.56139725       1.85636803       2.66122993       0.00023156      -0.00174445      -0.01026668      -4.03856981
Ni       4.69122332       0.21704291       3.62523299       0.00684395      -0.00296386      -0.01201795      -6.08448911
Al       5.62467593       1.61951973       5.38064920      -0.01354976      -0.00550890       0.01033822      -4.35887408
Ni       3.86163820       0.05218965       6.10887056       0.03468330       0.01351702       0.03376267      -5.89455503
Al       6.11212397       2.55052838       8.13383432      -0.00298782      -0.00407403       0.00901428      -3.84424078
Al       7.05007586       1.32114894      10.41255900       0.00216529       0.01334812       0.03262967      -3.59136081
Al       6.49387557       2.30139146      13.03407168       0.00551488       0.00377512       0.01029637      -3.94395643
Al       6.53646694       4.88545182       2.41177209      -0.00442667      -0.00103879      -0.00115383      -3.69211888
Al       5.94725779       4.48370391       5.21186637      -0.01408681      -0.00278348       0.00603592      -3.85691184
Al       7.64170924       4.74294137       7.76384811      -0.02075727       0.00132942      -0.00563584      -3.91844386
Al       5.51844488       3.63825767      10.75159425      -0.00561849      -0.00120488       0.00033625      -3.65955114
Al       7.01141108       5.11927408      13.03785667       0.00301410       0.00186372       0.00050372      -3.68167412
Al       6.60037751       7.37181899       1.16305040      -0.01326329       0.01750718      -0.02176828      -3.66465569
Al       5.84076147       7.25458725       3.97057938       0.00661261      -0.00298950       0.01040007      -4.06458950
Al       6.30671245       6.84685267       6.68947234       0.00330110       0.00557999       0.00457963      -3.87907082
Al       5.81990556       6.89000468       9.34127798      -0.00312369      -0.00108234       0.00662864      -3.67870009
Al       7.23136391       7.57562633      11.72003299       0.03692629      -0.02199224      -0.01307826      -3.68286955
Al       6.96244306      11.10465278       1.45736383      -0.00246498      -0.01549929      -0.01755250      -3.89193845
Al       7.02869851       9.92792939       3.96113470      -0.01606731       0.00591287       0.01178902      -3.95387357
Al       6.65655446       9.60938565       6.79601424      -0.00370182       0.00054882      -0.00907253      -3.88673168
Al       7.16529694       9.62859108       9.56874047      -0.00707616       0.00611889      -0.00575002      -3.88538182
Al       6.98839489      10.13448406      12.42630719       0.01093651       0.00084132      -0.00789246      -3.82245588
Al       7.20998122      12.84187065       3.66334737      -0.00441113      -0.00055660       0.01106966      -4.05748332
Al       5.72278018      11.94951088       5.69015085      -0.02305435       0.00539991      -0.01710654      -4.04994220
Al       6.10688659      13.43626850       8.03635903      -0.02143107       0.00436098      -0.02428417      -3.76426899
Al       6.62898739      12.33212048      10.42338597      -0.01482669      -0.00836042       0.02358894      -3.86852723
Al       8.38400004      12.88730955      12.64758879      -0.00119281      -0.01363335      -0.00688299      -4.17532730
Al       8.71565628       0.19029466       1.38902863       0.01026691      -0.00574043      -0.00375581      -4.14359367
Al       8.59181335       1.06640570       4.89457086      -0.01244041      -0.00175351       0.00699103      -4.04763484
Al       8.63772414       1.26253630       7.62766364      -0.00567812       0.00191973       0.00340497      -4.07490104
Al       9.05281655       2.93958798       9.76542963       0.01607677      -0.00430331       0.00594817      -3.58723497
Al       9.12219279       1.92737127      12.20144291      -0.00019071      -0.00776869       0.00756885      -3.76301050
Al       8.43969759       3.18655171       1.19942577      -0.00411605       0.01617137      -0.00405256      -3.64876711
Al       8.46343976       3.77824542       3.98802837      -0.01155625       0.00646834       0.00529054      -3.80378079
Ni       7.54157959       2.87914653       6.14455116       0.00324406       0.00699027      -0.00291130      -5.79217064
Al       9.79896863       3.69486597       6.44861847      -0.01579776      -0.00127624      -0.00546263      -3.88284928
Al       7.75295567       5.24888538      10.39969618       0.00713458      -0.02460085       0.00708519      -3.65296936
Al       9.60912408       4.56290270      12.21262075      -0.00110127      -0.00959861      -0.00489171      -3.63117027
Al       9.11372903       6.58154855       0.43719957      -0.01839800      -0.00658550       0.00562089      -3.72661757
Al       8.49298346       6.57090229       3.35580788       0.00675350      -0.01714325      -0.00234886      -3.88143247
Al       9.24912379       6.46882009       6.35106205      -0.00635086      -0.00647043       0.00006495      -3.88308644
Al       8.47421265       7.38226577       8.80486684      -0.00800281      -0.01441648      -0.00960433      -3.77658701
Al      10.02681701       7.10707773      11.01495590       0.01480042       0.01651651      -0.00122120      -3.70117772
Al       8.77482800       9.06036424       1.64886915      -0.01644130      -0.01780899       0.00165685      -3.67452252
Al       9.79166079       8.83726794       4.22934351       0.00272797       0.00269516       0.00016063      -4.10522860
Ni       7.78079960       8.03930906       5.26366819       0.01630249      -0.00146820       0.00604507      -5.78545696
Al       9.37775694       9.40681001       6.87937651      -0.01258595       0.00829898      -0.01732665      -3.95399362
Al      10.05349906       9.61238146       9.64837173      -0.01178861      -0.01075710       0.00262859      -3.90857583
Al       9.76728363       9.52219673      12.38640084      -0.00947478       0.00246343      -0.02214004      -3.85825890
Al      10.47424267      11.16385925       0.81440775       0.01325874       0.00327349       0.00748335      -3.82802796
Al       9.30116921      11.31264707       3.19891188      -0.00732948       0.00815799      -0.01233122      -3.82007444
Al       8.41365476      11.84750836       5.91565461       0.01549923      -0.00470256       0.00857763      -4.04138893
Al       8.94166702      12.16242799       8.69431769       0.01404575       0.01366955      -0.00237638      -4.08189917
Ni       8.59727290      11.09885046      10.86919174       0.00556055      -0.00467471      -0.00343596      -5.74766874
Al      10.69621666      12.19775882      11.11957423       0.00352105       0.00018484      -0.01694608      -4.09058428
Ni      10.22998601      -0.26360170      -0.54065798      -0.01734354      -0.01685983       0.00754414      -5.84756929
Al      11.27330127       2.53368919       0.19159493       0.00350808       0.02622728      -0.00846356      -3.92746234
Al      10.32404811       2.01223527       2.91567390      -0.00464854       0.00887166      -0.00411890      -3.89742184
Ni       9.89442706      -0.45903423       6.44520146       0.00562159      -0.01175222      -0.00793053      -5.86894590
Al      11.41183239       1.37723201       6.00409713       0.00936356       0.02609605      -0.00150524      -3.92763060
Al      11.36296682       2.68697132       8.45564457      -0.00060193       0.00186574      -0.01842829      -3.66654456
Al      11.54861962       1.19372646      10.90762849      -0.01189919      -0.00352563      -0.00070590      -3.90041286
Al      10.52111315       4.87101388       2.06554448       0.01644510      -0.01079464      -0.04016885      -4.10596365
Al      11.71188981       3.92707876       4.54782206      -0.00971496      -0.00267205       0.00262815      -4.12085092
Al      11.99560675       5.24892433       7.00788159      -0.01562331      -0.01100281       0.01007576      -3.65920293
Al      10.32306520       5.20645695       9.12482936       0.00304260      -0.00426801      -0.00118426      -3.73302090
Al      12.11014962       5.25483195      11.78255858       0.01495573       0.00874687       0.00294974      -3.61477959
Al      11.25737079       7.59378097       2.20437532      -0.01591150       0.01171498      -0.00904614      -3.90081215
Al      11.42262237       6.72187130       4.83258318       0.00345619       0.01778684       0.01048493      -3.74562156
Al      11.18314661       7.63812261       8.04766831       0.01389878       0.00104275       0.00604839      -3.71964395
Al      12.92739934       7.42212762      10.09442897       0.02168835       0.00247203      -0.01047237      -3.73231947
Al      11.89517805       7.71329659      12.83688084      -0.00879436       0.01085395      -0.00226540      -3.63110971
Al      12.67324929       9.53076902       0.79662283      -0.00323740       0.00941652      -0.01364014      -3.69377565
Al      11.89500110      10.36356613       3.25323587       0.00816602      -0.00202209       0.01452988      -3.88707322
Al      12.08843805       9.15014077       5.94404901       0.01882741      -0.00571793       0.00842744      -3.81930602
Al      12.53631572      10.04227935       8.65345273       0.00176563       0.00690089       0.00656790      -3.63373911
Al      12.49312304       9.98467106      11.38572482       0.00960865      -0.00165593       0.00090486      -3.78305566
Al      11.96063438      13.58475377       1.73808549      -0.01953490      -0.00404184      -0.02536666      -3.84586072
Al      11.13794501      13.10074083       4.35176720       0.00989482      -0.01648840       0.00419870      -4.08446014
Ni      10.57946116      10.92102207       5.26841067      -0.01773333       0.00815433       0.00286263      -5.90886289
Al      12.36577956      11.89674682       6.61275340       0.01986083       0.00623816       0.01373348      -3.96532875
Al      11.55590693      13.48137568       8.76280608      -0.00152165       0.00448377      -0.00364193      -3.84457040
Al      12.93709810      12.51849739      12.72669498       0.00791940      -0.01414034       0.01250352      -3.90072280
