128
Lattice="12.227755299037415 0.23666257356049283 -0.11322455076022572 0.24040817981626322 12.724583608163337 0.1161596901833437 -0.11340486770232096 0.11496214421954365 12.277699010032858" Properties=species:S:1:pos:R:3:forces:R:3:energies:R:1 energy=-585.7211688077246 stress="0.00014423869393004205 0.0001276009657484637 1.6733277023648963e-06 0.0001276009657484637 -0.00035556066179637626 -0.0007804304797422594 1.6733277023648963e-06 -0.0007804304797422594 0.0005183564381853306" free_energy=-585.7211688077246 pbc="T T T"
Al      -0.39730680      -0.80036129       0.11453527       0.00803531       0.00482396      -0.00089739      -4.05447914
Al       2.03296209       2.24187874       1.61163159      -0.01082759       0.00127936       0.00173722      -4.04536600
Ni       0.73690163       0.18723938       2.06539250       0.00507975       0.00239364      -0.00538278      -6.11501444
Al       1.33307662       1.68508762       4.15120524      -0.00728966       0.00708297      -0.00150958      -4.20270755
Ni       0.17997805       0.62783786       6.29742606       0.00265195      -0.00128189       0.00041631      -5.96570781
Al       1.25815473       2.26689860       7.75825582       0.01148547       0.00142338       0.00886302      -4.05223064
Al      -0.26728650      -0.16511264       8.60445287      -0.00232531       0.00030011      -0.00395961      -3.93823096
Al       1.47476217       1.81881206      10.60889509      -0.00145587      -0.00525973      -0.00271606      -3.75864273
Ni       1.11033573       3.77903329      -0.26337151      -0.00105292       0.00496620      -0.01208164      -6.00851691
Al       1.64322507       4.89593205       1.92472208       0.00586582       0.00084387       0.00665067      -4.31213934
Ni       0.01154028       3.44386305       3.01234335       0.00325723       0.00139173       0.00201046      -5.98081444
Al       0.92548821       4.55480333       4.92472484      -0.00662585      -0.00514706       0.00101659      -4.30429324
Ni      -0.25286721       4.10842454       7.22862472       0.00069683       0.00090652      -0.00085375      -5.93560086
Al       1.94245358       5.14095475       7.54658571      -0.00115407       0.00446675      -0.00177723      -4.28850326
Al      -0.20302411       3.76512613       9.74085759       0.00167317       0.00054867      -0.00604864      -3.99309462
Al       2.14069706       5.21092765      10.27987350      -0.00458747      -0.00015411       0.00181021      -4.03625181
Al       0.50682248       6.28226521      -0.29904725       0.00059107       0.00449069      -0.00149088      -3.89088748
Al       1.44377668       7.73353259       1.94575269      -0.00276787      -0.00037714       0.00797662      -4.21585057
Ni      -0.14889040       6.13390593       3.07158821      -0.00062327      -0.00549131       0.00294956      -6.02012912
Al       1.63866121       7.11425117       4.56267321      -0.00697549       0.00375874       0.00403653      -4.24973707
Al      -0.36001102       6.43752169       6.53305015       0.00499188      -0.00359983       0.00224069      -4.06068690
Al       1.86265195       8.10387112       7.33815602       0.00484846       0.00351443       0.00173891      -4.20276257
Al      -0.21045518       6.66061924       9.37006816      -0.00186136       0.00669448      -0.00147067      -3.61853233
Al       2.00627831       8.18436620      10.17047251       0.00407960       0.00129256       0.00289847      -3.97904887
Al       0.49331078       9.09657245      -0.19734616      -0.00497134      -0.00070712       0.00631908      -3.91391230
Al       1.80768257      10.59397960       2.19253677      -0.00168159      -0.01040884       0.00488033      -4.09026263
Al       0.85711734       9.61095640       4.51801331       0.00805716      -0.00840763       0.00609006      -4.02131719
Al       0.11247358      12.15316070       4.39849657      -0.00345867       0.00278070      -0.00513310      -3.97926775
Ni      -0.44009428       8.93118300       6.49501946       0.00162416       0.00107839       0.00202383      -6.08475819
Al       1.00334110      10.97062793       6.81869318       0.00044279       0.01054525       0.00541703      -4.11152757
Al       0.03610869       9.43617000       8.92733983       0.00432121      -0.00123987      -0.00487069      -3.83962095
Al       1.56930044      11.08598629      10.42604184      -0.00908141      -0.00347479       0.00226395      -3.81905655
Al       2.22020739      -0.24825491       0.14049453       0.00585613       0.00141109      -0.00039522      -3.75061934
Al       4.83663152       2.05568173       2.12195377       0.00314243       0.00063056       0.00177413      -4.16921509
Al       3.19749382      -0.11477171       2.85382243       0.00314684       0.00257593      -0.00065667      -4.08644272
Al       5.89208046       2.30506350       5.08098479      -0.00615104      -0.00217627      -0.00652028      -4.29807592
Al       2.64177423       0.31723953       6.09779443       0.00208206      -0.00702606       0.00093185      -4.08273464
Al       5.10659701       0.99148765       7.48648947       0.00634423      -0.00079563       0.00707781      -4.08685880
Al       2.85198834       0.09057323       8.82494683      -0.00763423      -0.00011129      -0.00749457      -3.88224276
Al       4.16150463       1.04414743      11.11140757       0.00109122       0.00033271      -0.00079415      -3.84670082
Al       3.52612444       3.39564749      -0.28777875      -0.00445227       0.00833843       0.00418579      -3.84261602
Al       5.20399236       5.05892111       1.60765392      -0.00248720      -0.00208541      -0.00185135      -4.25837011
Ni       3.71927092       1.61088982       4.34614865       0.00754474       0.00623375      -0.00381271      -5.87488088
Al       3.93743784       4.08029196       3.72800087       0.00331808      -0.00607838       0.00425044      -4.26495774
Al       3.50735159       3.17172010       6.24192881      -0.00156245       0.00018191      -0.00108844      -4.20571598
Al       4.80425128       5.59141382       7.15041130       0.00453788       0.00174967       0.00056483      -4.47011729
Al       3.59640826       3.07835431       8.98018475      -0.00005865       0.00074225       0.00065932      -3.82264268
Al       4.88810194       5.38200803      10.40371411      -0.00172598       0.00245535       0.00015051      -4.16627839
Al       3.30096157       6.44476496       0.27261700       0.00826098      -0.00031549      -0.00148481      -4.02545150
Al       4.80706789       8.04654196       1.96272057       0.00458134       0.00000367      -0.00162262      -4.41212092
Ni       3.34774548       6.33383141       2.86624304      -0.00019445      -0.00041474      -0.00717914      -5.99762011
Al       4.47651782       7.49259727       4.83602838      -0.00397357       0.00396090      -0.00422189      -4.52417734
Ni       3.09322977       5.47558396       5.43248459       0.00775700      -0.00344113       0.01053830      -5.62880724
Al       4.61116735       8.49869186       7.65193089       0.00017063      -0.00390422      -0.00127036      -4.48145517
Ni       3.38161191       6.69176176       8.84426731      -0.00200293       0.00399398       0.00507729      -5.94911225
Al       4.65615072       8.09161958      10.48358610      -0.00891053      -0.00394799      -0.00569503      -4.38692018
Al       3.13919941       9.42711177       0.12630034       0.00774419       0.00121105      -0.00243041      -3.88595125
Al       4.81679246      11.48913903       0.88231001      -0.00579195       0.00010174      -0.00890255      -4.00039599
Ni       2.97854218       8.89227094       3.48668307      -0.00245166      -0.00090156      -0.00257390      -5.94994211
Al       5.46860183      12.36514415       5.10516518      -0.00325610      -0.00774522      -0.00417636      -4.22875784
Al       3.36400232      10.09925327       5.71482996       0.00381219      -0.00997020      -0.00839736      -4.16256854
Al       5.08828358      11.11105036       7.70531394      -0.01406048       0.00091574      -0.00839637      -4.25455303
Ni       2.77206834      10.26436650       8.38110864      -0.00880050       0.00051298       0.00970832      -6.11701228
Al       4.34165328      10.86521567      10.42696001      -0.00756165      -0.00116324       0.00724175      -4.31931067
Al       6.57894690       0.49223489       0.29196283      -0.00144876      -0.00150279       0.00562815      -3.87866334
Al       7.52096895       1.74959173       2.41419374      -0.00078877      -0.00069105       0.00416653      -4.20876328
Ni       5.88428536      -0.26682775       2.56187055       0.00868835       0.00058578       0.00490140      -6.10276943
Al       8.69985123       2.77460813       4.38012594      -0.00263219       0.00287218      -0.00891823      -4.38531053
Ni       7.57545972       0.62480010       4.78134338      -0.00031596      -0.00702673       0.00083408      -5.76420221
Al       7.93602450       2.06165312       7.06579985       0.00428963      -0.00748021      -0.00309950      -4.24553558
Ni       5.67691607      -0.11848261       9.58668488       0.00294200      -0.00388356       0.01072178      -6.07930672
Al       8.00301235       0.72686728      10.29277385       0.00285140       0.00249706      -0.00361328      -4.01329734
Al       6.20110140       3.08419838      -0.05757450      -0.00240481      -0.00171011       0.00288291      -3.57695099
Al       8.21723290       4.82209435       1.87521459       0.00583665       0.00105386       0.00104242      -4.33561416
Ni       6.42932387       3.82916006       3.26516264      -0.00599967      -0.00713628       0.00387110      -5.97886847
Al       7.06731732       4.56214724       5.78618375       0.00164099       0.00193887      -0.00513755      -4.23388263
Ni       5.71980093       3.24845162       7.39368698      -0.00978699       0.00150970       0.00749855      -5.98148882
Al       7.08664369       4.79089168       8.56931137       0.00190336       0.00624752       0.00324621      -4.07287499
Al       6.12775824       2.44397258       9.63969944       0.00040930      -0.00974147       0.00404020      -3.91123503
Al       7.41037576       5.35731357      11.43639999      -0.00113722      -0.00800604      -0.00435535      -3.99149968
Ni       5.76039171       6.77924824       0.03933162       0.00252128      -0.00776835       0.00807065      -5.93191789
Al       7.51875851       7.83527488       1.60391404       0.00345803      -0.00090139      -0.00273536      -4.28082115
Al       6.73572105       6.21536820       3.73799710      -0.00039265       0.00596642       0.01059195      -4.08381024
Al       7.65674611       8.71206532       4.47867336      -0.00139111       0.00445687       0.00245104      -4.40337131
Ni       6.49232371       7.09355854       6.02966682      -0.00164581      -0.00318030      -0.00190339      -5.92427623
Al       7.35802841       8.82138656       7.45047527      -0.00444446       0.00125037       0.00363353      -4.54361968
Ni       6.02481333       6.98612912       8.80933313       0.00223817       0.00473004       0.00165168      -5.88758291
Al       7.38839254       8.30285046      11.22892372       0.00383807      -0.00429913       0.00001467      -4.43093266
Ni       5.65119368       9.34996046       0.00258371       0.00688640       0.00111328       0.00471553      -6.11957259
Al       7.23645436      10.45663127       1.59454087       0.00816618      -0.00225973       0.01182217      -4.17742490
Al       5.06015263      10.26256256       3.49427541      -0.00003024       0.00243412       0.00553930      -4.01144211
Al       8.63763154      11.90525868       3.24393922      -0.00065090      -0.00528784      -0.01592366      -4.19355859
Ni       5.78967305       9.69898281       5.75574282      -0.00093624       0.00418870      -0.00126521      -6.05895772
Al       7.75316802      11.57484727       8.53582592       0.00339953       0.00440817      -0.00402058      -4.18103406
Ni       6.20589010       9.67776883       9.45014896       0.00730110       0.00900649       0.00195474      -6.09825760
Al       7.18436854      11.01253792      11.18360874       0.00565476      -0.00406598      -0.00477146      -4.18551903
Al       9.05074180      -0.54789393       0.34899547      -0.00820461       0.00433490       0.00327789      -3.88102354
Al      11.73591687       2.38716894       0.58501885      -0.00831991      -0.00452805       0.00267664      -4.19170087
Al      10.47735755       0.82693086       2.37196365       0.00995574      -0.00094886       0.00106683      -4.03867252
Al      11.36967346       2.81238603       5.13232672      -0.00066732       0.00269791      -0.01004417      -4.34651231
Al       9.82977564       0.33004944       5.87070078      -0.00370910      -0.00073493       0.00570349      -4.13046307
Al      10.59257983       2.42665365       7.69489385       0.00349721      -0.00966654      -0.00083977      -4.36272909
Ni       9.55843248       0.39303231       8.45604197       0.00681976       0.00229215      -0.00307880      -6.03933628
Al      10.69599789       1.38679704      10.47678851      -0.00627083       0.00075632       0.00484764      -3.84230224
Al       8.93051780       2.26806955       0.14058847      -0.00345880      -0.00253595       0.00095770      -3.88922780
Al      10.95596251       5.06347240       1.20606613      -0.00231173      -0.00208914       0.00412665      -4.36720885
Ni       9.83927192       3.07808367       2.18492704      -0.00464202       0.00921109      -0.00618179      -5.88770272
Al      10.30620947       4.96402025       3.92242748       0.00322314      -0.00371296      -0.00367316      -4.52666402
Ni       9.52723793       4.09215681       6.15074033      -0.00288215       0.00666808      -0.00171949      -5.88273510
Al      10.01647356       5.28391435       8.13428729       0.00248044      -0.00216212      -0.00930732      -4.09717823
Al       8.87012555       3.34276560       9.93573197      -0.00179333       0.00182673      -0.00589868      -3.55815104
Al      10.21351477       5.52733937      10.87921236       0.00146773       0.00112630      -0.00184469      -3.85947543
Ni       9.11387764       6.58980775       0.27656582      -0.00179198      -0.00221717      -0.00154222      -5.95596571
Al      10.70409386       7.99456707       1.48900682      -0.00951056       0.00005897      -0.01325715      -4.37919372
Ni       9.11118801       6.93014240       3.08974454      -0.00416780      -0.00630426       0.00843678      -5.99543549
Al      10.89649134       8.01522695       4.26722394       0.00067775       0.00724410       0.00062964      -4.37039861
Al       8.89843037       6.51550713       5.71046830      -0.00328928      -0.00110262       0.00110633      -4.10264312
Al      10.09494272       8.17345647       7.72554313       0.00691920      -0.00744965      -0.00647669      -4.04804789
Al       8.42954228       6.96361766       9.29151937      -0.00352913       0.00605067      -0.00112991      -3.91104386
Al      10.20141976       8.33958083      10.99836034       0.00328352       0.01515717      -0.00069450      -4.17309923
Ni      10.63665831      10.17692544       0.22639563      -0.00265763      -0.01266593      -0.01138253      -5.69130598
Al      11.24580899      10.77930457       2.40126030      -0.00453906       0.00138474       0.01419308      -4.14215075
Ni       9.21701725       9.51462947       2.86328834      -0.00082834       0.00229470      -0.00151898      -5.92097269
Al      10.28577570      10.45841942       4.92686336       0.00456301      -0.00106769      -0.00194322      -3.98939403
Al       7.78019255      11.14111651       5.87589842       0.00562583       0.00097097      -0.00737226      -3.92141928
Al      10.14369087      10.82280298       7.57803134      -0.00300295       0.01038808       0.00555002      -4.09642109
Ni       8.75251672       9.43268535       9.35481212      -0.00640006       0.00172084       0.00786292      -6.08487823
Al      10.21434357      11.22815223      10.28363003       0.00616741      -0.00062425      -0.01240896      -4.24377678
