147
Lattice="13.36107942311718 0.14263664919057445 0.09907195218401482 0.1427737054247398 13.440833515096356 0.09211047355786164 0.10044457643412044 0.0930759357375398 13.446060867417422" Properties=species:S:1:pos:R:3:forces:R:3:energies:R:1 rep=5 n_sites=250 energy=-620.8911743164062 stress="-0.0005237906007096171 4.599391104420647e-05 -0.0003624309320002794 4.599391104420647e-05 0.0004468292463570833 -0.0007950835861265659 -0.0003624309320002794 -0.0007950835861265659 0.00022832135437056422" free_energy=-620.8911743164062 pbc="T T T"
Al       1.26233205       2.02438803       2.04979418      -0.00732541       0.00472704       0.00463171      -4.12269557
Al       1.01888109       0.63994864       4.60206949      -0.00076771      -0.00150803       0.00486672      -3.93193805
Al       1.64796503       1.59163971       6.98876712      -0.00249745       0.00793544       0.00901706      -3.50462377
Al       1.47488151       0.53034307       9.84593507      -0.01220983      -0.00290433      -0.00111803      -3.80667877
Al       1.23604579       1.34228737      12.55964021      -0.00144003       0.01240286       0.00048618      -3.99870515
Ni      -0.26533811       2.85612793       0.20748481       0.00684797      -0.00613879      -0.00006964      -5.75206661
Al       1.15062190       4.64247525       0.85287095       0.00114909      -0.00413649       0.00904781      -3.92137998
Al       1.60667842       3.71504373       4.69221505       0.00348310      -0.00254869      -0.00030191      -3.72345328
Al       0.60876641       5.31448497       6.74960260       0.00644287      -0.00376761       0.00190415      -3.78998876
Al       1.08727997       3.24061097       8.96124532      -0.00699595      -0.00813962       0.01051453      -3.85573751
Al       0.77693012       3.93191947      11.64200504       0.00507177       0.00232092       0.00058925      -4.15066063
Al       2.33966879       7.50423756       0.82224939      -0.00120699       0.00472375       0.00164108      -3.88416916
Al       2.10966040       5.92395827       3.13174821       0.00081718      -0.00819008       0.00123818      -3.98658925
Al       2.15638797       7.61263158       7.31868377       0.00102324      -0.01028040      -0.00135946      -3.85915071
Al       1.03167723       5.87101341       9.38077843       0.00622405      -0.00024471       0.00155458      -3.71910536
Al       1.82163335       6.41703559      11.97674709      -0.00067446      -0.00533683      -0.00234898      -3.69094396
Al       1.63414062       9.96627371       1.60640122      -0.00496348      -0.00276232      -0.00604280      -3.80150807
Ni       0.60563834       7.85111958       2.50905993       0.00199808       0.00836981       0.00107357      -5.91135013
Al       1.76592030       8.05187969       4.65916327      -0.00481409       0.00230271      -0.00380738      -4.03456521
Al       0.39449926       9.52566373       6.66607632      -0.00342394       0.00671285      -0.00020465      -3.64038396
Al       0.70443816       8.62479113       9.33893765       0.01182462      -0.00148389      -0.00493316      -3.98634112
Al       2.18101861       9.33140743      11.76062459       0.00764610      -0.00315143      -0.00229765      -3.82024932
Al       1.35695963      12.70755626       1.22254130       0.00381733      -0.00972001      -0.00234818      -3.91103506
Al       1.78343708      11.44056422       4.04874868      -0.00088696      -0.00032865       0.00057040      -3.87379479
Al       1.43107925      12.28719534       6.91034899      -0.00015503       0.00149819       0.00353261      -3.68576002
Al       2.15281712      11.26347626       9.36161292       0.00390646      -0.00513162       0.00637604      -3.86107433
Ni       0.23070304      10.56968061      10.59952308      -0.00522991       0.00031354       0.00357829      -5.67904490
Al       1.41693872      12.04292398      12.09896763      -0.00833249      -0.00195758       0.00171275      -3.78389561
Al       4.00410582       1.29244999       1.32215883       0.00343195      -0.00387643      -0.00079355      -4.16257077
Ni       2.64253455       0.04234625       2.90933290       0.00589125       0.00067492      -0.00492774      -5.91589248
Al       3.50704703       1.81115100       4.22849143       0.00510314       0.00652443      -0.00235313      -4.34736425
Al       4.28996595       0.98987327       6.67635054      -0.00223935      -0.00383846       0.00934065      -4.04189485
Al       4.02641378       1.57211128       9.24401191       0.00397536      -0.00679380      -0.01037604      -4.32172728
Al       3.84407943       0.84496021      12.01099599      -0.00247299      -0.00031555      -0.00161639      -3.95799595
Al       3.54895423       3.95192473       1.77060128      -0.00332236       0.00852215       0.00262390      -3.84688157
Al       4.40955715       4.72808246       4.34946389      -0.00322759       0.00377962      -0.00242870      -4.38533723
Al       3.40230051       3.81055867       6.83135312      -0.00127146      -0.00604446      -0.00050908      -4.05772030
Al       3.57743932       4.50095087       9.57205066       0.01395283       0.00021952      -0.00188196      -4.09070235
Ni       2.57212894       2.52172225      10.82594446      -0.01400588       0.00382610       0.00936690      -5.88083208
Al       3.55995222       4.11442616      12.48216117       0.00019909       0.00465950      -0.00047779      -4.05001706
Al       4.63286145       6.39246197       1.69935894      -0.01541802      -0.00933015      -0.00416386      -3.81968737
Al       4.50803519       7.50479862       4.95846131      -0.00441824       0.00568099      -0.00638554      -4.02485454
Ni       2.70355564       5.92312093       5.58971046      -0.00081665      -0.00424933       0.00292893      -6.00132704
Al       4.43261445       6.27605140       7.52609101      -0.00349666       0.00255830       0.00480026      -3.82387877
Al       3.30924503       7.26888828       9.92241237       0.00007944      -0.00990719       0.00864326      -3.67240620
Al       4.47401423       6.82426097      12.45101392      -0.00269071      -0.00719626       0.00703500      -3.66843319
Al       4.43947169       9.18905339       0.74163138      -0.00139683      -0.00255102       0.00307295      -4.04527497
Al       3.85732776       9.59697819       3.52902897      -0.00997701      -0.01250847       0.00561669      -3.98672569
Al       3.01621474      10.06613721       6.06459533      -0.00475632      -0.00126183      -0.00416332      -3.74592555
Al       4.07363498       9.36936340       8.53002278       0.00049079       0.00644831      -0.00277848      -3.67727304
Al       4.92891499       9.23023551      11.21609374       0.00274981       0.00311911       0.00155546      -3.73019874
Al       3.91461551      11.82792937       1.71707873      -0.00257045       0.01614340       0.00650910      -4.21892804
Al       4.17496498      12.37986907       4.75935288       0.00394711      -0.01120140      -0.00356403      -4.12451762
Al       4.24284872      11.92434712       7.53484011       0.00483738       0.00593360      -0.00096677      -3.85237360
Al       4.88349443      11.95388293      10.13173387       0.00366783      -0.00334847      -0.00223276      -3.87831759
Al       3.99450699      11.44897637      12.55009521       0.00346942       0.00016522      -0.00729649      -3.60721004
Al       6.76460626       1.60504016       1.73854974       0.00375552      -0.00921986      -0.00362055      -4.35043806
Ni       5.32893016      -0.17905063       2.79112682       0.00045861       0.00584625       0.00204270      -6.09790659
Al       6.49825269       1.04682358       4.53268737       0.01200193      -0.00855552      -0.00524384      -4.42541027
Al       6.86330866       1.86666731       7.25340423      -0.00500029      -0.00138986       0.00487999      -4.08416045
Ni       5.69771546       0.04579315       8.42770846      -0.00107700       0.00695327      -0.00227281      -5.79381186
Al       6.73783411       1.59240791      10.02325804      -0.00642490       0.00133932       0.00085652      -4.04684490
Al       6.09787860       2.09079015      12.68241451       0.00800386       0.00376981       0.00403079      -4.11957824
Al       6.44937844       4.35775302       1.57144888      -0.00346909       0.00433543       0.00218508      -4.06476766
Ni       5.25351456       2.84101106       3.06123013      -0.00273804      -0.00036553       0.00099942      -5.93931323
Al       7.19477182       3.69463435       4.28774776      -0.00893986       0.00429799      -0.00878978      -4.35335749
Ni       5.31367551       2.82498295       5.57694358       0.00816424       0.00631291       0.01236164      -5.86399388
Al       6.41676300       4.57026619       6.82546914      -0.00010367      -0.00340182       0.00145033      -3.97609973
Al       6.73867310       4.30818312       9.49761038      -0.00401949       0.00407535      -0.00596967      -4.01528627
Ni       5.03246503       3.13861948      10.85670458       0.00543399       0.00266700      -0.00031944      -5.79945910
Al       6.47714002       4.78777076      12.19850582      -0.00019071      -0.00139619      -0.00397873      -4.13196576
Al       7.64604466       6.88932003       1.41354021      -0.00379878       0.00242546       0.00756137      -3.79177058
Al       6.68504754       6.36294748       3.88208750       0.01162174      -0.00802743       0.00240199      -4.16251141
Al       6.84239422       7.33185679       6.68601192       0.00330804      -0.00115566       0.00018097      -3.86140198
Al       6.10238753       7.12959384       9.56816603      -0.00765721       0.00285082      -0.00199114      -3.89726609
Al       7.17760833       7.71016923      12.25219413      -0.00427137      -0.00274849       0.00209409      -3.86525476
Al       7.18582969       9.51044942       0.95028087      -0.00126430      -0.00212970       0.01320064      -3.98508561
Ni       5.75085380       8.18803710       2.66631005       0.00868431       0.01531917      -0.00113930      -5.83121151
Al       7.30374576       9.16821931       4.15556761      -0.00317821      -0.00123449      -0.00666183      -3.96798706
Al       5.75427969       9.91736459       6.34693907      -0.00469496      -0.00433591      -0.00224638      -3.67790556
Al       6.70240954       9.83147387       9.02957926       0.00163302      -0.00773270       0.00524031      -3.73371029
Al       7.33988794      10.38753085      11.69155534      -0.00491369      -0.00056670      -0.00477312      -3.65008867
Al       6.84427874      12.25113119       1.20451590      -0.00180110      -0.00311686       0.01589772      -4.09376001
Ni       5.74738469      10.61400178       2.53080972       0.01211575      -0.00337980      -0.00529073      -5.79293406
Al       6.86991748      11.79765986       4.28873844      -0.00207857       0.00356098      -0.00731820      -4.06930041
Al       7.23129099      12.32158856       6.91664562       0.00430083      -0.00093567       0.00582838      -3.88831353
Al       7.65772560      12.46359269       9.70771320      -0.00773333       0.00511754      -0.00103319      -3.94294292
Al       6.53798585      12.93042481      12.13949529       0.00205216      -0.00077599      -0.00135300      -3.65189922
Al       9.35506965       1.49026015       1.22302395       0.00159465       0.00397715      -0.00040387      -4.33988124
Ni       8.02633629      -0.03194228       2.87282664      -0.00389735       0.00176232      -0.00055441      -6.04084992
Al       9.24698222       1.54964659       4.20001652      -0.00799306       0.00015573      -0.00112703      -4.25461346
Al       9.41598177       1.02531029       7.00618018       0.00122656      -0.00218999      -0.00343049      -3.80288124
Al       9.42131808       2.47014908       9.51594738      -0.00151712       0.00050914      -0.00881810      -3.72732019
Al       8.82242242       1.40935039      12.00166996      -0.00203352      -0.00003693       0.00080994      -4.10702169
Ni       7.89353721       3.07818923       0.11926165      -0.01808173      -0.00397755       0.00026505      -5.73784959
Al       9.30671932       4.46202918       1.46980783      -0.00159767      -0.00218105       0.00187641      -3.85015172
Al       9.82511001       4.22109225       4.22816858       0.00662552       0.00557102      -0.00025782      -3.97422135
Al       9.11733172       3.85361709       6.95066120       0.00421737       0.00814609       0.00046280      -4.11879182
Al       9.61518403       5.24656125       9.17584368       0.00748312       0.00296238      -0.00324836      -3.90313131
Al       9.26141436       4.23802824      11.82700106       0.00488260       0.00371309      -0.01196889      -4.11094820
Al      10.43497107       6.91876410       1.26305424      -0.00587235      -0.00317736       0.00775339      -3.80105472
Al       9.43558190       6.93456294       3.96357012      -0.00239156       0.00671008      -0.00544173      -4.22027284
Ni       8.22533289       5.59177194       5.51612468      -0.00823289       0.00409308      -0.00684078      -5.75139153
Al       9.64231409       6.90887946       6.90985237       0.00785300       0.00212835       0.00157389      -3.88702965
Al       8.77638271       7.90755369       9.32583516       0.00109460       0.01252216      -0.01456372      -3.97698283
Ni       7.97459620       6.06019453      10.71454218      -0.00443819       0.00221512       0.00084541      -5.74345267
Al       9.93478865       6.94690834      11.82068047      -0.00037900      -0.00241934      -0.00033198      -3.85561979
Al       9.46442979       9.24532082       2.26908091       0.01420057       0.00082996       0.00530216      -4.06227773
Al      10.23622678       9.57029682       5.02216960       0.00871563      -0.00604521      -0.01213729      -4.14178038
Al       8.41146220       9.56314864       6.96776953       0.00354587      -0.00035571      -0.00776708      -3.70579398
Al       9.38184870      10.50406502       9.56652900       0.00195716      -0.00755443      -0.00143434      -3.70675910
Al       9.75283387       9.42341214      12.88079576       0.00103831       0.00336411       0.00587803      -3.60437393
Al       9.49958289      11.91841662       1.39126399      -0.00509468       0.00657550       0.00274742      -4.24091023
Al       9.60711334      12.15989738       4.51176836       0.00512758      -0.00137670       0.00414348      -4.14408660
Al       9.95700317      11.78912157       7.20735170      -0.00063027      -0.00992445      -0.00301917      -3.68782496
Al      10.29274074      13.24307233       9.44346675       0.00422964       0.00813435       0.00040177      -3.64684117
Al       9.40911435      12.07048982      11.95246311       0.00486529       0.00660440      -0.00250006      -3.91358644
Ni      10.55026365      -0.01036504      -0.35019077      -0.00796887       0.00127078      -0.01094966      -5.82392538
Al      12.18284277       1.01921384       1.17739585       0.00089744       0.00889031      -0.00261246      -4.34937179
Ni      10.54316056       0.03399119       2.68012866       0.01114552      -0.00108856      -0.00287428      -5.91158348
Al      11.95564552       1.60447062       3.95660268       0.00380215       0.00010772      -0.00211383      -4.03738886
Al      12.31283601       0.90001981       6.78434412      -0.00798091       0.00534369      -0.00113777      -3.82215428
Al      12.27729028       1.53769443       9.47677973      -0.00696702      -0.00283601      -0.00185980      -3.60605383
Al      11.65410024       2.08758175      12.10990181       0.00575265       0.00558381       0.00798860      -4.10331976
Al      11.89855054       3.75835861       2.22451004       0.00519320       0.00065397       0.00281477      -3.87191367
Al      12.39977737       4.20232022       5.02054679      -0.00310050       0.00616071       0.00186113      -3.68054652
Ni      10.81547196       2.57716366       5.81424751       0.00494417      -0.00543883       0.00885258      -5.76131904
Al      11.89245456       3.66082112       7.67996218      -0.00047705      -0.00206488      -0.00449315      -3.95328653
Al      11.82281026       4.23086447      10.28473430      -0.00458479      -0.00171604       0.00849100      -3.76318800
Al      11.65646564       4.89523158      13.09155351       0.00864118       0.00037503      -0.00127235      -3.95180440
Al      13.09256201       7.05427092       0.41922525       0.00046434      -0.00185275       0.00974861      -3.84213972
Al      12.54402724       6.14411816       3.17386010       0.00358768      -0.00400311       0.00015714      -4.04087174
Al      12.09725683       7.41904061       5.69609358      -0.00043809       0.00567032      -0.00328237      -3.83391547
Al      11.91157263       6.69988999       8.50717960       0.00122849      -0.00661907      -0.00027662      -3.74762225
Al      12.57272705       6.77267539      11.25141632      -0.00655389      -0.00350060      -0.00199868      -3.72990823
Al      12.17456634       9.31427800       1.53635594      -0.00769464      -0.01042886       0.00708914      -4.17491257
Ni      11.35814648       8.18780070       3.41978862      -0.00319016       0.00348767      -0.00061910      -5.89791805
Al      13.05084687       9.77331439       4.10612500      -0.00739211      -0.00240290      -0.00557953      -4.27008241
Al      11.12201257       9.26751821       7.63401182       0.00269198      -0.00029437       0.00181010      -3.76293731
Al      11.44997270       9.08931133      10.32181270      -0.00272101      -0.00237261       0.00004893      -3.68747842
Al      12.79183031       9.55444321      12.52822017      -0.00346890      -0.00548807      -0.00575921      -3.81092799
Al      12.18279403      11.78763729       0.72082929       0.00870419      -0.00148638       0.00199792      -4.02916932
Ni      11.08472468      10.84647149       3.05145845      -0.00165881      -0.00636441      -0.00124411      -6.08217907
Al      12.80136275      12.49890660       3.33481755      -0.01377597       0.00529215      -0.00517036      -4.08584750
Al      12.30429970      11.74641526       5.93721834       0.00664016      -0.00268218      -0.00209566      -3.68484366
Al      12.53525204      11.57681065       8.71703420       0.00887609       0.01022948       0.00051159      -3.94234604
Al      12.20554377      12.69532258      11.33988431       0.00168295      -0.00097220      -0.00753757      -4.02592725
