250
Lattice="16.37083297204409 -0.2036651014018817 0.11704855786829724 -0.19968179890714896 16.54638977166275 -0.14409806754967833 0.11304896849889115 -0.14554563719635183 15.400542982248325" Properties=species:S:1:pos:R:3:forces:R:3:energies:R:1 rep=5 n_sites=250 energy=-947.5399169921875 stress="-0.0007460133056156337 -0.0003795529482886195 0.0007620935211889446 -0.0003795529482886195 0.0005879548261873424 -0.00039448964525945485 0.0007620935211889446 -0.00039448964525945485 0.00023130886256694794" free_energy=-947.5399169921875 pbc="T T T"
Al      -0.20905763      -0.06550035      -0.37919165      -0.00054174      -0.00553286       0.00211817      -3.66570246
Al       1.44942194       0.68211158       1.79800773       0.00102730       0.00038710       0.00080744      -3.94472182
Ni       0.63011793      -1.01642699       3.69927197       0.00568800      -0.00311992       0.00289449      -6.15176725
Al       1.61282604       1.29105747       4.54512893       0.00493399       0.00634946      -0.00104221      -3.83004487
Al       0.47453202      -0.68513109       6.23164686       0.00010334       0.00078848      -0.00587758      -3.86549950
Al       1.55365580       1.62976080       7.44331957      -0.00339347      -0.00005647      -0.00444874      -3.72697568
Al       0.42205585      -0.36854768       9.16290438      -0.00109642       0.00253983       0.00373602      -3.73037803
Al       1.55313312       1.95220839      10.31922829      -0.00317465       0.00693435      -0.00260330      -3.71112478
Al       0.42090330      -0.13200626      12.14778640      -0.00083936       0.00307336      -0.00217124      -3.71738327
Al       2.42324776       0.93168280      14.53020040      -0.00832452      -0.00599650       0.00195131      -3.81573284
Al       0.14560939       2.81167544       0.16611577       0.00176573       0.00064956      -0.00306007      -3.73280561
Al       1.18274215       5.26427204       1.48358837       0.00423243      -0.00223480      -0.00073555      -3.73569310
Al       0.06201373       3.15106352       3.03551170       0.00152003       0.00179361       0.00166442      -3.69914329
Al       1.12300283       5.44539863       4.32456671      -0.00307132       0.00235175      -0.00086813      -3.75282526
Al      -0.13479103       3.26724105       5.84981832      -0.00039392       0.00029524      -0.00454734      -3.70716071
Al       0.88899359       5.55521755       7.07458880       0.00142951       0.00755680      -0.00274532      -3.68814170
Al      -0.14736970       3.65533638       8.71146419       0.00536748      -0.00198589       0.00006030      -3.68944681
Al       1.59038358       4.85544964      11.07907976      -0.00243344      -0.00004543       0.00122645      -3.73756087
Al       0.57723777       2.65558316      12.76218316       0.00164310       0.00479097       0.00242622      -3.62450242
Al       1.34596395       4.99307207      14.06041220      -0.00054228      -0.00127831      -0.00085626      -3.72383237
Al      -0.47029403       7.01292827      -0.05281114       0.00447575      -0.00065486      -0.00084741      -3.73837996
Al       1.69554094       8.22866355       1.41712412      -0.00398143       0.00318634      -0.00240510      -3.66198409
Al      -0.48464993       7.18445626       2.76929560       0.00110332       0.00274432      -0.00274358      -3.74953640
Al       1.65276000       8.31317515       4.34914786       0.00179347      -0.00033663       0.00085450      -3.70236814
Al      -0.68412707       7.30964286       5.55914259       0.01144159      -0.00436031      -0.00279939      -3.86881089
Al       1.08054007       8.28292779       7.36311130       0.00071153      -0.00850083      -0.00481543      -3.68832433
Al      -0.07971158       6.55293068       9.52553162      -0.00153519      -0.00476538      -0.00551643      -3.73473155
Al       1.87834469       7.70842742      11.16547770       0.00581226       0.00651271       0.00371930      -3.68381965
Al      -0.34153490       6.68011588      12.50242926       0.00238780      -0.00278645      -0.00123282      -3.72666991
Al       1.84729513       7.85696912      13.94913833      -0.00321384       0.00389917       0.00134923      -3.74624050
Al       0.10481433       9.98506654      -0.08458027       0.00358943      -0.00362331       0.00305635      -3.68712676
Al       2.01119217      11.52254848       1.67949795      -0.00274958      -0.00181019      -0.00562730      -3.72430098
Al      -0.04316917      10.07061476       2.80589911       0.00094426       0.00415137      -0.00185838      -3.69129682
Al       2.20679153      11.13630687       4.42368661      -0.00252587      -0.00378745       0.01153563      -3.82055068
Al      -0.07800157      10.17867864       5.62466054       0.00349457       0.00160674      -0.00040977      -3.64622092
Al       1.38430234      11.32525689       7.84505098       0.00274845       0.00303177       0.00226887      -3.71166718
Al       0.18560811       9.39510548       9.63750255      -0.00038416       0.00361727       0.00413292      -3.67621672
Al       1.39108932      11.66333185      10.78994950       0.00210462      -0.00248837      -0.00187635      -3.73054075
Al       0.19854558       9.56224309      12.41811397      -0.00076074      -0.00134975       0.00015383      -3.74463058
Al       1.35896292      11.86692706      13.66019701       0.00000359      -0.00365697       0.00444290      -3.67917383
Al      -0.57823788      13.71778460      -0.53986562       0.00627826       0.00157788       0.00782739      -3.60063994
Al       1.34988458      14.34061705       1.39817945       0.00285698      -0.00268835      -0.00062945      -4.02731353
Al       0.13494325      12.90231116       3.35444041       0.00040576      -0.00151512       0.00177822      -3.79248571
Al       2.01708422      14.09267053       4.89012740      -0.00319396      -0.00210033       0.00604312      -3.86138469
Al      -0.27852130      12.92122072       6.27920289      -0.00140781      -0.00004441      -0.00033214      -3.67850566
Al       1.88597297      14.25420081       7.72415871      -0.00206165       0.00478060       0.00140497      -3.72717476
Al      -0.29307689      13.28461744       9.18617617       0.00080763       0.00199284       0.00366516      -3.73176074
Al       1.89113422      14.52379688      10.65705083       0.00358561       0.00215070       0.00267457      -3.71492076
Al      -0.31711417      13.48697692      12.04910959      -0.00229325       0.00139171      -0.00184004      -3.72913277
Al       1.81961523      14.77567287      13.71128076       0.00135264      -0.00156482       0.00361319      -3.84677386
Ni       3.18316542      -0.76935446       0.56689812       0.00457659       0.00440144       0.00384197      -6.01388013
Al       4.32543489       1.32234309       1.46656755      -0.00351363       0.00102989       0.00416059      -3.84887177
Al       3.27341085      -0.66321158       3.25463567       0.00172369       0.00527591       0.00633425      -3.92161310
Al       4.41806044       1.80332602       4.54467155      -0.00039173       0.00727030       0.00362318      -3.68144906
Al       3.37022870      -0.14864712       6.30485654      -0.00125104       0.00031711       0.00106504      -3.69286966
Al       4.43622661       2.15664064       7.45760566       0.00368173      -0.00178759       0.00012575      -3.74714816
Al       3.23872734      -0.00697102       9.09043954      -0.00299132       0.00587727       0.00804032      -3.73110163
Al       4.32851506       2.21054578      10.28662172      -0.00525687      -0.00913548       0.00397119      -3.69645798
Al       3.23606592       0.31119450      11.97621053       0.00248692       0.00392967      -0.00668065      -3.68554389
Al       5.07968703       1.70922746      14.07600740       0.00030002      -0.00764442       0.01124303      -3.68148756
Al       2.96329748       3.51340693       0.17774543      -0.00216572      -0.00128530       0.00471838      -3.67143941
Al       5.06379957       4.61081263       1.68402405       0.00618867      -0.00101815      -0.00259058      -3.71111095
Al       2.82551552       3.42639583       2.96741652       0.00677873       0.00492494       0.00114251      -3.66891599
Al       4.95862089       4.73394683       4.52114581       0.00336514       0.00075187       0.00099928      -3.70470226
Al       2.72301245       3.73395681       5.85280991       0.00250525       0.00098749      -0.00419088      -3.73351431
Al       4.91137620       5.01163547       7.49160297      -0.00059706      -0.00206342      -0.00558292      -3.70822382
Al       2.62793633       3.88607698       8.64971948      -0.00495738       0.00287311       0.00547265      -3.70072222
Al       4.44804059       4.92595356      10.46023873      -0.00066366       0.00068864       0.00209396      -3.71038723
Al       3.27831986       3.21925213      12.65584200      -0.00146843       0.00348366       0.00023124      -3.73922837
Al       5.27749443       4.45152746      14.25769056       0.00199247       0.00235843       0.00645173      -3.68611252
Al       3.41479310       6.36106133       0.13113521       0.00273258       0.00284828       0.00239230      -3.75457335
Al       4.46729190       8.64739096       1.39179335       0.00523127       0.00059763       0.00064890      -3.90777576
Al       3.33649797       6.40764807       2.96516022       0.00096312      -0.00045961      -0.00192563      -3.69915140
Al       4.57295735       8.51065455       4.32703160      -0.00329304      -0.00020166       0.00801487      -3.78651810
Al       3.26471542       6.66641183       5.95636127      -0.00109456      -0.00095984      -0.00358652      -3.72554421
Al       4.96457066       7.97780901       7.88525699       0.00134026      -0.00098544      -0.00011190      -3.66320443
Al       2.81214917       6.61920499       8.85119487      -0.00042426      -0.00242097      -0.00253188      -3.71197259
Al       4.69209695       7.94255926      10.84995174       0.00053575       0.00130925       0.00438935      -3.73787332
Al       3.56133397       6.05594300      12.73399823      -0.00000273       0.00020945       0.00365874      -3.66829598
Al       4.78032349       8.25962372      13.82802400       0.00051614       0.00356497       0.00126288      -3.73092663
Al       2.95872176      10.24631511      -0.42879653       0.00413729      -0.00217953      -0.00311142      -3.59755588
Al       5.16199229      11.59236054       1.02492752      -0.00258957       0.00987336      -0.00337666      -3.91259545
Ni       4.15272342      10.54353475       2.91913005       0.00139466      -0.00417709       0.00554998      -5.88394821
Al       5.30477808      11.08226327       4.95242258      -0.00292437      -0.00646710      -0.00396991      -3.89364082
Al       3.23469555       9.64939993       6.51909805      -0.00119927      -0.00021312       0.00032273      -3.63654757
Al       5.30360111      10.84591938       7.94879623      -0.00493252       0.00436756       0.00026744      -3.74405110
Al       3.03020234       9.62816671       9.34042609       0.00123396      -0.00436340       0.00599974      -3.73714876
Al       5.24033318      10.90526093      10.78963198      -0.00188217      -0.00463567      -0.00379900      -3.72265399
Al       3.06395195       9.98912252      12.24739303       0.00133163      -0.00594023       0.00162739      -3.72831833
Al       5.29755154      11.12040739      13.63750768      -0.00803604       0.00337358       0.00495487      -3.73903954
Al       3.36805166      13.25231114      -0.27064283       0.00113878      -0.00437744      -0.00339078      -3.80791306
Al       4.98431651      14.77194971       1.45121460       0.00910565      -0.00455606       0.01010528      -3.80805385
Al       3.88248243      12.95213284       3.17289877       0.01109046       0.00052539       0.00034294      -3.79841828
Al       4.92388435      14.68583039       4.90186564      -0.00408422      -0.00663003      -0.00222315      -3.70906436
Al       3.62513147      12.54654621       6.49992824      -0.00336070      -0.00652093       0.00740438      -3.69779110
Al       4.80796881      14.76563158       7.74242899      -0.00013324      -0.00005131       0.00114315      -3.73393714
Al       3.57130611      12.60755322       9.30711482      -0.00117967      -0.00233697      -0.00099302      -3.72179377
Al       4.70139343      14.88729053      10.59759097       0.00144740       0.00137665      -0.00077159      -3.70188046
Al       3.57975290      12.90697649      12.25932211      -0.00129940      -0.00337041      -0.00159622      -3.70459759
Al       4.62683814      15.36770726      13.76929112      -0.00063115       0.00253362      -0.00826730      -3.86309165
Al       6.68541000       0.12015146       0.26801311      -0.00940613      -0.00903538       0.00270041      -3.68450570
Al       8.49857084       1.12790644       2.03493065       0.00138397       0.00065242       0.00446198      -3.67997932
Al       6.26219189       0.08888499       3.33934447      -0.00079757      -0.00537702       0.00453006      -3.70354021
Al       8.44800344       1.33990310       4.83285839       0.00390732      -0.00166157      -0.00233906      -3.73998058
Al       6.21987523       0.39616322       6.24630557       0.00179794      -0.00164557       0.00032689      -3.73824942
Al       8.44902696       1.67756503       7.69797714      -0.00382970      -0.00103676      -0.00575492      -3.90087849
Al       6.16000483       0.51411552       9.06525464       0.00027205       0.00386062      -0.00136341      -3.71820605
Al       8.38124396       1.76050861      10.59160891      -0.00122388       0.00087285       0.00015993      -3.89516246
Al       6.06048677       0.55393736      11.83742568      -0.00487787       0.00421136       0.00258815      -3.67593753
Al       7.95183668       1.62625479      13.55120418       0.00108447       0.00221195      -0.00041040      -3.71760678
Al       6.76161730       2.82796808       0.46457703       0.00089455       0.00540822       0.00090865      -3.66888070
Al       7.94110768       5.04626331       1.54266322       0.00103893      -0.00068759       0.00288189      -3.73104346
Al       6.63330462       2.83546901       3.20365278       0.00255507       0.00482141      -0.00530479      -3.71165454
Al       7.86948620       5.03521509       4.29486713       0.00573225      -0.00634897      -0.00526231      -3.66964912
Al       6.69386179       3.21029187       6.09294838      -0.00363643       0.00407829       0.00035892      -3.71102536
Al       8.34118447       4.87172293       7.76496135      -0.00300169      -0.00304532       0.00512391      -4.00727081
Al       6.49060347       3.36251123       9.07784230      -0.00361857       0.00189566      -0.00075401      -3.68983388
Al       8.51360268       4.60964126      10.81519151      -0.00439787       0.00007197      -0.00683147      -4.03390849
Al       6.30875227       3.34145189      11.95414072      -0.00223501      -0.00100643       0.00093467      -3.72076738
Al       8.06999527       4.57767004      13.99010477       0.00031998      -0.00024400       0.00085407      -3.72382212
Al       6.26269339       6.79579288       0.09865505       0.00243344       0.00115372      -0.00501424      -3.71693814
Al       8.47382877       7.89503440       1.45117966       0.00150802      -0.00237543      -0.00241226      -3.73659515
Al       6.23867669       6.85287453       2.93957634       0.00222725      -0.00065059      -0.00603158      -3.69747806
Al       8.37038709       8.21115615       4.21375392      -0.00206914      -0.00683007       0.00327702      -3.67297733
Al       6.53331552       6.65030547       5.95736324       0.00606982       0.00263633       0.00311854      -3.66169941
Al       8.56858184       7.56138606       8.02919294       0.00044894      -0.00155753      -0.00247721      -3.83528733
Al       6.50845211       6.30281036       9.44289730       0.00309616      -0.00035225      -0.00346783      -3.64078796
Al       8.69336709       7.36958009      10.95479215       0.00065550      -0.00534509      -0.00359638      -3.89766091
Al       6.43831039       6.24120333      12.33062336       0.00217115      -0.00017287      -0.00144151      -3.71939504
Al       8.56402960       7.48871792      13.90619288       0.00477670      -0.00217205      -0.00061032      -3.70932341
Al       6.84151604       9.56795466      -0.16949043      -0.00039410      -0.00068381      -0.00157589      -3.71739614
Al       7.99436407      11.87366491       1.12309881       0.00211328       0.00203138       0.00225152      -3.71770084
Al       6.66157214       9.91521712       2.73161565       0.00464591       0.00664298      -0.00095263      -3.87503505
Al       8.20241030      11.15791642       4.87509160       0.00003295      -0.00148957       0.00851571      -3.70228744
Al       6.89748270       9.26209301       6.36667141       0.00362168       0.00158398      -0.00134613      -3.67318249
Al       8.17011834      11.21218124       7.88568921      -0.00046233      -0.00019886       0.00034109      -3.74246466
Al       6.94200869       9.15422867       9.46983784       0.00051485       0.00308738       0.00653194      -3.72340488
Al       8.12671201      11.33094043      10.77559206      -0.00192986      -0.00156352       0.00548426      -3.73822725
Al       6.93784171       9.16048865      12.29334709       0.00264244       0.00172286       0.00472717      -3.73435962
Al       8.12462411      11.41442344      13.58582094      -0.00248739      -0.00287753       0.00238826      -3.73775446
Al       6.37623587      13.54241401      -0.53491501      -0.00390732       0.00260898       0.00391564      -3.70657849
Al       7.91523812      14.86781490       1.73111218      -0.00534392      -0.00096787       0.00277964      -3.74484217
Al       6.65550023      12.98791019       3.32255578      -0.00654525      -0.00652505       0.00111616      -3.67218339
Al       7.72439193      15.04810927       4.80516080       0.00086460       0.00538462      -0.00333438      -3.72641575
Al       6.55440181      12.98796760       6.38844439       0.00541491       0.00153665       0.00732872      -3.73795581
Al       7.65623427      15.23579617       7.64748175       0.00308632       0.00403724       0.00177787      -3.73600769
Al       6.46035141      13.06451244       9.24025397      -0.00223219      -0.00033276       0.00141911      -3.72703898
Al       7.61362601      15.34495233      10.48306468      -0.00220684      -0.00122364      -0.00718396      -3.71583748
Al       6.38593009      13.18345836      12.06862556      -0.00174438       0.00460382       0.00102644      -3.70538247
Al       7.50820283      15.40043310      13.23344000      -0.00303314      -0.00440554       0.00079846      -3.67124164
Al       9.50180698       0.03544285      -0.27112538      -0.00000407      -0.00116767       0.00023414      -3.71595740
Al      11.31254660       1.30618999       1.74725609      -0.00047021       0.00124838       0.00109305      -3.73195672
Al      10.12347442      -0.57536052       3.59396454      -0.00443601      -0.00015464       0.00331727      -3.66939282
Al      11.31773885       1.63785785       4.69355911       0.00360104      -0.00140256       0.00048833      -3.66320419
Al      10.12489296      -0.39071554       6.38866215      -0.00234929      -0.00070949      -0.00239310      -3.73742700
Al      11.24154109       1.86346861       7.60126847      -0.00381412       0.00672108       0.00063550      -3.87204617
Al      10.06586047      -0.38753642       9.21380136       0.00125864       0.00066376      -0.00018099      -3.66744268
Al      11.18861233       1.83001163      10.37633475      -0.00442056       0.00721052      -0.00247572      -3.86159897
Al      10.00188222       0.00092996      12.18199279      -0.00313686      -0.00187417       0.00107687      -3.73412895
Al      11.79256358       1.24509288      14.21815962      -0.00517940       0.00154159      -0.00508671      -3.72488701
Al       9.61447331       3.02239742       0.18094019      -0.00146190      -0.00351834       0.00114488      -3.74411154
Al      11.86811887       4.28855408       1.75656440       0.00249911      -0.00756428       0.00038310      -3.67413104
Al       9.67821716       3.33751848       3.07422885      -0.00672363      -0.00173680      -0.00088803      -3.65992916
Al      12.08034930       5.35655110       5.20256208       0.00056314       0.00175306      -0.00181833      -3.74958301
Al       9.79740878       3.63334799       5.77519224       0.00023901      -0.00482555      -0.00127711      -3.62404490
Al      11.43396318       4.63634460       7.81715314      -0.01193041       0.00372342       0.01267129      -3.99825227
Ni       9.71913960       3.33914975       9.06131824       0.00313809       0.00687896      -0.00660848      -6.04280758
Al      11.37286465       4.51486972      10.62689586       0.00946811      -0.01534446      -0.00174296      -4.02868199
Al      10.13842513       2.95959738      12.73491104      -0.00500782      -0.00644771       0.00010964      -3.68089604
Al      12.03019288       4.04592750      14.39285635       0.00105638       0.00308319       0.00499351      -3.69340920
Al      10.15403542       5.97882981       0.17450863       0.00752260      -0.00322230      -0.01002140      -3.72266507
Al      11.30930010       8.21265891       1.41326423       0.00329294       0.00084440      -0.00160897      -3.72121608
Al      10.17089819       6.14456955       3.04222942       0.00176942      -0.00211305       0.00425318      -3.70666313
Al      11.37759251       8.23324921       4.48742569       0.00141378       0.00023334       0.00394122      -3.85320264
Al       9.61081332       6.44184598       5.80352509       0.00066816       0.00747465       0.00152534      -3.62140775
Al      11.53709820       7.45671768       7.87588309       0.00029393      -0.00645562       0.00344937      -4.11372536
Ni      10.02537880       6.00039941       9.30637646      -0.00581641       0.00102154      -0.01580698      -5.99425042
Al      11.50324049       7.48402195      10.79844871      -0.00310642      -0.00094715      -0.00344080      -3.86933804
Al      10.33332546       5.71322645      12.83071750      -0.00106774       0.00641795       0.00778318      -3.61885321
Al      11.50532905       7.91995026      13.91641199       0.00028221      -0.00621854      -0.00580605      -3.70533907
Al       9.64770322       9.88399333      -0.20812268      -0.00270582      -0.00085181      -0.00055987      -3.72932971
Al      10.76564022      12.11911708       1.04466205      -0.00220719       0.00425082      -0.00484648      -3.68408275
Al       9.66625377      10.17070528       2.73338824       0.00249677      -0.00010538      -0.00313694      -3.70231545
Al      11.16034092      11.41724731       4.93161997      -0.00505843       0.00345933       0.00020755      -3.70727229
Al       9.79296991       9.43237288       6.44861040       0.00190339      -0.00184491      -0.00028684      -3.69120324
Al      11.00864305      11.55962022       7.88382827      -0.00359223       0.00103291       0.00094451      -3.74842155
Al       9.86551568       9.54840140       9.41388138      -0.00200738      -0.00089816      -0.00119110      -3.67552900
Al      10.96619469      11.70402960      10.77186308       0.00029370       0.00165703      -0.00205764      -3.74011803
Al       9.82189909       9.53931992      12.29539146       0.00297060       0.00230275      -0.00289069      -3.70993376
Al      10.95677487      11.86994603      13.63229534       0.00402061       0.00020731      -0.00344723      -3.73303294
Al       9.10445062      13.81263230      -0.57249555      -0.00056148       0.00279214      -0.00038140      -3.69096065
Al      10.93472047      14.86717154       1.19217642      -0.00554809      -0.00212235      -0.00190430      -3.68852639
Al       9.54200896      13.15646003       3.34717537      -0.00028118       0.00108499       0.00165048      -3.71948946
Al      11.61344104      14.23837556       4.98274276      -0.00072376      -0.00354590      -0.00032253      -3.67471564
Al       9.36203598      13.28707274       6.32209886       0.00448801       0.00230254      -0.00037346      -3.73577404
Al      11.59055049      14.39600803       7.77532115       0.00527864      -0.00265882      -0.00044348      -3.74755180
Al       9.29629957      13.41995049       9.19258246       0.00089840      -0.00089375       0.00188141      -3.74613571
Al      11.51667242      14.50123545      10.61875068      -0.00184641       0.00379839      -0.00433351      -3.72515631
Al       9.28712945      13.60948834      12.04598056      -0.00581772      -0.00002707      -0.00462608      -3.73358321
Al      11.46480026      14.83339059      13.59851882      -0.00386688      -0.00194564      -0.00200902      -3.73378563
Al      13.31805201      -0.35321735       0.38562403       0.00166029      -0.00132409      -0.00328217      -3.72630489
Al      15.12220854       0.84400716       2.00942230      -0.00282379      -0.00094960      -0.00834297      -3.64369571
Al      12.92715980      -0.42248134       3.31290708      -0.00045643       0.00141895      -0.00064769      -3.71530879
Al      15.21545040       0.70477679       4.71866590       0.00048272      -0.00111507       0.00611240      -3.79731345
Al      12.98642027      -0.05299546       6.24539254      -0.00291795      -0.00708164       0.00159170      -3.72300875
Al      15.12905978       1.10295602       7.65166515       0.00309157       0.00382856       0.00048899      -3.70970154
Al      12.95256914       0.12688103       9.10964417      -0.00098651       0.00465722      -0.00070126      -3.72405243
Al      15.12085803       1.36141571      10.66535608       0.00396380      -0.00298395       0.00048809      -3.73163843
Al      12.83362642       0.16276354      11.90258892      -0.00044001       0.00507947       0.00341128      -3.68816042
Al      14.67437761       1.22578797      13.63247996      -0.00393453      -0.00122599      -0.01104984      -3.71476138
Al      13.56890270       2.48480910       0.49490852       0.00193780       0.00562338       0.00542179      -3.67584181
Al      14.77884649       4.67813665       1.58808523      -0.00036825      -0.00985571      -0.00161470      -3.71460891
Al      13.47675012       2.57885883       3.30932442      -0.00607937       0.00387376      -0.00509173      -3.68260372
Al      14.71458605       4.78227997       4.37320340       0.00416239      -0.00165180      -0.00319782      -3.66911685
Al      13.40383541       2.82625320       6.11940936       0.00181310       0.00197959      -0.00556333      -3.67541575
Al      14.24757819       5.24127127       7.17100512       0.00127315       0.00194818      -0.00055307      -3.83362031
Al      13.52095188       3.05530166       9.07267324      -0.00091962      -0.00205178       0.00092401      -3.69534540
Al      15.24368242       4.17689815      11.27712205       0.00195093       0.00419317      -0.00123502      -3.63658512
Al      13.02843227       2.90735695      12.11473304      -0.00276622      -0.00344787      -0.00230659      -3.73601651
Al      14.90715086       4.19992659      14.10566003      -0.00007009      -0.00264123       0.00062467      -3.73946261
Al      13.08938557       6.41629173       0.06796935       0.00034897      -0.00713440      -0.00587482      -3.72077632
Al      14.20821958       8.71289505       1.37621943      -0.00187937      -0.00345898       0.00504710      -3.75664032
Al      13.06238481       6.53519958       2.84850982      -0.00404225      -0.00158440      -0.00004240      -3.68522155
Al      14.10931162       8.76702629       4.21726693      -0.00928973       0.00930829      -0.00446738      -3.87280846
Ni      13.26795954       7.39355006       6.07806860      -0.00776654      -0.00426012      -0.00589430      -5.86593831
Al      14.46590494       7.99268048       8.12506420       0.00642921       0.00249963       0.01099405      -3.90770358
Al      13.60569851       5.80270706       9.75742367       0.00419740       0.00190489       0.00159375      -3.58928871
Al      14.32294335       8.12718340      11.06091402       0.00297954       0.00367368      -0.00470997      -3.73221052
Al      13.19683125       5.90878642      12.56138900       0.00342633      -0.00125291       0.00450532      -3.75040400
Al      14.33228428       8.32786747      13.91568564      -0.00491251       0.00083064      -0.00448301      -3.72256064
Al      12.52200742      10.35766774      -0.17227554      -0.00068758      -0.00042973       0.00453048      -3.73269629
Al      14.72625535      11.64205111       1.40474163       0.00049590       0.00068460      -0.00317878      -3.68579793
Al      12.41613003      10.41556767       2.64617954      -0.00148921       0.00186416       0.00628311      -3.67638218
Al      14.28408511      11.46850507       4.34340427      -0.00591768      -0.00104491      -0.00430811      -3.67454171
Al      12.77058429       9.72948836       6.57232432       0.00082707      -0.00472191      -0.00256198      -3.90926570
Al      14.92601584      10.79523012       8.10057192       0.00239394       0.00281612       0.00263353      -3.68271303
Al      12.64697616       9.79945714       9.48452685      -0.00099776       0.00242826       0.00213335      -3.69872749
Al      14.87065000      11.00297515      10.94124905       0.00512738      -0.00625915      -0.00950859      -3.74801505
Al      12.61137440       9.94796000      12.32020476       0.00005736       0.00180962      -0.00252974      -3.71988857
Al      14.83198852      11.15694393      13.80759699      -0.00225137      -0.00472938      -0.00054731      -3.71239150
Al      13.01661206      13.28931979      -0.19950960      -0.00395670       0.00368705      -0.00462210      -3.73931265
Al      14.99567519      14.65267322       1.94875436       0.01106456       0.00483703       0.00057578      -3.84078336
Al      12.72196433      13.21703033       2.70205763      -0.00554233       0.00336347      -0.00105065      -3.67662430
Al      14.52064373      14.43579282       4.72347476      -0.00042158      -0.00015749      -0.00442824      -3.86001587
Al      13.26372012      12.53983190       6.57182628      -0.00207376       0.00898771       0.00158840      -3.66705227
Al      14.44912320      14.77947413       7.68799879       0.00139765      -0.00170396      -0.00004498      -3.72786701
Al      13.24110940      12.66663409       9.35444594      -0.00125400      -0.00179448      -0.00310648      -3.75241530
Al      14.40168702      14.96613042      10.54880675       0.00548495       0.00134906       0.00229619      -3.72484779
Al      13.15538256      12.79635611      12.20785769      -0.00167039      -0.00259650      -0.00469628      -3.72326052
Al      14.26946177      15.00904167      13.32998912      -0.00201926       0.00156238      -0.00299787      -3.68253744
