128
Lattice="11.467285364428324 8.494272399753736e-05 -0.00180002642627477 8.495493605031027e-05 11.454640933140135 0.000485379640717051 -0.0017998508313741563 0.00048505911817116375 11.471175022086822" Properties=species:S:1:pos:R:3:forces:R:3:energies:R:1 energy=-706.1255815581317 stress="-0.00046879110121587523 1.2552793793743643e-05 0.0002958690804841061 1.2552793793743643e-05 0.001652655953848702 -1.581808980656596e-05 0.0002958690804841061 -1.581808980656596e-05 -0.001037874863955193" free_energy=-706.1255815581317 pbc="T T T"
Ni      -0.03241115      -0.01801670       0.14000554      -0.00125456       0.00615974       0.00143556      -5.97002032
Al       1.47551040       1.53370377       1.26673388       0.00030536       0.00219259       0.00466758      -4.88659678
Ni       0.03475934       0.02162230       2.81608408       0.00215945      -0.00309966       0.00365650      -6.30564413
Al       1.51446848       1.55051685       4.28932644       0.00172852       0.00269359      -0.00105494      -4.87040673
Ni       0.00066563       0.05148797       5.74850965      -0.00482858       0.00349912       0.00453175      -6.29295846
Al       1.40711044       1.45481320       7.33197162      -0.00130604      -0.00284603      -0.00711262      -4.75772206
Ni      -0.02338978      -0.05047070       8.53202400      -0.00262843      -0.00834314      -0.00824921      -5.92331266
Ni       1.42354773       1.40909827      10.05236601       0.00111273      -0.00439998      -0.00057772      -5.88444333
Ni      -0.07013711       2.87521916      -0.01049116      -0.00627825       0.00639371      -0.00040121      -5.89743728
Ni       1.52245787       4.32538826       1.28940948      -0.00222535      -0.00163174      -0.00274073      -5.73321031
Ni       0.09588163       2.87981098       2.78728238       0.00585503       0.00470439       0.00843517      -5.90346599
Ni       1.41276409       4.28016986       4.39676795       0.00117382      -0.00236506       0.00200939      -5.78308252
Ni      -0.05184356       2.81761860       5.78943003       0.00737559       0.00381103      -0.00832569      -6.12617507
Al       1.39004704       4.31121381       7.08980774       0.00329356      -0.00042871       0.00018954      -4.77693134
Ni      -0.05369082       2.94590200       8.64757023       0.00677309      -0.00029902       0.00275323      -6.13340931
Al       1.44726774       4.23416197      10.16454584      -0.00493809       0.00787467      -0.00139772      -4.89125718
Ni      -0.02074702       5.77149372       0.00240639       0.00266396      -0.00376266      -0.00181097      -5.91717050
Al       1.53581765       7.04830735       1.44618564      -0.00007416       0.00385712      -0.01044671      -4.94824128
Ni       0.04488035       5.66844373       2.78169170       0.00807931      -0.00300768      -0.00290843      -5.79989564
Al       1.40462459       7.02409711       4.30500081       0.00281368       0.00157629      -0.00381557      -4.78356203
Ni      -0.11323179       5.76030103       5.75530725      -0.00120326      -0.00620333      -0.00484431      -6.10346752
Al       1.40560642       7.13692301       7.15545130       0.00073869       0.00384910       0.00124432      -4.68468269
Ni      -0.02575070       5.71489495       8.64909011       0.00104378      -0.00180545       0.00256720      -6.31378871
Al       1.49103162       7.15561972      10.02721967       0.00534197      -0.00790109       0.00641898      -4.79027390
Ni       0.13076475       8.56206478       0.05076232       0.00606692      -0.00151513      -0.00373883      -5.99798799
Al       1.48638240      10.01072470       1.41534405      -0.00063946       0.00347119       0.01089189      -4.70660281
Ni       0.08893277       8.62123333       2.86187992       0.00103197       0.00104200       0.00463780      -6.14316055
Al       1.42047922      10.06337061       4.33024370      -0.00578052      -0.00549256      -0.01808674      -4.67209298
Ni      -0.03060194       8.54864518       5.69263719      -0.00202665      -0.00341282       0.00016066      -6.28407055
Al       1.40378587      10.00883426       7.12570286      -0.00434517       0.00710538       0.00888888      -4.67420803
Ni       0.03502707       8.57850313       8.59845944      -0.00075796       0.00532495       0.00626249      -6.13956443
Al       1.34421718      10.12564798      10.07322083       0.00175860      -0.00438948      -0.00082227      -4.88081284
Ni       2.94838682      -0.04582288       0.01991912       0.00396300       0.00592145      -0.00136660      -6.16362700
Al       4.30144483       1.43908025       1.53536244      -0.00615239       0.00421645      -0.00394834      -4.77639516
Ni       2.81856942       0.00078047       2.82422569       0.00319597      -0.00238177       0.00220470      -6.13222623
Ni       4.28519067       1.46117374       4.29192971       0.00024795       0.00097879       0.00373375      -5.85991438
Ni       2.79630829       0.04626460       5.78600626       0.00645639       0.01051535       0.00153063      -6.12480826
Al       4.31248380       1.41790231       7.14063728      -0.00282307      -0.00378608      -0.00242204      -4.75413742
Ni       2.87773798      -0.06913329       8.58460060       0.00068681      -0.00005439       0.00123018      -6.13564388
Al       4.23999213       1.40642537       9.98098188       0.00278006       0.00127771       0.00657386      -4.74661610
Ni       3.03694512       2.85520282      -0.05616582       0.00592753       0.00060433       0.00431428      -5.95998981
Al       4.22226132       4.41051545       1.42210124       0.00165440      -0.00076176       0.00668385      -4.87424701
Ni       2.83101444       2.90163895       2.78233802       0.00080619       0.00444581      -0.00177686      -5.90326455
Al       4.20305273       4.14703556       4.33279784      -0.00346763       0.00135240      -0.00194182      -4.86968878
Ni       2.84499074       2.81683055       5.87569451       0.00057964      -0.00624703       0.00109410      -5.94251831
Al       4.29259914       4.29104483       7.17471774       0.00654604       0.00584095       0.00129922      -4.66785322
Ni       2.88591454       2.92549542       8.61381469      -0.00667274      -0.00216916      -0.00241551      -6.14752119
Al       4.34746858       4.41494780      10.00275540      -0.00453693       0.00127047      -0.00053856      -4.76732648
Ni       2.96224470       5.81332661      -0.10699995      -0.00746840      -0.00492326       0.00022444      -5.90626402
Ni       4.28838853       7.16937220       1.54315719      -0.00370960      -0.00056075       0.00127732      -5.78077110
Ni       2.85168253       5.65163630       2.96469253       0.00191959      -0.00036443       0.00799785      -5.89660281
Al       4.29936165       7.13274831       4.22342457      -0.00354718      -0.00386203      -0.00302050      -4.75506408
Ni       2.93269161       5.76847689       5.77379952       0.00543845       0.00238362      -0.00331742      -6.14130247
Al       4.30378319       7.17595492       7.28179587       0.00061897      -0.00170320      -0.00569729      -4.76371875
Ni       2.78714448       5.67444238       8.57179553       0.00098415      -0.00190242      -0.00364209      -6.14026448
Ni       4.34657920       7.17603316       9.88385264      -0.00232132       0.00009153       0.01173577      -5.78456361
Ni       2.87532301       8.56853274      -0.02046958      -0.00168812      -0.00006530       0.00433981      -6.05715664
Al       4.36543747       9.89479197       1.45310720       0.00160428       0.00380232       0.00010562      -4.87863259
Ni       2.81897411       8.62600592       2.95607693      -0.00248183      -0.00138069       0.00069887      -6.14625991
Al       4.25189442      10.14920953       4.33168768       0.00646630      -0.00562521       0.00251089      -4.75161617
Ni       2.86180685       8.55214663       5.71346037       0.00241912      -0.00447414      -0.00228029      -6.29512152
Al       4.27602127      10.01683769       7.14319273       0.00120405      -0.00064323       0.00430452      -4.67030166
Ni       2.77471723       8.64167622       8.56347491      -0.00406579       0.00394383      -0.00159992      -6.12290325
Al       4.29766076       9.90181653      10.00525562       0.00032955      -0.00011402      -0.00801331      -4.77066496
Ni       5.64040382       0.00072507      -0.02957459      -0.00314500      -0.00515243       0.00014676      -6.13862611
Al       7.13339890       1.32446656       1.42973901       0.00491682      -0.00031181      -0.00411005      -4.78537797
Ni       5.69596039      -0.02840703       2.86908212      -0.00086440      -0.00461889      -0.00334186      -6.00317756
Al       7.04951326       1.42385840       4.29106615      -0.00172434       0.00190353       0.00592862      -4.73986005
Ni       5.76443881      -0.01069953       5.76759826      -0.00498470       0.00192516       0.00589485      -6.10903624
Al       7.19559000       1.43402176       7.18003500       0.00217869      -0.00752381      -0.00260893      -4.65816384
Ni       5.74236282      -0.04068245       8.59532965       0.00022384       0.00215565      -0.00239940      -6.30776538
Al       7.12781785       1.39305739      10.03559250       0.00342877      -0.00147282       0.00293659      -4.66966526
Ni       5.71489440       2.85899952       0.00363092      -0.00245936      -0.00255741      -0.00259151      -6.31844286
Al       7.25746727       4.28704244       1.39439962      -0.00866763       0.00189759       0.00998269      -4.80010480
Ni       5.76528797       2.92403744       2.81055027       0.00227667       0.00412770       0.00751416      -6.13955710
Al       7.17144875       4.29439410       4.32497612      -0.00092722       0.00108259      -0.01481247      -4.67530692
Ni       5.76354792       2.87882494       5.79033061      -0.00866703      -0.00657790      -0.00695795      -6.11133458
Al       7.23744913       4.28317629       7.14440604      -0.00771134       0.00087454       0.00293315      -4.65028932
Ni       5.75426630       2.87959059       8.59708319      -0.00671320       0.00054552       0.00344503      -6.28858004
Al       7.16204446       4.31627940      10.07681752      -0.00242370      -0.00056847       0.00151761      -4.69850359
Ni       5.73477946       5.75284241       0.04228358       0.00249618      -0.00843492       0.00521091      -6.04311706
Al       7.08162691       7.25972076       1.49877826      -0.00257121      -0.00098425      -0.00463403      -4.92606009
Ni       5.75581699       5.64624563       2.90714019       0.00404945      -0.00559506      -0.00727760      -6.15314162
Al       7.15359387       7.14694227       4.31339984       0.00360270       0.00327831      -0.00354427      -4.69261507
Ni       5.70577937       5.71516002       5.74560542      -0.00814572      -0.00107944      -0.00379360      -6.29420299
Al       7.19483082       7.16014061       7.12143210      -0.00230520       0.00749184      -0.00165217      -4.66757255
Ni       5.82409777       5.66516504       8.50420014      -0.00530301      -0.00883014      -0.00658374      -6.08809152
Al       7.03110224       7.15312692       9.99854848      -0.00466816       0.00661650       0.01356771      -4.77453064
Ni       5.70555232       8.55781103      -0.04373612       0.00032466       0.00188532      -0.00529817      -5.90671739
Ni       7.14433528      10.03376876       1.41905905       0.00016637       0.00221138       0.00552932      -5.86806444
Ni       5.72039347       8.64629164       3.00760855       0.00794796      -0.00120683       0.00348384      -5.95235847
Al       7.18218603      10.06170836       4.25408904       0.00000524      -0.00822006      -0.00613855      -4.75082140
Ni       5.70649840       8.60015953       5.72416756      -0.00002631      -0.00122764      -0.00417770      -6.29504510
Al       7.22268799      10.03292399       7.12117375       0.00305027      -0.00342889       0.00445622      -4.65946507
Ni       5.82531315       8.67775276       8.52086444       0.00110182       0.00438422      -0.00093828      -6.10839363
Al       7.23893632      10.04085281      10.15672054      -0.00100338      -0.00030411      -0.00409629      -4.85918102
Ni       8.64458529       0.07749131       0.01843577       0.00573444       0.00247977      -0.00129523      -5.96891022
Al      10.02451419       1.54875779       1.45716093       0.00293251      -0.00236690      -0.01355719      -4.78115200
Ni       8.64914509       0.02745691       2.87301656      -0.00110166      -0.00535895      -0.00325950      -6.13833918
Al      10.09212748       1.45672927       4.24503134       0.00551845       0.00389455       0.01063773      -4.68096177
Ni       8.63213372       0.02684912       5.70098964       0.00320961       0.00949152      -0.00416162      -6.28196426
Al      10.01825694       1.44058730       7.20930798       0.00563967       0.00126632      -0.01223175      -4.66325438
Ni       8.59783636       0.00197353       8.61101229      -0.00321293      -0.00574959       0.00702536      -6.13195929
Al      10.15833087       1.32637420      10.03955042      -0.00587088       0.00280006       0.00757105      -4.84737144
Ni       8.54612357       2.76337079      -0.06456245      -0.00112408      -0.00708216       0.00326577      -6.13543204
Ni       9.93262643       4.26022981       1.41044427       0.01247144       0.00323717       0.00605321      -5.71217011
Ni       8.51667324       2.80973964       2.91919383      -0.00681726       0.00751026       0.00413250      -6.13618443
Al      10.12908816       4.27136566       4.16309079       0.00401121       0.00022952      -0.00579922      -4.85435432
Ni       8.63007198       2.84524077       5.68143450       0.00149281      -0.00589868       0.00141538      -6.28368344
Al      10.00562774       4.29093440       7.18529127       0.00539640      -0.00150236       0.00272562      -4.64899853
Ni       8.61264855       2.85979279       8.67474183       0.00338992       0.00154786      -0.00200902      -6.28376526
Al       9.98464398       4.33727902      10.18875373       0.01073405       0.00145162       0.00155813      -4.76511867
Ni       8.53318281       5.83499698       0.00566717       0.00473860       0.00722889      -0.00286705      -6.05328487
Ni      10.03406238       7.20532422       1.46750597      -0.00081802      -0.00159300      -0.00036711      -5.72593572
Ni       8.54308608       5.73552492       2.87069055      -0.00470487       0.00181982      -0.00565247      -6.02641214
Al      10.06739493       7.14161289       4.11823275       0.00131179       0.00265494       0.00052363      -4.75530183
Ni       8.66894560       5.73329014       5.68351544       0.00588416       0.00211711       0.00088886      -6.27702770
Al      10.02337875       7.17491751       7.20641187       0.00062328      -0.00210409      -0.00157141      -4.64698618
Ni       8.60168273       5.74613536       8.64083047       0.00338791      -0.00151734       0.00499708      -6.29413610
Al      10.04634691       7.27710490      10.13529024      -0.00205921       0.00051423       0.00112339      -4.87393488
Ni       8.48117438       8.49401890      -0.02766622      -0.01532326      -0.00899696       0.00112854      -5.76755483
Al       9.93417309       9.89469261       1.34265421      -0.00315614       0.00044987      -0.00140733      -4.96134605
Ni       8.56859126       8.61410075       2.93559992      -0.00823767       0.00446286      -0.00586934      -5.96610350
Al      10.07529155      10.04135530       4.26377031      -0.00138369      -0.00073385      -0.00515172      -4.66816056
Ni       8.66011154       8.57987637       5.68023003      -0.00370062      -0.00001856      -0.00049199      -6.28353957
Al      10.02357369      10.00025245       7.21273986      -0.00242601       0.00384696       0.01163214      -4.72883205
Ni       8.55978233       8.57334832       8.60525041      -0.00288341       0.00093771       0.00600583      -6.14592435
Ni      10.04101418       9.97805685      10.09120086      -0.00303813       0.00441899      -0.00487953      -5.84167050
