128
Lattice="12.395938209751021 0.04596087495683528 0.09237576098516187 0.04187734796583851 12.716435004709844 -0.02664853413563705 0.0936501445474466 -0.022834909345485356 12.249888702319808" Properties=species:S:1:pos:R:3:forces:R:3:energies:R:1 energy=-586.3637834833194 stress="-0.00027816243461065463 -0.00031973765589169453 -0.00027838142465723447 -0.00031973765589169453 -0.0003542867249988228 -5.6501139049716985e-05 -0.00027838142465723447 -5.6501139049716985e-05 0.0001684790094221002" free_energy=-586.3637834833194 pbc="T T T"
Al      -0.14431619       0.14418263      -0.15574341       0.00294300      -0.00479196      -0.00301170      -4.08686363
Al       1.01837913       1.40102608       2.27108791      -0.00390787      -0.00687697       0.00213905      -3.79405924
Ni       0.84862381      -0.64335808       3.92634989      -0.00363286      -0.00478674      -0.01190031      -6.19300430
Al       1.77778536       1.32269659       5.09272935      -0.00224957       0.00323055      -0.00258185      -4.24710273
Al      -0.29225428       0.22255986       7.53727765      -0.00463213      -0.00462706       0.00677680      -4.19155710
Al       2.03068976       2.13512808       7.65368877      -0.00771412      -0.00331651       0.00392637      -3.99531246
Ni       0.54394652      -0.24632539       9.80065237       0.00063805      -0.00664229      -0.00754039      -5.91890746
Al       1.29840844       2.03451788      10.52726374       0.00846519      -0.00615052      -0.00004842      -3.85251243
Al       0.95345913       3.77119243       0.58157192       0.00450342       0.00217869      -0.00802575      -3.74802376
Al       1.44829455       6.17705093       2.21883104      -0.00357334      -0.00198121      -0.00251575      -4.26689046
Al       0.03597598       3.32098295       4.01068270      -0.00119179       0.00510738      -0.00247425      -4.00019446
Al       1.81612973       5.34991878       4.72337001      -0.00561726      -0.01505511       0.00393868      -4.12613868
Ni      -0.04845270       2.33496957       6.39734174      -0.00214370       0.00651153       0.00411383      -5.77805113
Al       1.74250899       4.97400954       7.50739443      -0.00772395      -0.01075708      -0.00369975      -4.09948432
Al      -0.45067050       3.24753464       8.70224547      -0.00356920       0.00153600      -0.00104399      -4.04269992
Al       1.02041056       4.94820717      10.25777841       0.00283916       0.00398718       0.00596144      -4.00380759
Ni       0.24787506       6.13189045       0.10947201       0.00621481       0.00608008      -0.00167911      -6.04119639
Al       1.13402392       8.50352263       0.44463352       0.00043641       0.00051407      -0.00051727      -4.22690647
Ni      -0.51579204       5.70474625       3.82509607       0.00010693      -0.00912033      -0.00452567      -6.08107257
Al       0.65309697       7.90266404       4.52982588       0.00123153       0.00116632       0.00537625      -4.28323159
Ni       0.13063610       6.25434668       6.18957160       0.00085854      -0.00384247       0.00608087      -5.73237111
Al       1.41012861       8.05253223       7.22965796       0.00107773      -0.00681943       0.00720640      -4.29384277
Al      -0.81774329       6.25528198       8.35152638      -0.00404228      -0.00446312       0.00244199      -4.25320631
Al       1.69752022       8.02382224       9.87599834      -0.00521030      -0.00126539      -0.00679961      -4.18558930
Ni      -0.31533194      10.42523733       0.56936568      -0.00257779      -0.00748098       0.00500001      -6.04965775
Al       1.54487767      11.54591761       1.56525089      -0.00185372      -0.00282423       0.00067217      -3.99795240
Al       0.02473956       9.93991922       3.04037349       0.00293706       0.00433833       0.00047688      -4.06153827
Al       2.16317968      11.34878166       5.96293049       0.00082298       0.00784328       0.00323055      -4.15818228
Ni      -0.78426062       8.57461030       6.52398203      -0.00506424       0.00822689      -0.00590288      -5.78975581
Al       0.72710592      10.56445659       8.24717575       0.00305736       0.00101076       0.00452484      -4.11499422
Ni      -0.52168865       8.68223461       8.93283120       0.00084821      -0.00130030       0.00709294      -5.88067678
Al       1.77334101      10.68297144      11.12006870      -0.00416119      -0.00482243      -0.00321098      -4.28263097
Al       2.77859232       0.30901128      -0.31069177       0.00559253       0.00051529       0.00909509      -3.60701456
Al       4.62261173       0.91575933       1.63169583      -0.00183784       0.00589531       0.01215778      -3.71190302
Al       3.22614656      -0.33226255       3.44594621       0.00561118       0.00229075      -0.00561179      -3.78498435
Al       4.80107876       1.44062724       4.66091468       0.00574499       0.00376408      -0.00313248      -4.02546570
Ni       3.64357048       0.50931038       6.64815757       0.00026500       0.00231492      -0.00481112      -5.97729774
Al       5.29929049       2.06414341       7.51658563      -0.00196703      -0.00204453      -0.00288616      -4.30409131
Al       2.76737429      -0.17573849       8.93026949      -0.00150283       0.00026685      -0.00095663      -4.12794515
Al       4.97913407       1.10752106      10.49052842       0.00155453       0.00353298      -0.00558424      -4.07979572
Al       3.39300087       2.86738111       0.21410700       0.00251147      -0.00697283      -0.00275515      -3.58544689
Al       4.55041625       5.26827609       1.15822805      -0.00132157      -0.00313980       0.00006637      -3.94303531
Al       2.75487735       3.35333169       2.98205325       0.00350539       0.00212165      -0.00077085      -3.63166402
Al       4.60627173       5.60553044       3.92890674      -0.00137633       0.00020002      -0.00241170      -4.19518691
Al       3.54821049       3.55261105       5.73359429      -0.00202913      -0.00216031       0.00542670      -3.70162501
Al       4.97828154       4.89185250       7.83280306       0.00698581      -0.00138771       0.00471556      -4.21855749
Al       3.39415659       3.46681370       9.63683305      -0.00459106       0.00118903       0.00239622      -3.99990413
Al       5.17316666       5.38214631      10.53152998      -0.00047745      -0.00261856      -0.00185145      -4.28077924
Al       2.67088220       6.35989897      -0.49109620       0.00100378      -0.00728292      -0.00375081      -4.12374844
Al       3.54420019       8.04470644       1.68001454      -0.00128137       0.00284309       0.00011165      -4.21921863
Ni       2.97227887       7.40465059       3.91551690       0.00870897       0.00716605       0.00410920      -5.91284873
Al       5.26070970       8.25721596       4.43609322       0.00734685       0.00335465      -0.00089783      -4.43770820
Al       3.65676720       6.74213447       6.33833567       0.00267500       0.00092903       0.00544553      -4.26827981
Al       5.45702292       8.77416515       7.22790974       0.00495023      -0.00450233      -0.00293728      -3.85460902
Ni       3.08911133       5.89417346       9.31722706       0.00172423       0.00721163       0.00000616      -5.93582917
Al       4.49476071       7.91619498       9.59782535      -0.00513325       0.00262448       0.00395497      -3.93870353
Ni       3.28217534       8.90518647      -0.67009847      -0.00408789       0.00051617      -0.00071156      -6.05406924
Al       3.93611550      10.67733192       0.95362759       0.00288896      -0.00086032      -0.00079320      -3.78740710
Al       2.64231445       9.79384938       3.67159932       0.00411617       0.00573628      -0.00068855      -4.15298922
Al       4.86882152      10.95272974       5.37266287       0.00577594      -0.00290342       0.00354554      -4.43473656
Ni       3.33935779       9.09395052       5.87618909      -0.00505632      -0.01665119      -0.00404446      -5.95990812
Al       5.27635085      11.81325559       8.07876940       0.00705518       0.00101232      -0.00333786      -4.25274616
Al       3.28623399       9.90541311       8.16882378       0.00266534      -0.00528944      -0.00641429      -3.79838123
Al       4.60374801      10.68553909      10.48550988       0.00134744       0.00706155       0.00268858      -4.18269308
Al       6.12474424      -0.83445115       0.18524111      -0.00362329       0.00319331       0.00108943      -3.78839291
Al       7.23015548       1.37574833       1.38629073      -0.00133466       0.00405792      -0.00304451      -3.99601618
Al       6.65100774      -0.31980921       3.67479110       0.00578223      -0.00212237       0.00268469      -4.19443944
Al       8.29197719       0.99259253       5.46794601      -0.00052950      -0.00242054       0.00592417      -4.22832844
Ni       6.13169616       0.10929077       6.18546404       0.00629034      -0.00016562       0.00064126      -5.85235505
Al       7.90068822       0.17137473       8.16527819      -0.00207357       0.00548354       0.00038390      -4.09964596
Ni       6.56150306      -0.69913333      10.08691189       0.00188950       0.00033420       0.00216114      -5.77060713
Al       7.67419295       1.56685213      10.45054610       0.00465780       0.00058616       0.00347539      -4.42970590
Al       6.10979247       3.35171843      -0.05597481       0.00450818       0.00269652      -0.00003206      -4.09229729
Al       8.38923047       4.77091183       1.34802322      -0.00272231      -0.00022073       0.00631233      -4.34132667
Al       5.45909096       3.24697404       2.76394116      -0.00124662       0.00567526       0.00077407      -3.57616153
Al       7.29118022       6.17629066       3.83585562      -0.00353288       0.00471288       0.00008463      -4.29016105
Al       6.34199512       3.93922400       5.46743324       0.00239159      -0.00112230      -0.00085333      -4.09236829
Al       7.84507866       3.40350544       8.13719598       0.00071199       0.00637735      -0.00165864      -4.35412688
Ni       5.82276443       3.18842847       9.57918167       0.00113616       0.00524111       0.00104845      -5.98267253
Al       7.86076508       4.50006638      10.56021556      -0.00506986       0.00575389       0.00143607      -4.44032640
Ni       6.62257157       5.90512815       0.03391284       0.00084369      -0.00576326      -0.01222459      -5.92677727
Al       7.87549078       7.50420538       1.33261776       0.00433296      -0.00181860       0.00012977      -4.37971801
Ni       5.65706797       7.13791054       2.19885109      -0.00588339       0.00203272      -0.00375098      -5.91909698
Al       8.86994501       8.75997289       3.54627822       0.00095575       0.00550345       0.00493053      -4.30716092
Ni       6.06264086       6.31493512       6.07481580      -0.00472539       0.00297419       0.00280095      -6.19549863
Al       7.63139812       8.12938415       5.91857981       0.00305162       0.00549278      -0.00223633      -4.28638154
Al       6.93303523       6.79160046       8.44989770       0.00138548       0.00377692      -0.00158280      -3.97267202
Al       8.47080030       7.19303961      10.78638157      -0.00883952       0.00073390       0.00416835      -4.31083843
Al       5.57823544       8.09085271      -0.20418829       0.00295666      -0.00759401       0.00681942      -4.17463271
Al       8.28886784      11.28931621       1.63069086      -0.00589759       0.00481652       0.00000303      -3.99776273
Al       6.16596124       9.63907823       2.18596824      -0.00074481       0.00318922      -0.00033078      -3.97555326
Al       9.31949537      11.35023354       4.29229777       0.00278438      -0.00924154       0.00673482      -4.49786501
Ni       6.97382598      10.06938806       4.44574821       0.00006868       0.00499213      -0.00361181      -5.95557752
Al       7.59445507      10.83263741       6.62040685      -0.00073400       0.00014423      -0.00318767      -4.29642892
Al       7.15491601       9.62152411       9.41771148       0.00012148       0.00448605       0.00308135      -3.97759409
Al       8.75670765      11.44226789      10.83009695       0.00217493      -0.00862709      -0.00394812      -4.05505528
Al       9.57155586       0.58854562       0.34103973       0.00278427      -0.00012850       0.00056510      -3.88644962
Al      10.53476349       2.35949834       2.22558971       0.00283172       0.00104948      -0.00286229      -3.92416538
Ni       8.93190621       0.58177819       2.94432873       0.00520296       0.00401827       0.00044817      -6.12598241
Al      11.30930871       0.78266565       4.91672417      -0.00922690       0.00139405      -0.00746142      -4.23702348
Ni       9.86157677      -0.47860678       6.60313447      -0.00184352      -0.00054490      -0.00277819      -6.08647938
Al      10.02518122       1.98948330       7.35918654      -0.00061301      -0.00264619       0.00056077      -4.23029587
Al      10.59155488       0.66348997       9.90601793       0.00040720      -0.00256941       0.00179047      -4.08083364
Al      11.18685051       2.69149748      11.77687321       0.00930523      -0.00657731      -0.00318028      -3.99537277
Ni       8.64029331       2.79695064      -0.04341187       0.00218587      -0.00378711      -0.00064114      -5.88537606
Al      11.16420038       5.00950599       1.68716901      -0.00316939      -0.00860093       0.00368069      -4.30398032
Al       7.94521906       2.75278437       3.56047889       0.00097509       0.00634029       0.00625157      -3.94589510
Al       9.76405121       4.52559433       4.03541851      -0.00766596       0.00280508      -0.00096086      -4.26594857
Ni       8.67632531       3.37023491       5.83518217      -0.00451546       0.01221623      -0.00199242      -5.68652213
Al      11.06917501       4.41398927       6.30579485       0.00331814       0.00223218      -0.00774498      -4.28322221
Ni       9.72987717       2.97640196       9.78911120      -0.00240362      -0.00231355       0.00774526      -5.92007644
Al      10.63406702       5.11977651      10.80322301      -0.00297069       0.00036584      -0.00434416      -4.30011324
Ni       9.96826258       6.67918919       0.37831812      -0.00334565       0.00416138       0.00557453      -5.96424080
Al      11.33505779       7.79407786       2.06666383       0.00176604      -0.00421829      -0.01137432      -4.46255809
Ni       9.51474610       6.50489263       2.88649061       0.00418170      -0.01228504       0.00280331      -5.95683101
Al      10.34102699       7.16546900       5.20762974      -0.00222639       0.00081012       0.00016198      -4.55323151
Al       8.40736043       5.58803902       6.54341715      -0.00504605      -0.00072324       0.00452831      -4.16587552
Al       9.52338486       7.95213516       8.01442380       0.00184098       0.00917766      -0.00134061      -4.46308080
Ni       9.12853529       5.65084639       8.89404580      -0.00574721       0.00043211      -0.00042545      -5.89154791
Al      11.50564693       7.73873376      11.06696897      -0.00386487       0.00468650      -0.00242710      -4.44759677
Al       9.70290504       9.28069348       0.20130212      -0.00657643       0.00431035       0.00105312      -4.30719914
Al      11.23140691      12.34922051       2.37895472       0.00303033       0.00534893      -0.00183718      -4.30467152
Ni      10.24608153      10.16610991       2.29314065       0.00678540      -0.00397099      -0.00303521      -5.55115651
Al      11.82147351      10.85111806       5.73377710      -0.00412349      -0.00354069       0.00454921      -4.31898563
Ni       9.47285230       9.57641385       5.86657210       0.00180400      -0.00310887      -0.00177754      -6.02492149
Al      10.22098519      10.47310341       8.07947612       0.00257713       0.00183562       0.00037656      -4.55734754
Ni       9.53001735       9.31738693      10.06564766      -0.00370276       0.00118054      -0.00775875      -5.79064059
Al      11.48749627      10.63939757      10.59274241      -0.00052265      -0.00004749       0.00077740      -4.42262960
