128
Lattice="12.090750202037654 0.07475969107106731 -0.043299047442420045 0.07405624605655216 12.187349807623406 -0.05947115061789871 -0.04277481605285914 -0.05899786438462123 12.21225553240416" Properties=species:S:1:pos:R:3:forces:R:3:energies:R:1 energy=-617.3434022390123 stress="-0.0008494045449539819 -0.0008069063283835455 -0.0002493490738165307 -0.0008069063283835455 0.00046065360798305046 0.0006014053599805991 -0.0002493490738165307 0.0006014053599805991 0.0004945310341462357" free_energy=-617.3434022390123 pbc="T T T"
Ni      -0.50730890       0.44724832       0.48798063       0.00504030      -0.00050833      -0.00222556      -5.88880072
Al       1.27592439       1.65425932       1.74900975      -0.00106308       0.00068620       0.00245475      -4.44540509
Ni      -0.47100813       0.41710283       3.08399036       0.00157504      -0.00466419      -0.00255253      -6.07640686
Al       1.26461772       1.65065553       4.52520800      -0.00569013      -0.00083624       0.00152952      -4.42253447
Ni      -0.56727120      -0.46069355       6.46999054      -0.00693265       0.00481741      -0.00247593      -6.11031196
Al       1.04293065       0.92468053       7.72624004       0.00089596       0.00570686      -0.00592526      -4.25944086
Al      -0.96995636      -0.75957177       8.94868444       0.00379763       0.00278545       0.00047723      -4.26557534
Al       1.07319627       1.03803104      10.96567868       0.00080387       0.00038315       0.00117879      -4.17721158
Ni      -0.30205661       3.01809358       0.40515799       0.00368765       0.00079528       0.00166362      -5.98974479
Al       1.35476340       4.26465907       1.84609200      -0.00484054       0.00626226       0.01010772      -4.19848702
Ni      -0.21415714       3.11816432       3.28755862      -0.00227266      -0.00788838       0.00375083      -6.08225569
Al       1.54429856       4.26088048       4.56946049       0.00512724      -0.00478174      -0.00042923      -4.28196751
Ni      -0.14309630       3.07251478       6.24963190       0.00069366      -0.00129424       0.00116995      -6.12603410
Al       1.32317949       4.77629935       7.13600200       0.00498792       0.00310719       0.01395878      -4.44845030
Al       0.29691535       3.27134446       9.03105426      -0.00132697      -0.00080868      -0.00164054      -3.97613593
Al       1.67967453       3.77351163      11.49123102       0.00128922      -0.00516643       0.00568811      -4.21698207
Al       0.55360984       6.61471377       0.94759685      -0.00130868       0.00023910      -0.00472447      -4.19652117
Al       2.67482760       8.27130418       0.83124043      -0.00249499      -0.01310290      -0.00155613      -4.25245528
Ni      -0.09071775       5.82900221       3.16479958       0.00753735      -0.00257103      -0.00453237      -6.18702968
Al       2.80582804       8.59721753       5.25835496      -0.00313542      -0.00598191       0.00096688      -4.19515665
Al       0.98001791       6.77965620       5.12009886      -0.00683890      -0.00169698      -0.00459922      -4.05260760
Al       1.96724604       7.12276752       7.99966876      -0.00193163      -0.00468398       0.00101953      -4.02608853
Ni      -0.11040704       6.11828536       9.16636563      -0.00137931      -0.00442739      -0.00040698      -6.14653380
Al       1.56559255       6.92274072      10.73435627       0.00177959       0.00062771       0.00162836      -4.13678798
Ni       0.17286836       9.02630878       0.80954793      -0.00649391      -0.00489456      -0.00007990      -6.06830457
Al       1.27458486      11.17758822       1.59018650       0.00063809      -0.00893457       0.00591581      -4.17866317
Al       0.93824087       8.59676005       3.06665387       0.00211698       0.00463603       0.00609729      -4.19729195
Al       1.07576957      11.13759508       4.36731572      -0.00088229       0.00144803       0.01011382      -4.23233686
Ni       0.21407724       9.13887219       5.41593444      -0.00481183      -0.00906918       0.00529107      -6.08656224
Al       1.53115128      10.34164271       7.04846675       0.00409108       0.00057721       0.00708596      -4.34946516
Al       0.18745183       8.90769009       9.08474041       0.00418914      -0.00160543       0.00006043      -3.98722070
Al       1.49636499       9.84997394      11.25572699       0.00306627      -0.00641238       0.00076944      -4.21904542
Al       3.34277297      -0.27736727      -1.15654070       0.00705739      -0.01081859       0.00714828      -4.11401326
Al       4.14696167       1.29589531       1.47149156      -0.00899416      -0.00311007       0.01163443      -4.37861615
Ni       2.84275567       0.21687080       3.21922755      -0.00667912       0.00298737      -0.00167748      -6.10968811
Al       5.10502050       1.28557760       4.18774954      -0.00133298      -0.00248828       0.00305901      -4.19522757
Al       3.12241673       0.25876938       5.76444893       0.00411664      -0.00212521       0.00296473      -4.07092509
Al       4.71384181       1.94790556       7.12857191      -0.00398232       0.00756792      -0.00606173      -4.16755960
Ni       1.46534510      -0.95605971       9.36571989      -0.00431044       0.00119451      -0.00349949      -6.00138612
Al       5.23381214       1.60590298       9.84774948       0.00550280      -0.01105170      -0.00943615      -4.35340466
Ni       3.46858929       2.05986862      -0.77077441       0.00283980       0.00424101       0.00118771      -5.90971986
Al       4.02168403       3.87972851       1.08342934      -0.00602945       0.01176870      -0.00521213      -4.22277959
Ni       3.23324389       2.83666682       3.18608061      -0.00140969      -0.00676201      -0.00011186      -6.00903748
Al       4.10362789       3.92219165       5.34148185       0.00389625      -0.00890651      -0.00346964      -4.37368666
Ni       2.36318227       2.52428556       6.56429427      -0.00036422      -0.00157125      -0.00547578      -5.94362463
Al       3.94125511       5.02516940       7.99651154      -0.01107164      -0.00722598       0.01159862      -4.46693053
Al       2.88749381       2.64847495       9.07148092       0.00110220       0.00567722      -0.00939031      -4.19426387
Al       4.41602087       4.36132966      10.62259521       0.00242228       0.00568682       0.01022321      -4.49988893
Ni       2.84495213       5.83615263       0.30596364       0.00263543      -0.00183742      -0.00713990      -6.18014076
Al       4.99710986       6.65118281       1.44230312      -0.00204778      -0.00045412      -0.00715193      -4.32293774
Al       2.60517747       6.33261204       2.91193750      -0.00473006      -0.00290939      -0.00431363      -4.19192698
Al       4.99975486       6.73961354       4.34006970       0.00046424      -0.00353336       0.00667154      -4.36703080
Ni       3.13789406       6.11147634       5.91450273       0.00304234      -0.00325541       0.00058444      -6.16184262
Al       4.52607477       7.57465206       7.30626140       0.00650697       0.01326683       0.00139251      -4.40470456
Ni       2.07332458       4.94962648       9.46711169       0.00915593      -0.00617582      -0.00843270      -5.91591620
Al       4.32379104       7.13254028      10.81472309       0.00520223       0.00791439      -0.00205393      -4.24265432
Ni       3.90314119       9.57326561      -0.80600081       0.00492199       0.00762316      -0.01126655      -5.85359476
Al       3.98048544      10.58477013       1.39770236      -0.00182120       0.00849749      -0.00136441      -4.27436553
Ni       3.73718546       8.45317897       2.98395090       0.00278426       0.00437412      -0.00624303      -5.93806899
Al       4.24589713      10.64760492       4.10315649      -0.00274825       0.00324562       0.00012455      -4.25217906
Ni       3.97503205      10.22801945       6.56009668       0.00011214       0.00877606       0.01109752      -6.07674742
Al       3.74324449      11.90980953       8.29904191       0.00779169      -0.00198021       0.00157459      -4.05030753
Al       3.26592311       9.30532929       9.01631747       0.00151269       0.00230492       0.00194965      -4.22140535
Al       5.56774725      10.52104901      10.09872714      -0.01092839       0.00159681       0.00321698      -4.10714639
Al       6.01786142       0.14678920      -0.05334010      -0.00798302      -0.00653714      -0.00493064      -4.05254765
Al       7.25888395       1.75838921       1.72191612       0.00535392       0.00298611      -0.00471733      -4.32649781
Ni       5.73133046      -0.37251724       2.37450636      -0.00926100       0.00086469       0.00046279      -6.06681261
Al       7.99973556       2.03428267       4.35486213      -0.00856725      -0.00009035       0.00477266      -4.19891952
Al       5.92764222      -0.50617079       6.70675681       0.00495891      -0.00978917       0.00123776      -4.11224386
Al       7.54069100       2.00179383       7.84861201      -0.00421003       0.00204565      -0.00477536      -4.59698887
Ni       6.72739553      -0.10059687       8.93484843      -0.00770352       0.01148383      -0.00258849      -5.95623303
Al       7.78208081       1.75556997      10.81246131      -0.00295018      -0.00240379      -0.00166919      -4.36317694
Ni       5.82801519       2.64091461      -0.20563090      -0.00487942      -0.00397875       0.00714119      -6.04399458
Al       6.96677699       4.58421132       0.81273693      -0.00145724       0.00692115      -0.00071454      -4.39071921
Al       5.79137155       3.70510615       3.30722445       0.01175692       0.00742963      -0.00685083      -4.19597211
Al       7.79246421       4.82204405       4.88964452       0.00042983       0.00071941      -0.01017815      -4.61559670
Ni       6.42759696       3.10919666       5.90030206      -0.00447678      -0.00334617       0.00527191      -5.91881961
Al       7.74091886       4.71449239       7.65689576      -0.00542399      -0.00478725      -0.00329760      -4.56047366
Ni       5.77664260       3.61967739       8.48363322       0.00095893      -0.00506543      -0.00470679      -5.91169836
Al       7.16957359       4.37248586      10.38345489      -0.00392223       0.00287566       0.00741803      -4.45246190
Ni       6.63016939       6.65771349      -0.59277647       0.00488766      -0.00171062      -0.00051475      -6.01187361
Al       7.74881350       7.45589884       1.53691714       0.00080952       0.00652502      -0.00084483      -4.34224922
Ni       6.76522522       5.84148647       2.93541959      -0.00345526      -0.00151661       0.00835183      -5.75768514
Al       7.72213129       7.44781083       4.65484614       0.00554411      -0.00005496       0.00215685      -4.26869734
Ni       5.68255266       5.56146366       6.43935645       0.01166921       0.00008232      -0.00231052      -5.93919981
Al       7.22044295       7.36513292       7.28648947      -0.00130131      -0.00861528      -0.00344026      -4.18621470
Ni       5.91068696       6.08008851       9.11592754      -0.00357904       0.00804089       0.00212028      -5.94708603
Al       7.21403023       8.11034762       9.81827816      -0.00574776      -0.00579903      -0.00359289      -4.25891114
Al       6.10683235       8.96772085      -0.00235178      -0.00124100       0.00738957      -0.00302195      -4.08548127
Al       7.79985458      10.62737767       1.22984373       0.00159881      -0.00044608      -0.00126778      -3.99619018
Al       6.03274834       9.20222472       2.77354200       0.00448408       0.00304722      -0.00174795      -3.97571507
Al       7.28472976      11.55260235       4.20102812      -0.01005330       0.00779593       0.00494885      -4.16805159
Al       6.00418344       9.23260872       5.57832936       0.00414540      -0.00577231      -0.00264561      -4.13559610
Al       8.05003992      10.10843872       8.05640898       0.00592406       0.00810814      -0.00153939      -4.28806631
Ni       5.80279395       9.44334243       8.02080040      -0.00230149       0.00377724      -0.00791101      -5.94008637
Al       8.22217414      10.88834739      10.63752471       0.00281138       0.00181960       0.00414291      -4.26037903
Al       9.21787521       0.32805391       0.33231410      -0.00409483      -0.00019885      -0.01367369      -3.79850969
Al      10.09434131       2.18165095       1.97520543       0.00690477       0.00397792       0.00264287      -4.56554442
Ni       9.04080117       0.12548794       2.80157635      -0.00219804       0.00005052      -0.00110696      -6.14628209
Al      10.60801679       1.57123915       4.90895868      -0.00063898       0.00663735      -0.00054356      -4.39089903
Al       8.92929353      -0.08312641       6.64566753      -0.00001374      -0.00012045       0.00183604      -4.10673497
Al      10.51332820       1.80560347       7.71942490       0.00934801      -0.00090017       0.00951397      -4.35769333
Ni       9.06957591       0.55484376       9.15165853       0.00579482       0.00046153       0.00299090      -5.89956572
Al      10.55279942       1.79155501      10.75713967      -0.00085684       0.00517701      -0.00233902      -4.42990555
Ni       9.18040222       3.69594220      -0.20592195      -0.00291558      -0.00669280      -0.00291670      -6.02223341
Al      10.42166907       4.79078092       1.63539347      -0.00202223      -0.00023649       0.00096675      -4.51011936
Ni       8.29974270       3.82530344       2.60102985       0.00469902      -0.00364103      -0.00272317      -5.83590036
Al      10.57908914       4.69001119       4.73144282      -0.00132926       0.00213198      -0.00245270      -4.56852550
Ni       9.18306685       3.22148457       6.20589510      -0.00621477       0.00979321      -0.00743537      -6.10771666
Al      10.51988952       4.67278791       7.66233398      -0.00594087      -0.00063930      -0.00478214      -4.35910148
Ni       9.17881793       3.25096286       9.32934764       0.00577226      -0.00006257       0.00202200      -6.06731603
Al      10.95119521       4.66466564      10.79282901      -0.00121463       0.00333389       0.00547650      -4.21153315
Al       8.94832407       6.17232451      -0.61915611      -0.00178436       0.00172058       0.00214417      -4.01365178
Al      10.34554118       7.85876265       1.57129740       0.00093046      -0.00193850       0.00131369      -4.17139667
Ni       9.28129513       6.29362362       3.18878293       0.00212123      -0.00870038      -0.00690173      -5.97581539
Al      10.55945217       7.68815247       4.55579481       0.01722499       0.00070218       0.00704275      -4.20440755
Ni       9.23118524       6.23422490       6.30200277       0.00233551      -0.00490380       0.00660441      -6.11117751
Al      11.46017014       7.26223317       7.01402560      -0.00211157       0.00465705      -0.01413556      -4.00952689
Al       9.56041895       7.03562977       8.78730293       0.00028760      -0.00176465       0.00017171      -4.04554994
Al      11.00734330       7.72096605      11.08035296       0.00223402       0.00217651      -0.00633670      -4.24141184
Ni       8.68163051       8.65130961      -0.47474531      -0.00350397      -0.00840639       0.00667430      -6.09365013
Al      10.75708826      10.70015806       1.86766426      -0.00340237      -0.00281754       0.00635560      -4.26313384
Al       8.81350381       9.36191371       3.25783778       0.00339885      -0.00104397       0.00086463      -3.74298851
Al      10.43078691      10.97684588       4.50009524      -0.00825006       0.00766962      -0.00661692      -4.30812875
Ni       8.33223979       9.90334665       5.59670330      -0.00061427       0.00792848       0.01253459      -6.03586540
Al      10.42943682       9.67925302       6.95589115      -0.00182745      -0.00776219       0.00037287      -4.18909962
Ni       9.86691590       9.38455131       9.52088329       0.00433302       0.00315569      -0.00314691      -6.00336912
Al      10.86023492      10.45004464      11.45027588       0.00219874       0.00299545      -0.00108275      -4.18247314
