80
Lattice="10.746548220817601 0.017736568710949436 -0.1482367204990345 0.027646489798745715 10.937818430419668 -0.6104542003470751 -0.1368708315824671 -0.6006628705463405 10.863239022999153" Properties=species:S:1:pos:R:3:forces:R:3:energies:R:1 energy=-352.83915496263126 stress="0.0004923592984458593 -0.00034075975246842724 0.0004285048830374076 -0.00034075975246842724 0.0004024116448791351 2.9328943445113612e-05 0.0004285048830374076 2.9328943445113612e-05 -0.0002877535382926745" free_energy=-352.83915496263126 pbc="T T T"
Al       0.93947455       0.95905074       1.21486707       0.00228305      -0.00237515      -0.00127754      -3.80848375
Al       1.02752523       0.95754601       3.91963894       0.00338351       0.01194178       0.00202907      -4.15448654
Al       1.20812249       1.18397767       6.79918181      -0.00046836       0.00613585      -0.00046680      -4.11392467
Al       1.24083069       0.25326805       9.39406455      -0.00200873      -0.00161338       0.00032151      -3.59832777
Al       1.18245585       3.65648986       0.80143694      -0.00153092       0.00232910      -0.00290978      -4.02492701
Al       0.90593684       3.76587093       3.66232668      -0.00141063       0.00420911      -0.00186864      -4.26281270
Al       1.63365468       4.02153896       6.29869787      -0.00800297       0.00624729       0.00103924      -4.01117388
Al       1.30302103       2.98315425       8.87547722      -0.00366660       0.00066014      -0.00632714      -3.90946735
Al       0.79327691       6.50793064       0.45547719       0.00514740      -0.00563878       0.00044045      -4.11626151
Al       0.31846334       6.55724091       3.22499588      -0.00250819      -0.00790420       0.01156956      -4.26604580
Ni      -0.27513820       5.22389318       5.17086724       0.00451723       0.00551300      -0.00291485      -5.94245831
Al       1.47766065       6.69874998       5.76713519      -0.01450608      -0.00404667      -0.01084538      -4.31723687
Al       1.22389188       5.80249355       8.55824310       0.00009028      -0.00714265       0.00036034      -4.01313195
Al       2.64112384       9.66311117       0.43101211      -0.00249465      -0.00342247       0.00235876      -3.83086314
Al       0.90609583       9.22343209       3.75057959       0.00757034       0.00493658       0.00712232      -4.22265357
Ni      -0.53949230       7.92253453       5.18122103       0.00375103      -0.00688048       0.00601658      -5.89522677
Al       1.26712719       9.35087164       6.45304943      -0.00144870       0.00217307       0.00200283      -4.10087958
Al       0.93664109       8.47121866       9.10386236       0.00689243      -0.00190305       0.00635140      -3.86734727
Al       3.89677543       1.16723994       0.96977686      -0.00227371       0.00239181      -0.00051202      -4.21088024
Al       4.07685304       0.87959165       3.68865049      -0.00504203       0.00607687      -0.00391541      -4.37314816
Ni       2.53986346      -0.31413174       5.36052840      -0.01129596       0.01014695      -0.00489716      -5.89442272
Al       4.33874168       0.74451310       6.45093095       0.00679506      -0.00098212       0.00075258      -4.17263231
Al       4.02413446       0.82340298       9.17478869       0.00072975      -0.01074380       0.00416076      -3.85656283
Al       3.84672723       4.08155013       1.16580760       0.00038640      -0.00381508      -0.00046118      -4.50706543
Ni       2.48383497       2.40613141       2.50500606       0.00453373       0.00472354      -0.00214307      -5.98006270
Al       3.71702345       3.95800740       3.89417189      -0.00703720      -0.00611389      -0.00486401      -4.06698432
Ni       2.66155653       2.20007374       5.15183755      -0.00397367      -0.00652355      -0.01251399      -5.95538272
Al       4.41815991       3.37932620       6.39672099       0.00172119      -0.00178564       0.00224369      -4.07098796
Al       4.07436598       3.41300052       9.10770872       0.00962705       0.01081184      -0.00805185      -4.17449217
Ni       2.56443998       5.23286288      -0.53182447      -0.00874612      -0.00692965      -0.00230241      -5.90489725
Al       3.69902641       6.96753119       0.87011449      -0.01161691       0.00859139       0.01368576      -4.28140832
Al       3.12834848       6.49972706       3.53688815      -0.00343492       0.00938662      -0.00987449      -3.82084075
Al       4.08053471       6.08777840       6.16115314      -0.00715430       0.00556914       0.00376951      -4.27607686
Al       3.87673749       6.19586594       9.01345754      -0.00162316      -0.01421074      -0.00069534      -4.47959606
Al       5.31918899       9.60950207       0.62638767      -0.00347980       0.00665299      -0.01111506      -3.62660133
Ni       1.87523407       7.96781070       1.98872306       0.01421422      -0.00552396      -0.00153617      -5.79013961
Al       3.68402763       9.14819094       3.10989004      -0.00217860      -0.00766818      -0.00006221      -4.10872560
Al       3.93450721       8.95467391       5.93912207      -0.00275772      -0.00954551       0.00857837      -4.42772710
Ni       2.64345934       7.62477853       7.57310330       0.01464929       0.00066694       0.00277205      -5.88037471
Al       3.87598622       9.13749751       8.94757105       0.00626478      -0.00833868      -0.01047168      -4.23232050
Al       6.81003515       1.19783902       1.36733966       0.00615782      -0.00593840       0.00267152      -4.11432399
Al       6.82821076       1.66746252       4.17379649       0.00251638       0.00207271       0.00149687      -3.90042811
Al       7.12323812       0.57854844       6.69911172      -0.00534286      -0.00588201      -0.00281221      -3.85775071
Ni       5.51127657      -0.70331395       7.99745516      -0.00177034      -0.00058046      -0.00121161      -5.89584523
Al       6.91890769       0.79067759       9.43878088      -0.00225801      -0.00993488       0.00158064      -4.00187752
Ni       5.52204201       2.70994005      -0.05386655       0.01075085      -0.00097082      -0.00366265      -6.00262641
Al       6.80295322       4.19282572       1.39182341       0.00827425       0.00667658      -0.00288729      -4.33354466
Ni       5.28404433       2.66665966       2.51033892       0.00340469      -0.00686022      -0.00480112      -5.98595442
Al       6.34832268       4.44019091       4.08079253       0.00552205       0.00591528      -0.00274760      -3.79857324
Al       7.17540004       3.35353064       6.59551229       0.00145354      -0.00292195      -0.00010710      -4.01551579
Al       6.84142103       3.48836357       9.42460981      -0.00154210       0.00677289      -0.00388034      -4.47234438
Ni       5.32993381       5.50277412      -0.18426509       0.00414607       0.00090519      -0.00457237      -6.16148489
Al       6.38386779       7.12728214       1.34975886       0.00274229      -0.00000101       0.00191462      -3.95768909
Al       5.69327759       7.22965371       3.96757371       0.00197185       0.00969550       0.00453175      -3.67742392
Al       6.89534901       6.21894216       6.40372202      -0.00587771      -0.00373333      -0.00319741      -4.14329750
Ni       5.57886909       4.88979578       7.80629713       0.00125108      -0.00227834       0.00089612      -6.04704912
Al       6.55669894       6.48585471       9.35485422      -0.00181004      -0.00582295       0.00015766      -4.40080196
Al       7.99633166       9.68905105       0.84492330       0.00532742       0.01294306      -0.00283363      -3.67929069
Al       6.31138448       9.84428847       3.16093992       0.01005437       0.00237153       0.00192740      -3.65392555
Al       6.77987288       8.83448812       5.85343091       0.00337386      -0.00267591       0.00043625      -3.96088699
Ni       5.29448014       7.68991641       7.58394410      -0.00799765       0.00259203      -0.00365370      -6.14009443
Al       6.81619523       9.05168896       9.04932890       0.00629959       0.00643170      -0.00111710      -3.97773369
Al       9.36265639       2.11392967       0.20235854       0.00606534      -0.00475504       0.00406749      -3.62782580
Al       9.24026545       0.85573239       2.71604177      -0.00142345      -0.00419968       0.00612034      -3.67038320
Al       9.40970880       1.18672142       5.46584566      -0.00591732      -0.00173191       0.00123167      -3.68169301
Al       9.52753930       1.30921978       8.28256260      -0.00916605       0.00390347       0.00205526      -3.74138680
Al       9.52907244       4.60269265       1.59883988       0.00006351       0.00692450       0.01262871      -3.86513887
Al       8.92978502       3.54681416       4.13854711       0.00020388       0.00764414       0.00163616      -3.80850064
Al       9.82966616       3.76655391       6.90156265      -0.00047284       0.00660489       0.00108501      -4.07428224
Al       9.64159843       3.89563135       9.69602290      -0.00140722      -0.00383247       0.00409911      -4.11968020
Ni       8.01881374       5.77845904      -0.00213406       0.00113393      -0.00212168      -0.00006567      -6.03654279
Al       9.02361718       7.33753669       1.52760671      -0.00389617      -0.00206863      -0.00915987      -3.82202286
Al       8.43304605       6.48437049       4.15384949      -0.00202878      -0.00204160      -0.00269635      -4.01635488
Al       9.58450886       6.62500270       6.91589985       0.00010955       0.00215311      -0.00825712      -4.22592352
Ni       8.18598493       5.07262621       8.18018024      -0.00297189      -0.01210045       0.00981684      -6.00093974
Al       9.32972564       6.88819951       9.59006156      -0.00167046       0.00077844       0.00139262      -4.04662613
Al      10.74867102       9.33365765       0.87346825       0.00273809       0.00943268       0.00426430      -3.94664766
Al       8.88288138       9.43005893       3.65544885      -0.01285881       0.00403350       0.00832399      -3.91851366
Al       9.32481518       9.65273466       6.54799646      -0.00449835      -0.00406811       0.00397674      -3.81715531
Al       9.42285203       9.92968959       9.37098396       0.00545278       0.00061230       0.00580347      -3.69403727
