89
Lattice="11.16220240504727 0.02707883297158227 0.08066613695508462 0.02711706175240364 11.154067004763688 0.043920380907168356 0.08114881085570672 0.04411187043641229 11.10875278142418" Properties=species:S:1:pos:R:3:forces:R:3:energies:R:1 energy=-418.3808314713567 stress="-0.00010917015773588907 -0.0006476401933847954 2.140031327761822e-05 -0.0006476401933847954 0.00012558003373073576 -0.00029965342866693234 2.140031327761822e-05 -0.00029965342866693234 2.6019919577743955e-05" free_energy=-418.3808314713567 pbc="T T T"
Ni       0.11575280      -0.10189706      -0.04166860      -0.00207270      -0.00269961      -0.00278869      -6.25298439
Al       1.35489514       1.32577593       1.60843097       0.00057840       0.00043178       0.00927282      -4.49476943
Al       1.19610359       2.03468040       4.37285889       0.00135850      -0.00313921       0.00220532      -4.03878309
Ni       0.03372529       0.08688814       5.61307648       0.00245686       0.00462897       0.00378601      -6.01045392
Al       1.64836618       1.41004510       6.94341225      -0.00678488      -0.00351105       0.00358752      -4.19015831
Ni       0.16325895      -0.03927327       8.19566724      -0.00876125      -0.00088173      -0.00696995      -6.06871943
Al       1.46803532       1.47111704       9.65082704      -0.00790130       0.00187452      -0.00275720      -4.53505917
Ni      -0.08730991       2.77224974       0.04091012       0.00496929       0.01515815       0.00454241      -6.12022196
Al       1.15066246       4.24794592       1.49765940      -0.01028546       0.00011561      -0.00055871      -4.14326678
Al       1.83395378       4.93920765       4.00811166       0.00384567      -0.00533556      -0.00610766      -4.15590098
Al       1.53961031       4.26542212       6.73392063      -0.00042519       0.00062394      -0.00837185      -4.25644545
Al       1.32221622       4.27811216       9.70744437       0.00195028       0.00008917      -0.00029177      -4.36203677
Al       1.42950298       6.93979866       1.83996562      -0.00096649      -0.00619987       0.00198397      -3.74104318
Al       1.42699472       7.63460515       4.63099355       0.01305295      -0.00069963      -0.00420501      -3.87880528
Ni       0.07858553       5.75165879       5.50667720       0.00687011       0.00426825       0.00033356      -5.91132685
Al       1.10330855       6.97464598       7.39184690       0.00788069       0.00102187      -0.00591139      -4.00780263
Al       1.84522799       6.97171835      10.14770765      -0.01316334       0.00349408      -0.00442429      -4.13179657
Ni       0.04067825       8.24216749       0.07600178      -0.00264550      -0.00218399       0.00145847      -5.97523505
Al       1.46090555       9.62873092       1.46912266       0.00404561       0.00192876      -0.00005915      -4.10244460
Al       1.53972240      10.36304071       4.02587506       0.00366271      -0.00458972      -0.00581983      -3.81914360
Al       1.52326162       9.61593241       6.77480095       0.00103792      -0.00009155       0.00135022      -4.02209005
Al       1.57619390       9.68343999       9.63839847       0.00233081      -0.00012275       0.00464532      -4.23938452
Ni       2.76898433       0.00187270       0.04756658       0.00179573       0.00736446       0.00377203      -6.13113076
Al       4.21360808       1.49811911       1.48012596      -0.00311958       0.00091244       0.00691212      -4.49944310
Al       3.91202370       1.26400340       4.23316095      -0.00173763       0.00820953       0.00254370      -4.22738260
Al       4.36902298       1.62982726       6.95987069       0.01700267      -0.00437612      -0.00069222      -4.19757610
Al       4.21523153       1.50258916       9.71843849       0.00204529      -0.00577403      -0.00341936      -4.47197966
Ni       2.62590891       2.81781923       0.17426289       0.00383710      -0.00255302      -0.00321873      -6.15114474
Al       4.04109733       4.44176527       1.51686693       0.00273015       0.00281557      -0.01108527      -4.30228447
Ni       2.78288636       2.95537591       2.84073621      -0.00275132      -0.00668420       0.00248396      -5.88929790
Al       4.50417588       4.02437656       4.27549620       0.00366118      -0.00745938      -0.00667717      -3.69504894
Al       4.41898858       4.42657852       6.97455762       0.00649473       0.01191426      -0.00129970      -3.93083569
Ni       2.89535657       3.01883679       8.29934162       0.00373234       0.00422792       0.00519802      -5.99393156
Al       4.20034331       4.27477141       9.90740675       0.00133783       0.00199577      -0.00054202      -4.39818722
Al       4.17699296       7.15679886       1.24112494      -0.00393623      -0.00268943       0.00015858      -4.00168245
Al       4.06271686       6.78001171       4.04702494       0.00185553      -0.00214432      -0.01116161      -4.00409812
Al       3.77347989       7.14503814       6.74068633       0.00270924       0.00496823      -0.00714774      -4.15012488
Ni       2.84201774       5.61919321       8.36258134       0.00113259      -0.00194462       0.00148783      -5.90589179
Al       4.52996168       6.99032754       9.48104219      -0.00304828       0.01132194      -0.00159661      -4.01901708
Al       4.12515136       9.79349150       1.57495967       0.00236354      -0.01050883       0.00002396      -4.31013398
Al       4.05420090       9.67249588       4.34379983      -0.00046595       0.00095756      -0.00377148      -4.28885338
Al       4.18622206       9.79355468       7.11931368      -0.00104707      -0.00659663      -0.00180402      -4.05165321
Al       4.25059620       9.65687856       9.83663959      -0.00126719      -0.00655580      -0.00465527      -4.06154247
Ni       5.51239806      -0.02543705      -0.00411647      -0.00361792       0.00410474      -0.00323165      -6.24692617
Al       6.97779671       1.32696986       1.51219025      -0.00055935       0.00626410       0.00405969      -4.30573969
Ni       5.54138776      -0.03769632       2.92528357      -0.00298542      -0.00411861       0.00211731      -6.11442952
Al       6.88044853       1.51968252       4.23143874       0.00888986      -0.00464663       0.00176941      -4.35072759
Ni       5.58506528      -0.01140123       5.62081481       0.00241169       0.00393339       0.00441264      -6.17808732
Al       7.10676460       1.39596557       7.04047870      -0.00974571      -0.00732754      -0.00039498      -4.29568836
Ni       5.63821084       0.01370037       8.38014948       0.00333685       0.00095713      -0.00225294      -6.07373630
Al       7.05884350       1.44412087       9.74357704      -0.00337576       0.00546159      -0.00066874      -4.31745729
Al       6.85451809       4.07149983       1.38582069      -0.00269866       0.00521138      -0.00330673      -3.96050630
Al       7.23235520       4.22619367       3.99971222       0.00474743      -0.00308061       0.00225434      -3.96474512
Al       7.04636416       4.10580358       6.96738357       0.00356982      -0.00564949       0.00461515      -4.11839465
Al       7.03643503       4.19407716       9.73791348      -0.00348816      -0.00114054       0.00536393      -4.13922447
Ni       5.57923425       5.59221454       0.06951252      -0.00316821       0.00106105       0.00273381      -5.76309898
Al       7.02316302       6.91955968       1.53598003       0.00014187       0.00114027      -0.00303696      -4.16294775
Al       7.05220017       6.92673222       4.29770391       0.00408242      -0.00802992      -0.00300478      -4.24328522
Al       6.74678395       6.84220689       7.04646634      -0.00191435      -0.00743390       0.00563653      -4.29082284
Al       7.24221178       6.95762374       9.86237446      -0.00977594       0.00771723       0.00453618      -4.17913021
Al       6.95338642       9.63093525       1.46404326      -0.00038213      -0.00023113       0.00084251      -4.49837516
Ni       5.56441745       8.33737597       2.96835422      -0.00279101      -0.00732351      -0.00437841      -5.99199820
Al       7.13465783       9.75543483       4.24940350       0.01107592       0.00267632       0.00062369      -4.45391549
Ni       5.54005537       8.30922231       5.58532262      -0.00453367      -0.00403607       0.00760907      -5.96095357
Al       7.06325653       9.66236670       7.00611918       0.00518786       0.00221682      -0.00213379      -4.21950588
Al       7.09722036       9.68534091       9.73913941      -0.00439329       0.00638880      -0.00467002      -4.33965905
Ni       8.35972220      -0.10490090       0.07436953      -0.00561387      -0.00179253       0.00182874      -6.25675515
Al       9.78637635       1.25892320       1.50236278      -0.00387827       0.00683259       0.01324558      -4.20715752
Al       9.80947933       1.41613467       4.09254884      -0.00276384      -0.00319899      -0.01475450      -4.09473379
Ni       8.47860611       0.09410511       5.55828792      -0.00248811      -0.00655630      -0.00726021      -6.15043216
Al       9.88082965       1.56077358       7.05235645       0.01349790      -0.00825443       0.01009656      -4.31732520
Al       9.86693390       1.36996213       9.70601353       0.00160201      -0.00139679      -0.01327807      -4.42822676
Ni       8.41441911       2.67989318       0.07832929      -0.00829143       0.00705714       0.00888519      -6.00993986
Al       9.58597748       4.09365375       1.65017549       0.00219904      -0.00623738       0.00311370      -3.93974389
Al      10.14420234       4.12703382       4.25617327      -0.00181480      -0.00274772       0.00554583      -4.17775615
Ni       8.46542211       2.82356729       5.53839025      -0.00168558       0.00448992       0.00098490      -6.08521442
Al       9.97283925       4.22929915       7.05227316       0.00214126       0.00446070       0.00266397      -4.22639767
Al       9.76936747       4.24734954       9.79872621       0.00235867       0.01477548       0.01066470      -4.22915492
Al       9.82824901       6.73477858       1.39901011      -0.00179915      -0.00469248       0.01145032      -3.91726087
Al       9.83897048       6.99662461       4.05471912      -0.00725422      -0.00561967      -0.00325535      -3.94982126
Ni       8.53619288       5.50276336       5.59747066      -0.00432655      -0.00321724       0.00091428      -6.07654995
Al       9.65424571       7.18434789       6.88760187      -0.00865463       0.00277647      -0.00337125      -4.13704290
Ni       8.44256586       5.62691106       8.28723820       0.00377937      -0.00340276      -0.00840110      -5.92484265
Al      10.05444800       6.98827639       9.60946011      -0.00104371       0.00296101      -0.00414061      -4.23792196
Ni       8.54511133       8.34164291       0.10710140      -0.00486493       0.00036817       0.00086290      -6.00347717
Al       9.83284892       9.67468570       1.63516261       0.00018726       0.00337642       0.00663642      -4.25230810
Al       9.95557359       9.70011703       4.29826239       0.00203535      -0.00052826       0.00067714      -3.94477188
Al       9.77441346       9.80509676       7.08681918      -0.00013695      -0.00362030       0.01101872      -4.08304107
Al       9.93943061       9.75713057       9.75602229       0.00244268       0.00847033      -0.00403224      -4.42248893
