112
Lattice="11.218526713642163 0.025762236541482852 6.216061949335588e-06 0.025739806689766376 11.226493400692418 -0.03138435530475666 3.885119310487442e-06 -0.03142389489161523 11.241802496677156" Properties=species:S:1:pos:R:3:forces:R:3:energies:R:1 energy=-604.0445299490787 stress="-6.021591186380986e-06 0.00026237303639515744 0.00012582191898379472 0.00026237303639515744 -0.0007261564360548729 0.00027925726265405523 0.00012582191898379472 0.00027925726265405523 0.0007374623486382664" free_energy=-604.0445299490787 pbc="T T T"
Ni       0.49499129      -0.31306531       0.35134615       0.00293140      -0.00369942      -0.00795841      -5.82890690
Ni      -0.03190512       0.04504294       2.75637071      -0.00380489       0.00948677       0.01514996      -5.67418709
Al       1.64031104       1.20592463       4.00291413      -0.00255797      -0.00335518       0.00017390      -4.69911847
Ni       0.08371866      -0.04981618       5.51237098       0.00103929       0.00141422      -0.00697604      -5.84143111
Al       1.45285483       1.36372427       7.09397131       0.00148476      -0.00725462       0.00010295      -4.68278559
Ni      -1.14542501       1.14444206       9.87251759       0.00702578      -0.00114235       0.00177897      -5.77302035
Al       1.28393669       1.24370352       9.87657994      -0.01078871      -0.00311551      -0.00367836      -4.61500443
Ni       0.22081052       2.94781497      -0.08294483       0.01071821      -0.00007723       0.00026050      -5.90031479
Al       1.54227473       4.35079197       1.30347960      -0.00710165      -0.00226977      -0.00297131      -4.65552716
Ni       0.10325580       2.75182355       2.69344288      -0.00423475      -0.00107551       0.00242079      -6.16988841
Al       1.39125493       4.15378900       4.25308593       0.00296149       0.00014264       0.00075316      -4.73758795
Ni       0.02931560       2.64457702       5.67056050       0.00016488       0.00481085      -0.00630300      -6.29584899
Al       1.48615214       4.12419359       7.01550111       0.00237197      -0.00640837      -0.01265085      -4.74762316
Ni       0.11704121       2.83373113       8.48662978       0.00085520       0.00098019      -0.00336135      -6.11207312
Al       1.76141332       4.44858947       9.79971139      -0.00823835      -0.00284710       0.00412312      -4.70252270
Ni      -0.02870266       5.57956091      -0.11349204       0.00115849       0.00288451      -0.00062191      -5.95173515
Ni      -0.00165750       5.42491255       2.79272274      -0.00514297      -0.00145480       0.00548790      -5.81802055
Al       1.20487421       7.20420879       3.95956775      -0.00249159      -0.00035644       0.00329229      -4.84980920
Ni       0.08801247       5.69779668       5.65760806      -0.00535994       0.00541283      -0.00216912      -5.89799120
Ni      -0.00059027       5.51396473       8.43969139      -0.00946540       0.00430165      -0.00369801      -5.95481448
Ni       0.09899679       8.36382749      -0.18953913       0.00463631      -0.00264432       0.00229327      -5.85149975
Ni       0.56962432       8.96547179       2.20926981       0.00542153      -0.00644545      -0.00005952      -5.69791914
Ni       0.05870734       8.37064239       5.74576105      -0.00535180       0.00126341       0.00073573      -5.17410804
Al       1.27134197       9.86448870       7.08613411       0.00253083      -0.00117518      -0.00518789      -4.61235354
Ni       0.37529627       8.03949989       8.42195223      -0.01538906      -0.00571484       0.00505824      -5.81199608
Al       1.43184420       9.78304543       9.71794140      -0.00425831       0.01139326       0.00675746      -4.56755883
Ni       2.96222169       0.07219526      -0.18648918      -0.00204783      -0.00024179      -0.00490505      -5.82238713
Al       4.07149942       1.31025992       1.53174494       0.00855909      -0.00261661       0.00682744      -4.52495462
Ni       2.34707274      -0.42395560       2.22089380       0.00665948       0.00208910       0.00336473      -5.57606431
Ni       2.76396059      -0.05862528       5.73452362       0.00431196      -0.01109026      -0.00281123      -5.77095268
Al       4.23832981       1.38079292       6.99450053       0.00728708      -0.00388613      -0.00832430      -4.47816210
Ni       2.91800107      -0.01105104       8.47262677       0.00548868      -0.00024052      -0.00769342      -6.22722398
Ni       2.84886253       2.70312825      -0.05944076      -0.00309581      -0.00066119       0.00003625      -5.76378120
Al       4.24986653       4.20581074       1.22429912      -0.00695684      -0.00390449       0.00451234      -4.63317099
Ni       2.82726548       2.92311431       2.75776344       0.00834453      -0.00419073      -0.00147145      -5.79821546
Al       4.24824338       4.19004189       4.25607774      -0.00151064      -0.00038987       0.00138225      -4.67328464
Ni       2.86350587       2.71828439       5.56023932      -0.00375904       0.00950023       0.00250336      -6.09020764
Al       4.18663299       4.32163616       7.29617530      -0.00472812      -0.00659619      -0.00561410      -4.76514285
Ni       2.93439015       2.62763850       8.62695302      -0.00157156      -0.00299768      -0.00095764      -5.86878289
Ni       1.45111444       6.86731050       1.36517059       0.00616715       0.00623786       0.00470912      -5.67706474
Al       4.05445673       6.93723933       1.27342271      -0.00375248      -0.00000342       0.00436195      -4.77921404
Ni       2.86734647       5.58031383       2.89818473       0.00289499       0.00493791       0.00143178      -6.15664228
Al       4.21979961       7.06120858       4.21761514      -0.00399451       0.00677419      -0.00489535      -4.75017409
Ni       2.75605163       5.67940259       5.58389614      -0.01070362      -0.00022832       0.00090734      -6.10893137
Al       4.27724800       7.04287751       6.95153477       0.00369665       0.00088048       0.00866828      -4.51484264
Ni       2.35163043       6.08886271       8.04498195      -0.00610055       0.00664939      -0.00068656      -5.68705908
Al       3.91740193       6.84893333       9.78609097       0.00043985      -0.00082288       0.00234484      -4.67398146
Ni       2.64353890       8.64172439       0.14854584      -0.00243895       0.00283736       0.00460383      -5.87004859
Al       4.36531802       9.82353356       1.26759492       0.00188914       0.00672874       0.00191505      -4.79288022
Ni       2.91447672       8.39496875       2.71835022       0.00395141       0.00033458      -0.00699181      -5.74903853
Al       4.02900646      10.01026682       4.03372048      -0.00232972      -0.00106198       0.00144344      -4.77007747
Ni       2.70757164       8.42546108       5.60357202       0.00616742      -0.00868204       0.00251990      -5.91941356
Al       4.29906708       9.81177527       6.99469242       0.00049474      -0.00154758       0.00301106      -4.81751647
Ni       2.84137476       8.47499086       8.31882733       0.00798741      -0.00853140       0.00129588      -5.92834992
Al       4.27094227       9.72045290       9.82734825      -0.00218698       0.01118824      -0.00427055      -4.76449532
Ni       5.67401972       0.18203838      -0.07656470       0.00052538       0.00158635      -0.00075648      -5.70124046
Ni       5.72667134       0.03906161       2.77308603       0.00012318       0.00353703      -0.00041170      -5.82484556
Al       7.06532698       1.38779367       4.22526632      -0.00163937      -0.00763669       0.00378818      -4.61167873
Ni       5.58256144      -0.03589096       5.52211267       0.00364925       0.00185382       0.00557611      -6.12079154
Al       7.00693327       1.33239752       6.99661264      -0.00610709       0.00434038      -0.00924669      -4.70198574
Ni       5.59783769       0.06185239       8.54258968      -0.00073862      -0.00442710      -0.00192905      -5.99489716
Ni       5.51085911       2.67808961      -0.11955479      -0.00118470      -0.00093190      -0.00135598      -5.46255238
Al       6.99420597       4.10669284       1.31079098       0.00437145       0.00336908       0.01192180      -4.71723436
Ni       5.60847477       2.74946484       2.78947077      -0.00907104      -0.00128687       0.00156505      -5.85390482
Al       7.08647198       4.16341969       4.18549393       0.00224409       0.00656163       0.00221747      -4.74189025
Ni       5.59752046       2.79899557       5.61934806       0.00502642      -0.00223218       0.00651911      -6.11111389
Al       7.00443467       4.14699487       7.07163583      -0.00410701      -0.00641436      -0.00095281      -4.73679272
Ni       5.56818945       2.65304413       8.54085194      -0.00189574       0.00359681       0.00289849      -5.61933777
Al       6.94635795       4.12908201       9.81530163       0.00286574       0.00204450      -0.00134396      -4.51940658
Ni       5.66453920       5.67161591      -0.11333196       0.00406935       0.00101637      -0.00108290      -5.77594874
Al       7.03030722       6.97926884       1.39791661       0.00385641      -0.00064716      -0.00393874      -4.61465056
Ni       5.59666046       5.58657363       2.77009987       0.00361140       0.00314049      -0.00206007      -6.35314034
Al       7.11333358       7.00325971       4.23126569      -0.00059004      -0.00963254      -0.00048861      -4.61308716
Ni       5.68325834       5.59828849       5.65138069       0.00062286       0.00136724       0.00759463      -6.09942119
Ni       5.83941737       5.82928695       8.44901359      -0.00203405      -0.00395139       0.00616909      -5.72980499
Ni       5.66779739       8.20215465      -0.15960535      -0.00503268       0.00256953      -0.00064437      -6.16461468
Al       7.02178095       9.83467655       1.29728667      -0.00629930      -0.00180455       0.00497641      -4.73405079
Ni       5.63196392       8.42182119       2.79707502       0.00186651      -0.00310731       0.00105916      -6.33908566
Al       7.13446371       9.84492411       4.16036174      -0.00481032      -0.00198331       0.00049042      -4.70116378
Ni       5.68071597       8.47890099       5.54599506       0.00335052       0.00358068       0.00205867      -6.11368500
Al       7.15501583       9.78946095       7.05839026       0.00169100      -0.00154325       0.00066169      -4.74973345
Ni       5.63339470       8.33382229       8.42076897       0.00190264      -0.00760904       0.00682166      -5.92477907
Al       6.99773322       9.76187141       9.83470954       0.00358622       0.00626426      -0.00470126      -4.49485952
Ni       8.32640780       0.03231316      -0.06058246       0.00226894       0.00230985      -0.00111017      -5.75596961
Al      10.00406024       1.37331703       1.12790796       0.00194228      -0.00429207       0.00604936      -4.72115373
Ni       8.46902905       0.02208060       2.70017309       0.00518472       0.00156451      -0.00091844      -6.18110132
Al       9.87682408       1.38381504       4.15046642       0.01276832      -0.00164080      -0.00877519      -4.68702264
Ni       8.59601821      -0.07487145       5.63928945       0.00145602      -0.00386720      -0.00023092      -6.07507514
Al       9.98760799       1.09743825       7.31480406       0.00598501       0.00515104      -0.00502532      -4.78326404
Ni       8.19660199       0.16734532       8.66951909      -0.00518974      -0.01152857       0.00025877      -5.81407452
Ni       8.24977633       2.56567236      -0.11487080      -0.00120213       0.00229682       0.00451581      -5.75127624
Al       9.78827105       4.15218159       1.28088987      -0.00360916       0.00256814       0.00587290      -4.80874068
Ni       8.43477289       2.70229689       2.68674817      -0.00304526      -0.00263389      -0.00337346      -6.10402286
Al       9.85008905       4.18566135       4.23763120       0.00109395       0.00039152      -0.00501200      -4.72253390
Ni       8.52202927       2.70787635       5.69037481      -0.00705663       0.00212911       0.00335945      -6.29922142
Al       9.85281855       4.17450136       7.05181742      -0.00890426      -0.00024495      -0.00417147      -4.80631664
Ni       8.42227735       2.66310778       8.46649297       0.00430381       0.00901718      -0.00748087      -6.03438141
Al       9.76786149       4.05447454       9.84453924      -0.00000057       0.00455406      -0.00966815      -4.88341761
Ni       8.40317793       5.67547112      -0.07205671      -0.00247859       0.00114091      -0.00935568      -6.14390659
Al      10.10165294       7.11812855       1.50019267       0.00337593      -0.00130793      -0.00203423      -4.86634677
Ni       8.50336802       5.60525802       2.75319242      -0.00068771       0.00033356      -0.00116273      -6.09092706
Ni       8.43949282       5.60917541       5.66476847      -0.00508921      -0.00198271      -0.00582044      -5.83673155
Al       9.80827262       7.09430326       7.06109941       0.00644516       0.00870060       0.00715930      -4.54197567
Ni       8.39772081       5.58161133       8.44100650       0.00708939       0.00395172      -0.00132851      -5.97303017
Al       9.87294518       6.99888908       9.77567770       0.00395153      -0.01206047      -0.00264853      -4.50174689
Ni       8.42855793       8.33653007      -0.08491567       0.00047088      -0.00738468       0.00400016      -6.14135070
Al       9.81361102       9.82419808       1.19216965      -0.00648306      -0.00047901       0.00088167      -4.81942546
Ni       8.42846352       8.40858026       2.72481126       0.00457050       0.00739257      -0.00544501      -6.06183736
Al      10.10125711       9.62461894       4.04083829       0.00328251      -0.00027123      -0.00778153      -4.79361149
Ni       8.55254280       8.44685147       5.55010235       0.00534430       0.00406048      -0.00074107      -5.53320737
Ni       8.14226599       8.11141178       8.52302274      -0.00439297       0.00004864       0.00588796      -5.68332896
Al       9.87440734       9.82002267       9.56388367       0.00047595       0.00694305       0.00872320      -4.92812878
