128
Lattice="12.05865610414793 -0.1339134395758876 -0.019328406205670372 -0.13258529011267775 12.765107476734887 0.5095413228332218 -0.015670081853871348 0.5184132351281806 12.376674728620312" Properties=species:S:1:pos:R:3:forces:R:3:energies:R:1 energy=-597.3347636800713 stress="-0.0006228506196051071 0.0007508047478680352 2.9932326127801377e-05 0.0007508047478680352 0.0004647461281094562 0.0001599857462239596 2.9932326127801377e-05 0.0001599857462239596 -0.0007452761317438053" free_energy=-597.3347636800713 pbc="T T T"
Al       0.18068167      -0.10014318      -0.61851495      -0.00126602      -0.00143791       0.00014857      -3.98604500
Al       1.07674724       1.98342786       1.81877782      -0.00395100      -0.00124722       0.00610377      -4.30494974
Al      -0.16970650       0.45420345       3.66533966      -0.00361882       0.00239820      -0.00395098      -3.98475930
Al       2.15331654       1.99840785       4.65867939       0.00459635      -0.00200085       0.00664997      -4.16640062
Al       0.14080006       0.12029868       6.34429088      -0.00001347      -0.00709854       0.00400026      -3.81571489
Al       1.51624002       2.25747304       7.23835020       0.00302500       0.00006188       0.00033761      -4.15351645
Al       0.67555625       0.49222029       9.05412843       0.00474671      -0.00491002      -0.00727109      -4.09432639
Al       1.87033951       2.62990990      11.05706307       0.00396526      -0.00218031       0.00228562      -4.29852265
Al      -0.67921850       3.97673048       1.07439080       0.00129943      -0.00384065      -0.00627253      -4.04501263
Al       1.41007671       4.47603873       3.21049710       0.01141079      -0.00404733       0.00044805      -4.38534606
Ni      -0.81766524       2.82760626       3.23995999       0.00104795      -0.00937410       0.00299138      -6.00567994
Al       2.91175107       5.01848770       6.72296949      -0.00678072       0.00243268      -0.00375646      -4.42913475
Al       0.00319495       3.45275836       5.41247944       0.00386289      -0.00291564       0.00319395      -3.87257300
Al       0.38243036       4.65985539       7.67709483       0.00918108       0.00458261       0.00044484      -3.78682663
Ni       0.34408734       2.96309302       9.30337861       0.00191824       0.00491637      -0.00371253      -5.79749705
Al       1.63024684       5.18171790      10.06330821       0.00340875       0.00629988      -0.00330892      -4.31825061
Al       0.70959016       6.34912288       0.35997301      -0.00268646      -0.00516198       0.00229360      -4.27782704
Al       2.71409582       7.35605133       2.28283170       0.00461548       0.00985868      -0.01166229      -4.33707857
Ni       0.52688756       6.93253374       3.25737691      -0.01064715       0.00042426       0.00658292      -6.04252689
Al       2.11391703       8.56358440       4.68853556       0.00006167       0.00117613      -0.00794570      -4.35830209
Al       0.72214400       6.24665919       5.54313832       0.00569486       0.00570578       0.00437251      -4.06758476
Al       1.42954215       7.13499690       7.99039552      -0.00111646      -0.00135812      -0.00102859      -4.07487743
Ni      -0.03438637       6.94477615      10.21829451      -0.01071952       0.00190821       0.00067647      -5.98880159
Al       2.15288726       7.87698346      10.52194444      -0.00832023       0.00302402      -0.00224217      -4.25876686
Ni      -0.93340944      10.47935191       0.50649681       0.00120077       0.00685680      -0.00296208      -5.99306998
Al       0.89828006      11.47972572       2.10468284       0.00132613       0.00844906      -0.00365888      -4.24981581
Al       0.36357461       8.93481927       1.89474203       0.00679391       0.00353734      -0.00798699      -4.17644925
Al       1.32308637      11.16854068       5.10555150       0.00096697       0.00106886       0.00419100      -3.94962692
Al      -0.98108536      10.34051904       6.42985638       0.00184530       0.00680208       0.00727315      -4.15500748
Al       1.69446724      10.82071932       8.26872439       0.00537141       0.00658564       0.00099549      -4.21327348
Ni      -0.60787063      11.29643728       8.64220399      -0.00107308       0.00130724      -0.00411011      -5.97545690
Al       0.68437918      10.72297894      10.90679385       0.00839008       0.00568338      -0.00462795      -4.19940024
Ni       2.25593337       0.48155165       0.39766710      -0.00244024      -0.00501412       0.00525988      -5.70770761
Al       4.11738905       2.02248229       0.71876807      -0.00122075       0.00436918      -0.00376265      -4.25690840
Ni       2.26309799       0.19442957       3.03270995       0.00259021       0.00133272       0.00361877      -6.04875438
Al       4.51830542       0.98805069       3.55805959       0.00203115      -0.00268175       0.00396688      -4.24917722
Al       3.38473618      -0.06754261       5.98733174       0.00396673      -0.00153850      -0.00744983      -4.23867629
Al       3.68336050       1.16543719       8.53297523      -0.00639377       0.00297099      -0.00572812      -4.26393385
Al       2.89320770      -0.18973009      10.76861370      -0.00142551       0.00461581       0.00342690      -4.21169288
Al       4.64273414       2.59259173      10.47479830       0.00886675       0.00433460       0.00442156      -4.21801512
Al       2.28065268       4.13154013       0.53375961       0.00634697       0.00237943       0.00661765      -3.91871746
Al       4.12250751       5.14794225       2.18440512       0.00602194      -0.00136863       0.00006416      -4.25109246
Ni       3.22877945       2.93735429       2.65290733       0.00582893       0.00377523       0.00535254      -6.09274171
Al       4.10836172       4.01633405       4.64583758      -0.00406445       0.00312663      -0.00146744      -4.16827495
Ni       3.80427245       2.59404623       6.56958167      -0.00178568      -0.00259380       0.00737231      -5.99455655
Al       5.00507963       4.11962891       8.17158190      -0.00767811      -0.00762174      -0.00151393      -4.28912041
Ni       2.83530311       3.48139515       8.86604762      -0.00525145      -0.00292161       0.00460996      -6.03002694
Al       4.20000930       5.25681743      10.95734453      -0.00586997      -0.00193822      -0.00205227      -4.20535938
Ni       3.27130121       6.39045015       0.14445161       0.00072241       0.00248181       0.00386822      -6.01735828
Al       5.00053635       9.28986501       2.26242521       0.00075913       0.00483215      -0.00308281      -4.08145458
Ni       2.82650494       6.10582248       4.32562813       0.00412443      -0.00554602       0.00177514      -5.96947219
Al       5.07201133       6.94946803       4.16350165       0.00256552       0.00519813       0.00764402      -4.12220059
Ni       3.39412165       7.46514363       6.40314934      -0.00630242      -0.00378919       0.00973062      -5.85176102
Al       3.75073021       8.69038053       8.41387786      -0.00655604       0.00393012      -0.00104952      -4.36578726
Ni       3.60539676       6.23210564       8.71144925       0.00294500      -0.00155585       0.00251046      -6.11454865
Al       4.76889783       8.53721770      11.02005237      -0.00142248      -0.00761443      -0.00416534      -4.14956213
Al       2.77881355       9.05883183       0.27869926       0.00080795      -0.00700034       0.00957415      -4.22552751
Al       3.78224678      11.82549123       1.83731598      -0.00740451      -0.00264544       0.00364322      -4.45626356
Ni       2.59736473       9.77390507       2.55683559      -0.00109152       0.00585324      -0.00091023      -5.89294684
Al       3.89339315      10.92185151       4.30729712      -0.00323337      -0.00150614      -0.00365368      -4.34748160
Ni       3.17129006      10.15969398       6.47031704       0.00512329       0.00019599      -0.00257621      -5.92766395
Al       4.42490640      11.29170847       8.61865486      -0.00075171      -0.00111369       0.00622521      -4.34388739
Ni       3.00542533      10.19769602      10.37520695      -0.00118387       0.00107883      -0.00612889      -6.00616399
Al       4.92958338      11.13324783      11.53359923      -0.00008430       0.00714201      -0.00047915      -4.30979664
Ni       5.07213277       0.14375473      -0.43128091       0.00064990       0.00214482       0.00141503      -5.97213284
Al       6.74805813       1.10407888       1.17929615      -0.00376796       0.00545549       0.00304233      -4.12516526
Ni       5.96941380      -0.79671773       2.81505503      -0.00559794      -0.00085800      -0.00059060      -6.01212663
Al       7.42645065       1.04830235       3.72255652      -0.00654435       0.00289635       0.00060296      -4.25133318
Ni       5.47651290       0.56071350       7.07546301       0.00254364      -0.00500895      -0.00490251      -5.85745883
Al       7.39531230       1.89638371       8.17792455      -0.00875973      -0.00698172      -0.00239719      -4.54889002
Ni       5.83648957       0.24078962       9.57232576      -0.00549765      -0.00112802      -0.00024809      -6.03234554
Al       7.12360397       1.84462886      10.96377192       0.00595078      -0.00563243       0.00161345      -4.33058576
Al       6.43651010       3.90619302       0.23891139      -0.00720394       0.00069343       0.00189368      -4.02729828
Al       8.58291788       5.17535777       1.23935849       0.00904485      -0.00439443       0.00006971      -4.13272012
Al       5.88545957       3.12945063       2.76133850       0.00008603       0.00474284       0.00066550      -3.98303579
Al       6.90880093       5.00626968       4.94524624       0.01209297       0.00093144       0.00218773      -4.17958044
Al       6.09081356       2.44238727       5.73544126      -0.00572541       0.00146699       0.00100006      -4.37748309
Al       7.64880439       4.62202167       8.00234524       0.00176179       0.00237268      -0.00620118      -4.19414703
Ni       6.45121930       4.24607800      10.20624653      -0.00736837      -0.00612525      -0.00245540      -6.03709323
Al       8.43038623       5.63228870      10.60630049       0.00546148       0.00860287      -0.00061745      -4.43992177
Al       5.68014770       6.67927794       0.64959513       0.00365783      -0.00696441      -0.00042848      -4.14884966
Al       7.43392365       7.74313109       2.35048105       0.00432174       0.00114123      -0.00065859      -4.17799211
Ni       6.56056064       5.41695580       2.47962000      -0.00169043      -0.00265758      -0.00741858      -5.99110706
Al       7.89757986       7.70315339       5.10188236       0.00358748       0.00778978       0.00570415      -4.23768977
Al       5.59252232       6.55472798       6.87829544      -0.00008764       0.00428799       0.00005139      -3.97054046
Al       8.03580676       7.31318398       8.04396918      -0.00087695       0.00642413      -0.00494544      -4.07328868
Al       5.96537340       6.58300343       9.50421871       0.00020887      -0.00325202       0.00388478      -4.00084551
Al       7.66115718       8.28981922      10.93872298      -0.00635030      -0.00356332      -0.00868074      -4.14047148
Ni       6.53969709       8.99093286       0.26196370       0.00165185       0.00419257       0.00937313      -6.02604829
Al       6.60647334      11.25305577       1.13771585       0.00093524      -0.01190519      -0.00185104      -4.41155041
Al       7.29604070      10.14086292       3.73910397       0.00218797      -0.00496525       0.00301142      -4.23519989
Al       6.01424396      11.89182516       5.78747080      -0.00731804       0.00682313       0.00521129      -4.30809265
Al       5.33095813       9.11345216       6.01190505      -0.00304726      -0.00058764       0.00276933      -4.01683200
Al       7.15486736      11.92530772       8.39564803      -0.00005078       0.00782255      -0.00416277      -4.29016367
Al       6.38938578       9.31986883       8.72080076      -0.00383571      -0.00731127       0.00527692      -3.68984410
Al       7.47976413      11.04378049      10.89613857      -0.00062075       0.00096608      -0.00404738      -4.19938554
Al       9.41157042      -0.49859063      -0.07518479       0.00346147      -0.00506790      -0.00555479      -4.15914836
Al       9.73620868       1.39877719       1.96149502       0.00424148       0.00555288       0.00358362      -4.05092307
Ni       8.38139764      -0.54337008       2.12752489       0.01308667      -0.00427717       0.00636048      -5.90347285
Al      10.00156667       1.72253473       5.31372812       0.00136008      -0.00526281       0.00086423      -4.14743031
Ni       7.93170597       0.68240351       6.05840252      -0.00304239      -0.00236539      -0.00051670      -6.00027978
Al      10.14793791       3.18736066       7.78050580      -0.00583110      -0.00468287       0.00136773      -4.19045866
Ni       8.56122625       0.39081194       9.78497597      -0.00255988      -0.00376598      -0.00344561      -5.95414590
Al      10.49817093       1.72282774      10.22728043       0.00070697       0.00081083       0.00510283      -4.19535806
Al       9.10050769       2.94169934      -0.20039303      -0.00210974       0.00361788       0.00001680      -3.86021416
Al      10.96369344       5.07397297       3.61566828       0.00009717       0.01273947      -0.00472493      -4.20675135
Al       8.78892075       3.54865299       3.58718220      -0.01082262      -0.00199592       0.00027652      -4.15131344
Al       9.45404725       5.52559129       5.91626103       0.00552499       0.00206852       0.00656775      -4.12952013
Ni       8.30496197       3.28847276       6.10636108      -0.00283511       0.00000571      -0.00078396      -5.91044663
Al      10.69548285       6.38437531       8.09003922      -0.00035805       0.00190305      -0.00005146      -4.13558289
Ni       8.73694016       3.27733605       9.79272786       0.00905769      -0.00747992       0.00376074      -5.92292752
Al      10.96234978       4.52721034      10.31227209      -0.00477052      -0.00474876       0.00571374      -4.42054056
Ni      10.40923791       5.61601391      -0.30602580      -0.00018089       0.00047595       0.00519553      -5.90771130
Al      10.41304004       6.99779968       1.80063000       0.00678033      -0.00795206       0.00618960      -4.00448484
Ni       8.76461015       6.03288994       3.53751693       0.00614248       0.00235793      -0.00697657      -6.06641156
Al      10.74231575       7.76856700       4.46793768       0.00643626       0.00051223      -0.00743399      -4.36330879
Ni       9.75397794       8.16214328       6.71259784      -0.00425998       0.00301536      -0.00596669      -5.99472444
Al      11.66491049       8.78731898       8.81072032      -0.00171607       0.00107137      -0.00020321      -4.25992171
Ni       9.67354981       7.57831032       9.91541884       0.00179401      -0.00111189       0.00668805      -5.87283426
Al      10.91998454       8.59717988      11.69740982      -0.00324972      -0.00597846      -0.00648586      -4.35858124
Al       8.90348628       9.40315735       0.74069332      -0.00160612      -0.00112401      -0.00633016      -4.05379716
Al      10.28299666      10.82865498       2.77441826      -0.01023960      -0.00811367       0.00282914      -4.21033794
Ni       9.40159409       9.71389786       4.78138223      -0.00108733      -0.00424202      -0.00848487      -5.60752676
Al       9.18828566      12.03753666       5.05188399       0.00208817       0.00225778      -0.00152103      -4.19126069
Al       7.90107993       9.94662435       6.60093114      -0.00236495      -0.00100296      -0.00434354      -4.02240478
Al       9.68349335      12.83010591       8.16868272      -0.00184710       0.00148015      -0.00463834      -4.19351032
Al       9.21177677       9.78088021       8.90157667      -0.00051372      -0.00054937      -0.00407216      -4.09769288
Al      10.24879340      11.56744750      10.66467058      -0.00425845      -0.00424062      -0.00530373      -4.28346946
