128
Lattice="12.600121523422608 -0.09226306343380311 -0.0731193813454451 -0.09075154119063059 12.674585321179038 0.27116485934872364 -0.07196228964882306 0.26796522699525444 12.372971465234203" Properties=species:S:1:pos:R:3:forces:R:3:energies:R:1 energy=-565.9105456718864 stress="-0.0006448382659636711 -0.0003414043557473424 -0.000869291383145489 -0.0003414043557473424 -0.0004667367030036724 0.001554910491043931 -0.000869291383145489 0.001554910491043931 -0.00043600622650704366" free_energy=-565.9105456718864 pbc="T T T"
Al       0.19956278      -0.63942629      -0.00021099       0.00297869       0.00350386       0.01101629      -3.78800092
Al       1.71864795       1.61275853       1.01322993      -0.00498320      -0.01326110       0.01037207      -4.10136299
Al       0.84126017      -0.43340643       2.59242837      -0.00126403      -0.00704288      -0.01352134      -3.60326742
Al       1.64012687       1.97569434       4.74979463       0.00724986      -0.00673377       0.00203051      -4.16971287
Ni      -0.46739635       0.97847537       6.16891514       0.00080003       0.00073240       0.01506258      -5.95401922
Al       0.80234275       1.44899175       8.14982315      -0.00887093      -0.00279745       0.01130900      -4.44829509
Ni       0.41716989      -0.05058841       9.97544532      -0.00496953       0.02184890       0.00182390      -5.76273231
Al       1.25786635       2.09541063      10.68091552       0.00228865      -0.01644211       0.00195952      -4.37333861
Ni      -0.03836351       3.04445306       0.04997929       0.00629616      -0.00282957      -0.00717715      -5.92364339
Al       1.06466804       4.81068808       1.25393749       0.00391530      -0.00616998       0.00610965      -4.20598408
Ni       0.47488849       2.98385315       2.66026846       0.00862267       0.01343470      -0.00478137      -6.06847246
Al       1.52858601       4.86875537       4.19182618      -0.00416188       0.01207876       0.00307291      -3.92968878
Al       0.03937783       3.51364134       6.37316347      -0.00106890       0.00445916      -0.00234031      -4.03777592
Al       0.89881980       5.54725684       7.95593758       0.00160662       0.00934994      -0.00719999      -4.17442914
Ni      -0.36304172       3.63193582       8.89814184      -0.01407178      -0.00045378       0.00556088      -6.17169399
Al       1.14579657       4.73290314      10.70537247      -0.01474125       0.00906094      -0.00677300      -4.27115934
Al      -0.18466128       6.55624690      -0.32686818      -0.01761782      -0.01517204       0.00004895      -3.82366747
Al       2.07951989       7.36222416       0.92508148       0.00332923       0.00467310       0.01463863      -3.80967099
Al      -0.60984819       6.87824451       2.36899702       0.01794670      -0.00275266       0.00282056      -3.88426009
Al       2.04322490       7.56191388       3.60800129       0.01107219      -0.00471710       0.00819850      -3.90006854
Al       0.41372109       7.03968308       5.68616316      -0.00223487       0.00844798       0.00130609      -3.53397651
Al       0.67774403       8.24453369       8.41943787       0.00084559      -0.00171503      -0.00203745      -3.97546178
Ni      -0.47607538       6.46150037       9.65931599       0.00692619       0.00054577       0.00388374      -6.09729550
Al       1.91090636       7.35550052      10.64003115       0.00570999      -0.00579274      -0.00370919      -3.68467025
Al      -0.81184460       9.07339640       0.66077984       0.00850132      -0.00517517      -0.00602837      -3.70523117
Al       1.54404489      10.02381119       1.46042103       0.01793723       0.00585484       0.00673360      -3.59234109
Al      -0.41566853       9.25485495       3.57537473       0.00202402       0.00102124      -0.00496842      -3.64769492
Al       1.36310124      12.16699547       6.12740712       0.01384015       0.00246598       0.00342482      -4.05390891
Al      -0.28555744       9.64232746       6.26720684      -0.00239283      -0.00207701       0.00098052      -3.87617341
Al       0.93610842      10.93370979       8.66809724       0.00201356       0.00858861      -0.00934597      -4.08071177
Ni      -1.27637394       9.87346457       8.48080371       0.00010806       0.00606235      -0.00574790      -5.99429096
Al       2.13746048      11.40221769      11.10403106      -0.01394970      -0.00745280       0.00221428      -3.97654152
Al       3.81663927       0.59819826      -0.59585168      -0.00233547       0.00844876       0.00310235      -3.91901503
Al       5.56360904       1.41159914       1.84460707       0.01707826       0.00184564       0.00359193      -4.19754127
Al       3.46130860       0.09934992       3.02620044       0.00692741      -0.00063571      -0.00367125      -3.94284828
Al       4.79027423       2.68246976       4.74840894       0.00623019      -0.00179662       0.00102198      -3.99262883
Ni       3.56328354       0.61625573       5.42298673      -0.00249115      -0.01388714      -0.02246829      -5.78290393
Al       3.40929220       1.92747288       7.36322575      -0.00829942       0.01314453       0.01925706      -4.17574539
Ni       2.98469522       0.77285621       9.47662706       0.00256016      -0.00449794      -0.00226405      -6.16901215
Al       4.00556256       3.11539678      10.25202157      -0.01197254       0.01961198      -0.00684505      -4.19174812
Ni       3.99947825       2.63417133       0.51860771      -0.01563339       0.00757866      -0.00950993      -5.75696746
Al       5.31058779       4.34728279       2.12301388       0.00071244       0.00381349      -0.00495697      -4.26574340
Al       2.99057872       3.19622366       2.67068510      -0.00803943      -0.01010789       0.01152637      -4.09886337
Al       4.29006410       5.67755489       4.49755808       0.01633854      -0.00333777      -0.00088355      -4.03382344
Al       2.96732326       4.42412878       6.49943243       0.00086995      -0.01803145      -0.00099942      -3.82857398
Al       5.49861385       3.56737618       7.43289233       0.00063933       0.01673308      -0.00023108      -3.75452265
Ni       2.15803841       3.52664508       8.71914792       0.01665144      -0.01105477      -0.00069168      -6.05247779
Al       6.04123222       5.48172299       9.94578847       0.00954824      -0.00987317      -0.00910228      -4.19157564
Al       3.69738643       5.03680672       0.03332954      -0.00885426       0.01660398      -0.01224551      -4.19171038
Al       4.84493920       7.17872090       1.98603181      -0.00507720      -0.00527580      -0.00875482      -4.22404325
Ni       3.04783724       5.66181014       2.40553010      -0.01147581       0.00007134       0.00489818      -6.02402043
Al       4.27956113       8.49961073       4.82641873       0.01232167      -0.00720401       0.02082056      -3.85079581
Al       3.28240164       7.11332909       6.98578266       0.00119708      -0.00414051       0.00476573      -3.75216471
Al       5.15329900       9.42421846       7.24178333      -0.01227526       0.00232554      -0.01184300      -4.06837537
Al       3.44558743       5.60089631       9.23039518       0.00981338       0.00727355      -0.01339058      -4.03564712
Al       4.73832837       7.44077564      11.18018659      -0.01190132      -0.00817918      -0.00216827      -4.00947240
Al       3.69754727       9.30534215      -0.11416063      -0.00760369       0.00099946      -0.01352348      -3.65784151
Al       4.05069318       9.93536786       2.50812291      -0.00824091       0.00805467      -0.00075363      -3.82718958
Al       1.97056478      10.24078106       4.18033623       0.00144609      -0.00642387       0.00732621      -3.65683104
Al       4.53077367      11.20078715       5.16383467      -0.00008179      -0.00626130      -0.00731868      -4.09423660
Al       2.44004568       9.62362398       6.70727802      -0.00378007      -0.00042052       0.00370129      -3.74593670
Al       3.57266250      11.87348279       7.84320997       0.00670214      -0.00004308       0.01081893      -4.09380802
Al       3.35859447       9.20700910       9.32842680      -0.00958746      -0.00261353       0.00819396      -3.86562762
Al       4.72631373      11.46111592      10.42116272      -0.00389005      -0.00607710      -0.00569477      -3.80508688
Al       5.42691958      -1.18877652       0.43508931       0.00279463      -0.00601942      -0.01033243      -3.80787347
Al       8.37567720       1.65405787       1.34868073      -0.00187777       0.00331876       0.01084311      -4.11751072
Ni       5.74926817      -0.96931936       2.74305835      -0.00451053       0.01039784       0.00422229      -5.86674946
Al       7.36105272       0.56756532       3.79643513      -0.00845902      -0.00148056      -0.00924350      -4.16374339
Al       5.85247567       0.68755684       6.40382344       0.01436915      -0.00643592       0.00116356      -3.90976061
Al       7.99165077       1.55733184       8.09172529       0.00463162       0.00401561       0.00168053      -4.11411734
Al       5.43775917       1.15695164       9.11560923      -0.00580615       0.00313357       0.00516391      -4.07362685
Al       7.92715952       1.70547978      10.90762548      -0.00070700       0.00024313       0.00651703      -4.25780927
Al       6.10174687       3.24769955      -0.36633817       0.00496906       0.00706954      -0.02078539      -4.21058302
Al       8.01327808       4.39439403       1.53418048      -0.00281103       0.00923196      -0.00538190      -4.14799952
Ni       6.89216114       2.95408271       3.29594384       0.00349954      -0.01068166      -0.00299327      -5.94590330
Al       7.75855463       5.32322129       4.31795912      -0.00975004      -0.00116526      -0.01540957      -4.22784441
Al       7.45587642       2.75999915       5.64614016      -0.00414896       0.00636003       0.00361140      -3.83512221
Al       7.93954504       4.36029986       7.92195369      -0.00463386       0.00076415       0.00016379      -4.21073114
Ni       6.61975615       3.21361892       9.63250667       0.00530182       0.00917111       0.00231300      -6.05004313
Al       8.36619730       4.54189769      11.10931483      -0.00363091       0.01104060      -0.00094829      -4.32134362
Ni       6.23274605       5.71993304       0.24473276      -0.00328879       0.00578381      -0.00805435      -6.15610913
Al       7.51664175       6.98192394       2.06984069      -0.00409690      -0.00272821      -0.00585329      -4.10408567
Ni       6.20209375       7.19671690       4.20234132       0.00877967      -0.00689218      -0.00524054      -5.74230736
Al       7.89349281       8.24947779       5.64864487       0.00047910      -0.00415424      -0.00147310      -4.16404032
Al       6.14019699       6.28274706       6.61411936      -0.00984858       0.00745829      -0.02145583      -4.09142947
Al       7.85545658       7.30163260       8.57533704      -0.00734759       0.00432571       0.00207580      -4.28727985
Ni       5.11946004       7.36440758       8.68302237      -0.01022875       0.00510178      -0.00906015      -6.02220772
Al       7.67682761       7.41105724      11.30651405      -0.00706576      -0.00216154      -0.01296487      -3.99897993
Al       6.41346369       9.00632611       0.33099172      -0.01264432       0.01139232       0.00583456      -3.72794176
Al       7.88572629      11.51908556       1.88302092       0.00540795      -0.00977518      -0.00175471      -4.02766882
Al       6.69148485       9.43389139       3.36973982       0.00640573      -0.00488975      -0.00492750      -4.13997023
Al       7.11994806      11.09873166       5.85916817       0.00515340      -0.00796224       0.00730403      -3.85485213
Ni       7.47063518       9.59347240       7.68991691       0.00696232       0.01287701       0.00877545      -5.80911123
Al       6.96457760      11.75510195       8.60132569      -0.00292742      -0.01881208       0.01943747      -3.96469413
Al       6.26738318       9.28728125       9.81108719      -0.00208298      -0.01001602      -0.00775370      -4.10979433
Al       7.34455325      11.58097136      11.35569720      -0.00122877      -0.00472691      -0.00483528      -3.88909178
Al       9.78694381      -0.20517951      -0.29935099      -0.00049722      -0.00170688      -0.00358817      -3.96095784
Al      11.39535779       1.29350895       1.37185435      -0.00372667       0.00298667       0.00400839      -4.35001061
Ni       9.72701232       0.24751828       3.04970983       0.01808367      -0.00190090       0.00914712      -6.25909579
Al      11.54862551       1.70809669       4.00001011      -0.01687819       0.02898235      -0.01935862      -4.16196095
Al       9.51777357       0.48930596       5.59211353       0.01336397      -0.00790696       0.00647810      -4.01148253
Al      10.56731212       2.22527228       7.48455372      -0.00336725      -0.00018729      -0.00430614      -4.16014519
Ni       9.15664455      -0.07822929       9.64761299      -0.00106187      -0.00608776       0.00833907      -6.05415677
Al      11.18643923       1.54907241      10.24360624       0.01627453      -0.01536371      -0.00459110      -4.56858690
Ni       9.98411107       2.38229419      -0.31967665       0.00031844      -0.00940727      -0.00311705      -5.99487037
Al      10.80716927       4.08630329       1.25303826       0.01489396      -0.00592737       0.01256113      -4.35200190
Al       9.23134252       2.83552925       3.57872847       0.00772206      -0.01638791       0.00595364      -4.04773826
Al      11.51589114       4.49930952       3.78671503       0.00691497       0.01605193      -0.00815602      -3.98986590
Al       9.85630858       4.20687831       5.77677182       0.00808301       0.00371847       0.01620229      -3.72915453
Al      10.44741124       5.07464175       8.31375184      -0.00318384       0.00276033      -0.00319579      -4.40606427
Ni       9.42999543       3.05301382       9.44086615      -0.00462230      -0.01255743       0.01072624      -6.11936844
Al      11.03255020       4.42719189      10.81800254       0.00294872       0.01339038       0.00431980      -4.49342886
Al       9.91281798       6.71708784       0.37511091      -0.00439580       0.00585685      -0.00707080      -4.08759815
Al       9.75119729       8.46160537       2.53906043      -0.01045574       0.00752250       0.00600551      -3.81471000
Ni       9.71827284       5.85973311       2.61313044      -0.01818154      -0.01141404       0.00783084      -6.12274384
Al      10.34046307       6.90488199       4.83607672       0.00014829       0.00468760      -0.00750266      -4.01046896
Ni       8.84691954       6.21341219       6.64143729      -0.00222326      -0.00083469       0.00211831      -5.94973540
Al      10.59944146       7.58752980       7.68144933       0.00576853       0.01017024      -0.00817602      -4.21756992
Ni       9.66387903       6.48224940      10.32199383      -0.00969540      -0.00989874       0.01374112      -5.85030397
Al      11.01533185       8.44593679      10.39168095      -0.00010070       0.02064510       0.00386068      -4.16370529
Al       9.15334745       9.51083590       0.07329754       0.00095970       0.00505980       0.00092310      -3.69249999
Al      10.79651462      11.11846614       2.03546183       0.00425534       0.00531948      -0.00020229      -3.96839512
Al       9.15001386      10.56821846       4.13137453       0.00298981      -0.01049668       0.00189136      -3.70617145
Al      11.51575855      11.69704867       4.77452266       0.01338262      -0.00834119      -0.00314352      -3.97779068
Al       9.65304234      10.25021350       6.73197914       0.00790343      -0.00586163       0.01439254      -3.95172235
Al      11.08999527      12.22253855       8.20792647      -0.00991192      -0.00507801       0.00322470      -4.27169118
Al       9.02146752      10.11107752       9.41608262       0.00144031       0.00560745       0.01438820      -4.15985677
Al      11.11848277      11.08751439      10.67257959      -0.00999113      -0.01537138      -0.00498700      -4.08004865
