100
Lattice="10.621233089671009 -0.021046656092630782 0.35800101639683457 0.00576251519807298 10.297658009298436 -0.20361199598080695 0.37353188282048116 -0.23913303215434276 11.031153886351166" Properties=species:S:1:pos:R:3:forces:R:3:energies:R:1 energy=-547.9200156748909 stress="0.00045905456503493196 0.0001675307039969562 -0.0009117993376051068 0.0001675307039969562 -0.001387131255577907 -9.712488527811446e-05 -0.0009117993376051068 -9.712488527811446e-05 0.00036916733009652975" free_energy=-547.9200156748909 pbc="T T T"
Ni      -0.16881239      -0.30074205       0.29236935       0.00969452       0.00178696      -0.00116134      -5.77631813
Al       0.83772737       1.83179503       1.43712753      -0.00235747       0.00739168       0.00203408      -4.96649619
Ni      -0.18144274      -0.16413578       2.70352786      -0.00037190       0.01158011       0.00003862      -5.82109069
Al       1.26146274       1.24940632       4.86907594      -0.00054007       0.00659219       0.00453615      -4.70149769
Ni      -0.82596553       0.20641448       4.96358239       0.00465393      -0.00414082      -0.00663254      -5.82793278
Al       0.09818722       0.85309375       7.36965901      -0.00473495       0.00850961       0.00596526      -5.02426981
Ni      -0.16481065      -1.11859743       8.95719992      -0.00884123      -0.00086666      -0.00298805      -5.78797969
Al       2.09645616       1.92592276       9.81277800      -0.00401433      -0.00402919       0.00175023      -4.74982940
Ni       0.03821692       3.65802029      -0.20565887       0.01108469      -0.00021472       0.00212282      -5.78110840
Ni      -0.29852315       2.23322765       3.42321868      -0.00698239      -0.00196763      -0.00653056      -5.59885602
Ni      -0.78449116       2.51867028       5.79475789      -0.00549334      -0.00056366       0.00213198      -5.79016026
Al       1.85002603       3.52564936       5.85133557       0.00154369      -0.00355437       0.00190570      -4.88152739
Ni       0.58239900       3.18354224       8.32101135      -0.00011221      -0.00146282       0.00344621      -5.89720282
Ni       0.63690214       5.90848290      -1.98610679      -0.00655485       0.00213000      -0.01046015      -5.91531462
Al       0.87304187       6.22198592       0.50330889      -0.00084729       0.00134467       0.00718332      -4.93338508
Ni       0.61447217       4.30726011       2.03847266      -0.00174303      -0.00051863       0.00445195      -5.73185222
Ni       0.16014347       4.41646164       4.44437653      -0.00260147       0.00088679       0.00701301      -5.93313919
Al       2.13219994       5.61206363       3.94556153       0.00270984       0.00351248       0.00151467      -4.96324581
Ni       1.42044893       5.71471480       6.53298743      -0.00638383       0.00792294      -0.00440387      -5.95547852
Ni       1.35795114       8.22522704      -0.95777753       0.00145649      -0.01213404       0.00622809      -6.00967432
Al       1.46984090       8.65802586       1.48183405       0.00907875       0.00409536      -0.00321465      -4.80497923
Ni      -0.84401740       7.97398851       1.42794052       0.00806198      -0.01274810      -0.00780906      -5.87747964
Al       1.13503178       8.84256904       4.16796453       0.00336393      -0.00422273      -0.00203951      -4.88855169
Ni      -1.22392148       8.28689415       3.89002253       0.00561742       0.00226604       0.00486318      -5.68612935
Al       1.48662591       7.85952342       7.57530222       0.00292617       0.00180913       0.00178185      -4.89744631
Ni      -0.72550603       6.78526593       7.71236717      -0.00153872      -0.00535780      -0.00192094      -5.90265642
Ni       2.24970647       0.17560801       0.30181161       0.00441835       0.00260688      -0.00156440      -5.89625533
Al       4.30579331       1.84869434       2.65004628      -0.00228111       0.00311202      -0.00664099      -4.87160501
Ni       2.31559207       0.40006410       2.92247402      -0.00563876       0.00508057      -0.00162845      -6.04129791
Ni       2.16519811      -0.42239079       6.37695737      -0.00048078       0.00286517       0.00268512      -5.85476359
Al       4.20836409       0.45796430       7.84659067      -0.00322089      -0.00085707       0.00505206      -4.81379006
Ni       2.15651374      -0.28990337       8.88032740      -0.00445741       0.00368970      -0.00570167      -5.84266420
Al       4.72192155       0.80034705      10.80596301      -0.00240674      -0.00895116       0.00315485      -4.76174634
Ni       2.95561319       2.84983334       0.86154398      -0.00720517      -0.00058820       0.00259593      -5.94848027
Ni       2.24030402       3.07206935       3.37599561       0.00047240      -0.00081269      -0.00929820      -5.76927599
Ni       3.59211350       1.58548746       5.06484550      -0.00078041       0.00883476       0.00342029      -5.80931093
Al       4.58924813       3.08007196       6.73680482      -0.00401841       0.00564906       0.00422159      -4.87605457
Ni       2.38560372       1.80779370       7.33325194      -0.00133882       0.00533798       0.00018692      -5.80152263
Al       4.40020704       3.05017392       9.47465452       0.00560542       0.01524288      -0.01340375      -4.71072397
Ni       2.19780094       4.58431040      -0.59946280       0.00399336      -0.00544525       0.00140044      -5.71928286
Ni       2.79683831       5.35620982       1.71798566      -0.01127992       0.00470039       0.00573240      -5.54481069
Ni       4.57884010       6.05193467       4.15540481       0.00309594       0.00514694       0.00745956      -5.63628318
Al       3.94207840       5.93342123       6.55091189       0.00418242       0.00659219       0.00188294      -4.89362758
Ni       2.84139848       4.19462084       7.99299240       0.00396802      -0.00657848      -0.00338230      -5.89298515
Al       3.50933483       6.20118599       9.21218641      -0.00641242      -0.00221302       0.00152485      -4.95073720
Ni       3.28464206       7.34440349       0.45718784       0.00357131      -0.00261540       0.00494882      -5.85016882
Al       4.05841031       9.44189284       1.65109330       0.00757818      -0.00228473       0.00086487      -4.86507673
Ni       3.16689430       7.69333532       2.97872819       0.00486910       0.00059020      -0.00357750      -5.84232107
Al       4.07950239       9.53267022       4.64761170       0.00062126      -0.00371585      -0.00283478      -5.07389833
Ni       2.72583147       7.54484044       5.35893369       0.00041218      -0.00032327       0.00342130      -5.73845005
Ni       3.83885654       8.41778788       7.36553150      -0.00272857      -0.00082916       0.00144691      -5.88230357
Al       4.12492381       8.67293387       9.72698918      -0.00555205       0.00133592      -0.00093278      -4.74001961
Ni       6.10232710       0.35090650       1.42226225      -0.00486908      -0.00736996       0.00543581      -5.90735828
Ni       5.90194450       0.58589216       3.78184318       0.00865476      -0.00034431      -0.00680171      -5.74060495
Ni       5.80092005       1.00260741       6.11928155       0.00166512       0.00085687       0.00229895      -5.82752335
Ni       6.29532780      -0.68565492       9.84547606       0.00008424      -0.01117554      -0.00770477      -5.66534186
Al       7.43666083       1.23863416      10.66304475       0.00602885       0.00719559       0.00292047      -4.72648030
Ni       5.40689351       2.94337054       0.49678590       0.00906318       0.00962901       0.01061035      -5.89408523
Ni       4.61903234       4.14811298       2.50704349       0.00810554      -0.00667166       0.00223269      -5.55808360
Ni       5.65187434       2.99148292       4.61154329       0.01431529       0.00313200      -0.00435978      -5.67188494
Al       7.30415602       3.17711465       6.65936552      -0.00467496      -0.00402988      -0.00028746      -5.03950962
Ni       6.26566867       1.62199436       8.52934181       0.00164275      -0.00198913       0.00348756      -6.16916056
Al       6.97278026       3.71664927       9.70091976      -0.00905084       0.00141218      -0.00651931      -4.72015800
Ni       4.53194284       5.14215566      -0.09164959      -0.00068099       0.00569292      -0.00559190      -5.84625366
Al       6.67691990       4.83786270       3.46487837      -0.00279478       0.00152758      -0.00484277      -4.90490021
Ni       5.11946946       6.48425927       1.85761537      -0.00564726       0.00535276      -0.00206084      -5.76826401
Ni       6.14953637       5.24153080       5.94053604      -0.00051787       0.00703029       0.00550997      -5.71554648
Ni       5.36397111       4.79107543       8.25638764      -0.00381601      -0.01131092       0.01183031      -5.97590622
Al       6.67829035       6.30667875      10.14116832       0.00019430      -0.01156259       0.00352087      -4.92428737
Ni       5.74523056       8.37489953       0.43232739       0.00494336      -0.00663799       0.00776525      -5.65000721
Al       7.46604566       7.22874349       1.68550951      -0.00546176      -0.00354977      -0.00583800      -5.00084380
Ni       5.68346118       8.45138196       3.13431541      -0.00016371       0.00288949       0.00597395      -5.79809968
Al       7.33735232       9.43409810       4.88200332       0.00232052      -0.00262771      -0.00508887      -5.01791284
Ni       5.50519982       7.77682185       5.62382480       0.00066476       0.00197029      -0.00169024      -5.75688764
Al       6.51786963       9.30621061       7.34221798      -0.00713733       0.00402395       0.00929074      -4.96023518
Ni       5.74566372       7.16699376       8.11246700       0.00426805       0.01218409      -0.00323714      -5.77074122
Ni       8.07169695      -0.74931631       0.24822557      -0.00251762      -0.01070617       0.00104932      -5.82186799
Al       8.69277078       1.27723414       2.05445271       0.00846609      -0.00497942      -0.00344267      -5.12170788
Ni       7.91886223      -0.85308994       2.77410375      -0.00629894       0.00431182       0.00243722      -5.55742120
Ni       8.08075501       0.86251322       6.79404766       0.00069516      -0.00061199      -0.00533199      -5.78944671
Ni       8.47030812       0.07104778       8.93678711       0.00730762      -0.00579731       0.01166581      -5.84936812
Al      10.09069918       1.26746835      10.32440429       0.00751484       0.00223201      -0.00907580      -4.83308564
Ni       8.30606928       3.23167509       0.42976130      -0.00498393       0.00268768      -0.01054303      -5.84606317
Ni       6.72675039       2.59336323       2.41548092      -0.00672034       0.00704667      -0.00869664      -5.70871341
Ni       7.95454396       1.87774820       4.50084981       0.00218456       0.00093809      -0.00886932      -5.69406591
Al       9.88616948       4.51612528       7.21253525      -0.00533546      -0.00096766      -0.00849382      -4.81990091
Ni       8.77329230       2.55291988       8.61578692       0.00137257      -0.00594853      -0.00455179      -6.09417639
Al       9.43786577       4.68735672       9.76277695      -0.00281509      -0.00250498      -0.00015326      -4.87724806
Ni       9.20171777       5.52894147       1.02243123       0.01423086       0.00639959      -0.00321316      -5.81976152
Ni       8.81116156       3.77740863       2.81018572       0.00099166      -0.01053451      -0.00034305      -5.71696547
Al       9.61409434       6.00707073       3.26739462      -0.01088743       0.00430149       0.00512738      -4.90532654
Ni       8.44709621       4.85418813       5.21587889      -0.00242296      -0.02091047       0.00025616      -5.91577236
Al      10.20227193       6.63380635       5.70506910       0.00262399      -0.00146470       0.00809173      -4.71763613
Ni       7.74379376       5.36908150       8.03185575      -0.00350012      -0.00711902       0.00349385      -5.91652467
Ni       6.77220235       4.93894757       0.99949060       0.00578469      -0.00302211      -0.00192743      -5.81415126
Ni       7.33010889       6.94796912       4.14548261      -0.00111523       0.00386074       0.00471703      -5.81450583
Ni       7.83475607       7.23585067       6.45868383      -0.00554787      -0.00267159      -0.00182127      -5.85938043
Al       9.35935153       8.93608324       6.91537144      -0.00487484       0.00351405       0.00190168      -4.99611969
Ni       8.00092675       7.95000065       8.92937591      -0.00509839       0.00252427      -0.00140657      -5.75059487
Al       9.87988938       7.31739319      10.49276292       0.00174925       0.00017731       0.00143499      -4.93907798
