117
Lattice="11.449351757934545 0.001219200216160692 0.00026104156007118935 0.001219206244575647 11.442861752054572 -4.206317809831459e-06 0.0002610615284132681 -4.104234995639152e-06 11.456646406877937" Properties=species:S:1:pos:R:3:forces:R:3:energies:R:1 energy=-618.6482873670283 stress="0.00024523141291296136 -0.00013526630933911367 1.2007330422405883e-05 -0.00013526630933911367 0.001004806123711395 1.5069610856277668e-05 1.2007330422405883e-05 1.5069610856277668e-05 -0.0007125374361727351" free_energy=-618.6482873670283 pbc="T T T"
Ni       0.07387165      -0.03587473       0.02426070      -0.00832996       0.00644226       0.00120750      -6.27226454
Al       1.43206457       1.50797861       1.42490903      -0.00319891      -0.01049239       0.00160041      -4.43034444
Ni       0.01575622       0.00410878       2.83820148       0.01775183       0.00314133      -0.00587911      -6.21407532
Al       1.39282948       1.45813840       4.25915086       0.00684097      -0.00425358       0.00016489      -4.57951199
Ni       0.03214018      -0.05757793       5.70845575      -0.00248110       0.00304841      -0.00362072      -6.27256577
Al       1.43134876       1.42246269       7.16725219       0.00282250       0.00030185       0.00301281      -4.66148588
Ni       0.04209990       0.00705985       8.61916101       0.00631618       0.00176317       0.00361536      -6.20017975
Al       1.46761742       1.46569933      10.06581512      -0.00198335       0.00069676      -0.00030380      -4.56787579
Ni      -0.04570671       2.89610734      -0.01119184      -0.00342297       0.00013995      -0.00701613      -6.14084411
Al       1.42633101       4.24993406       1.42882405       0.00815386       0.00326871      -0.00528214      -4.38505608
Al       1.35228916       4.29664027       4.30972406       0.00891884       0.00558544      -0.00246508      -4.48218099
Ni      -0.03597040       2.82714657       5.74271155      -0.00370631      -0.00038551      -0.00365972      -6.14037431
Al       1.38990568       4.32547168       7.12807479       0.00244185       0.00293819       0.00408352      -4.59366071
Ni       0.02879440       2.87724052       8.61785472       0.00646398       0.00307470      -0.00323386      -6.26650749
Al       1.47580065       4.31419388      10.08566782       0.00409727       0.00011225       0.00327417      -4.47781322
Ni      -0.00798453       5.76253519       0.05130922      -0.00311010      -0.00523050      -0.00014393      -6.24930013
Al       1.43411731       7.19617408       1.44445566       0.01237446       0.00310859      -0.01063075      -4.41274316
Ni       0.04629878       5.71393268       2.81374766       0.00585405       0.00107385      -0.00082145      -6.02565311
Al       1.38728812       7.19079987       4.33677899       0.00676492      -0.01191849      -0.00458799      -4.35775064
Al       1.39578448       7.20035238       7.11856521       0.01360832      -0.01221319       0.00381152      -4.32325897
Ni       0.04907115       5.71029686       8.64777507       0.00603712       0.00006377      -0.00185037      -6.15439007
Al       1.44276669       7.19003732      10.04497559      -0.00136700      -0.00837590      -0.00104777      -4.38409323
Ni      -0.01938142       8.53386456       0.01374912      -0.00178710      -0.00206395      -0.00127705      -6.11465755
Al       1.43983544       9.91479234       1.43757986       0.00284697       0.01840116      -0.00555556      -4.44734289
Al       1.44364183       9.92639170       4.27273559       0.00328122       0.01198749       0.00352696      -4.48162994
Ni      -0.04401290       8.61472091       5.71931113      -0.00294301      -0.00285038       0.00130447      -5.99761642
Al       1.44363715       9.93007028       7.16814546      -0.00149465       0.01276139      -0.00372759      -4.46944885
Al       1.43929022       9.91669061      10.03842124      -0.00517033       0.01708567       0.00229835      -4.43639183
Ni       2.86060093      -0.02408023       0.01517926      -0.01048855       0.00213951       0.00073003      -6.21764992
Al       4.24206474       1.47563604       1.41452039       0.00078509      -0.01027431       0.00007183      -4.56209934
Ni       2.80551456      -0.01923214       2.83292230       0.00069731      -0.00805214      -0.00269799      -6.27281491
Al       4.27770252       1.42930781       4.28463225       0.00288782      -0.00742900       0.00001930      -4.66155200
Ni       2.83241687       0.01950493       5.71124373      -0.00392682      -0.00219697       0.00020591      -6.20113896
Al       4.27416025       1.42877786       7.15849790       0.00041817      -0.00441613      -0.00068165      -4.65314983
Ni       2.83476762      -0.06323078       8.62105961      -0.00019384      -0.00668252       0.00444922      -6.26429259
Al       4.24653069       1.46479109      10.04692829       0.00525207      -0.00161989      -0.00126858      -4.54306920
Al       4.22067485       4.30888004       1.39764462       0.00010145       0.00383940       0.00291948      -4.47130492
Ni       2.87555916       2.90162726       2.88926652       0.00603570      -0.00387982      -0.00362796      -6.13772642
Al       4.28735113       4.30747036       4.30235435       0.00354524      -0.00025742      -0.00285905      -4.66717142
Ni       2.81076046       2.88127314       5.70779441      -0.00186626      -0.00260651      -0.00155483      -6.26061490
Al       4.29722626       4.30351832       7.14835556      -0.00108303       0.00155451       0.00521309      -4.66444865
Ni       2.85246419       2.90218490       8.57377345       0.00499979      -0.00486344       0.00079869      -6.20306692
Al       4.24791946       4.30949085      10.04881447      -0.00169311       0.00328196      -0.00166726      -4.45067230
Al       4.26714346       7.12806520       1.37036091       0.00130844       0.00263606       0.00450375      -4.31880898
Ni       2.77969864       5.74170764       2.90804083       0.00545056       0.01084694      -0.00455224      -6.24266574
Al       4.26118358       7.15483015       4.32865384       0.00176833       0.00614172      -0.00329154      -4.59239562
Ni       2.86111860       5.69970409       5.72289088      -0.00363486       0.00161312       0.00139702      -6.13579690
Al       4.27152372       7.16772993       7.10555406       0.00445234      -0.00009817       0.00817018      -4.58340002
Ni       2.81299194       5.78466281       8.55436971       0.00535002       0.00148362       0.00497112      -6.22970679
Al       4.28929509       7.14154656      10.09778157      -0.00018025      -0.00182404      -0.00411473      -4.30147349
Al       4.30270735       9.98593106       1.41394912       0.00048104      -0.00269598      -0.00425062      -4.46620799
Ni       2.92725256       8.53990959       2.83286921       0.00094758       0.00010052       0.00103660      -6.12314302
Al       4.26880978      10.00684384       4.30581188       0.00193632      -0.00041963       0.00050839      -4.57812222
Al       4.26450071       9.99348403       7.11318200       0.00403708       0.00722085       0.00555146      -4.56114869
Ni       2.92916782       8.54574155       8.62615024      -0.00217627       0.00262676       0.00201494      -6.12690957
Al       4.30044167       9.97606073      10.07571297      -0.00059809       0.00660510       0.00019197      -4.44712149
Ni       5.68123111       0.05766372       0.01650539      -0.00200036      -0.01132842      -0.00394295      -6.21074436
Al       7.19183014       1.47349407       1.45377748      -0.00028050      -0.01034253       0.00123089      -4.54409422
Ni       5.73824731       0.02783488       2.83875391      -0.00953451      -0.00797239      -0.00678799      -6.26337562
Al       7.20051369       1.47059256       4.25563752      -0.00253578      -0.00134763      -0.00258387      -4.54244300
Ni       5.72213743       0.00828256       5.71066319       0.00554675      -0.00487462       0.00422418      -6.24331775
Al       7.16999873       1.43385986       7.16134002      -0.00495377      -0.00040742      -0.00321938      -4.63897383
Ni       5.71111960      -0.01523059       8.61104802      -0.00945992      -0.00105062       0.00725918      -6.25212513
Al       7.16146510       1.43871868      10.03290398       0.00128623      -0.00765298      -0.00270614      -4.64281919
Ni       5.75014241       2.89250279       0.01976734       0.00790125       0.00299451       0.00529895      -6.22512699
Al       7.20787638       4.29435599       1.47608625      -0.00157400       0.00503221      -0.00078760      -4.44665964
Ni       5.68551616       2.89106868       2.84097666      -0.00269512      -0.00286443       0.00125817      -6.21852075
Al       7.19310280       4.29386103       4.25080452       0.00247166       0.00253906      -0.00133391      -4.45933578
Ni       5.75271066       2.85885026       5.70286803      -0.00462791       0.00430149      -0.00532996      -6.25077974
Al       7.15539886       4.29028617       7.17370943      -0.00190500       0.00835487       0.00150952      -4.65449105
Ni       5.69182983       2.86511216       8.61168531      -0.00199050      -0.00105584      -0.00380243      -6.24722573
Al       7.17152224       4.29704156      10.00544269      -0.00576433       0.00395459       0.00077675      -4.65151750
Ni       5.73923705       5.66941065       0.02158305      -0.00420832       0.00019686       0.00256417      -6.15606713
Al       7.13229478       7.15482278       1.42141240       0.00200767      -0.00072050      -0.00294692      -4.50069953
Ni       5.68671369       5.71365624       2.82212839       0.00092526       0.00699435      -0.00686950      -6.24275697
Al       7.19556664       7.10900791       4.24859456      -0.00746010      -0.00306821      -0.00124573      -4.58546222
Ni       5.74536753       5.72947388       5.70274901      -0.00629620       0.00300769      -0.00172088      -6.26501482
Al       7.15981513       7.15867576       7.15382225      -0.00388799      -0.00606250       0.00574765      -4.65705273
Ni       5.70251166       5.74513346       8.62343512      -0.00847191       0.00596390       0.00842911      -6.27220527
Al       7.11800891       7.18142943      10.05943367       0.00624067      -0.00242621      -0.00046112      -4.57405056
Al       7.10249281       9.98437615       1.39543756       0.00679508       0.00396985       0.00535023      -4.56499348
Ni       5.69415029       8.54677446       2.89436679      -0.00713549       0.00309537      -0.00311135      -6.22401460
Al       7.16101286      10.01724211       4.28835694      -0.00809799      -0.00029117       0.00177899      -4.65470953
Ni       5.76435892       8.57451223       5.70322562      -0.00149260      -0.00234230       0.00680671      -6.21075326
Al       7.16868305      10.00930903       7.13927911      -0.00580957      -0.00206686       0.00533158      -4.64900757
Ni       5.68377254       8.57865378       8.56230403      -0.00745023      -0.00167200       0.00616856      -6.21554864
Al       7.11330305       9.98166132      10.07630154       0.00892911       0.00071260      -0.00425976      -4.55282430
Ni       8.57326755      -0.01142829       0.02657381       0.00655807      -0.00115450       0.00078192      -6.26453739
Al      10.03605195       1.45059133       1.44532044      -0.00124814      -0.00570201       0.00230004      -4.46467869
Ni       8.61477367      -0.03095741       2.83987987      -0.00323498      -0.00028603       0.00413239      -6.21044722
Al      10.03440481       1.44552560       4.25124953      -0.00697432      -0.00132964       0.00324099      -4.45800207
Ni       8.60464448       0.01422975       5.69755738      -0.00129394      -0.00425988      -0.00166462      -6.25606845
Al      10.03439093       1.40183906       7.17696332      -0.00289533       0.00540985      -0.00133513      -4.65175202
Ni       8.59087284      -0.03410089       8.61564692      -0.00222019      -0.00093816      -0.00813435      -6.24380080
Al      10.03280558       1.40723786      10.03754259      -0.00114039      -0.00343574       0.00023873      -4.66147767
Ni       8.62560440       2.89125826      -0.00028761       0.01044707      -0.00296021       0.00324004      -6.20173445
Al      10.00117574       4.30547446       1.49168905       0.00147676      -0.00278570       0.00030117      -4.33225475
Al      10.07624254       4.35100022       4.27633123      -0.01277028      -0.00360424       0.00504178      -4.20106558
Ni       8.66200801       2.90733983       5.72117197      -0.00714215      -0.00189051      -0.00147350      -6.20020967
Al      10.06390818       4.33421122       7.16425187      -0.00514011      -0.00661333      -0.00044394      -4.58117875
Ni       8.61113626       2.86077000       8.59435820      -0.00595730       0.00148787       0.00419580      -6.24534273
Al      10.02266272       4.32530448      10.02149112      -0.00318095      -0.00234473       0.00187977      -4.66425877
Ni       8.57063907       5.73511141      -0.00936255       0.00128888       0.00325668       0.00277687      -6.22422155
Al       9.99894162       7.13569531       1.51846164      -0.00456716       0.00180232      -0.01191117      -4.48431565
Al      10.06121570       7.11740997       4.23814189      -0.00124888       0.00013398       0.01185708      -4.33658853
Ni       8.57583537       5.71124368       5.73892806       0.00454575       0.00210177      -0.00217914      -6.13680505
Al      10.09037010       7.15274742       7.17109999      -0.00436104      -0.00584071      -0.00352349      -4.48962303
Ni       8.61286903       5.76079282       8.57836339       0.00397429       0.00524753       0.00361806      -6.26057052
Al      10.04175469       7.17208138       9.99829206      -0.00333294       0.00193058       0.00185065      -4.58718150
Ni       8.64377847       8.55492906       0.03266231       0.00278083       0.00615310       0.00045610      -6.22594302
Al      10.06348245       9.97746227       1.45470963      -0.00238363       0.00547385      -0.01258324      -4.58682642
Ni       8.53378678       8.60807299       2.83580988      -0.00325441      -0.01026050       0.00328685      -6.14799570
Al      10.04848369       9.98309271       4.24401983      -0.00363780       0.01023393      -0.00007237      -4.59460754
Ni       8.65618717       8.53140117       5.68584126       0.00950810      -0.00664924      -0.00104803      -6.26879382
Al      10.03513124       9.99209312       7.19462030       0.00021725       0.00312541      -0.00014621      -4.58481186
Ni       8.53596962       8.58448734       8.62101833       0.00289126      -0.00052824      -0.00301086      -6.21031666
Al      10.05510605       9.98861228      10.01856511      -0.00236874       0.00067062       0.00671922      -4.57947664
