174
Lattice="13.90842642032932 -0.05903456799619175 0.013165943587861594 -0.058745461193131315 13.869678490255405 -0.06385925057891681 0.012922982700906745 -0.0640198451223266 13.96138324981196" Properties=species:S:1:pos:R:3:forces:R:3:energies:R:1 energy=-818.1766471313448 stress="-0.00011469556531306371 0.0009515620867920209 4.3824793294717865e-05 0.0009515620867920209 0.00062772083566454 -0.0004999536986490965 4.3824793294717865e-05 -0.0004999536986490965 -0.00032226253145714926" free_energy=-818.1766471313448 pbc="T T T"
Ni      -0.04106435       0.01488805       0.07489700      -0.00283535       0.00179670       0.00429120      -6.00238921
Al       1.38626788       1.48883329       1.40887158       0.00685152       0.00469090      -0.00774315      -4.44213458
Ni       0.01182134      -0.00722049       2.72686482      -0.00931400       0.00153307       0.00416663      -6.06693442
Al       1.31491340       1.57231628       4.24339830      -0.00193661       0.00446114      -0.00184004      -4.18327749
Al       1.31156535       1.55489183       7.06184889       0.00007922      -0.00233594      -0.00323633      -4.26663433
Ni      -0.01416375       0.03394413       8.45345551       0.00082404       0.00094371       0.00396217      -5.90749270
Al       1.19009317       1.49641148       9.91092309       0.00147890       0.00163025      -0.00007550      -4.11187499
Al       1.27698374       1.43385177      12.57374186       0.00385661       0.00104665       0.00456090      -4.28326444
Al       1.29079643       4.15616971       1.55672636      -0.00282338      -0.00569831       0.00375593      -4.12316662
Al       1.37377453       4.43217713       4.31613448      -0.00116312       0.00406160       0.00572490      -3.88462431
Al       1.40034197       4.43618755       7.23839561       0.00348376       0.00234945       0.00030182      -3.76556062
Al       1.77679858       4.12592643       9.90714212       0.00390824       0.00314193       0.00293374      -3.73483906
Al       1.20793350       4.12155048      12.64317918      -0.00511987       0.00676909       0.00302568      -4.23063305
Al       1.29642709       6.97843221       1.28794989       0.00237592       0.00586260      -0.00128189      -4.25383644
Al       1.78364980       7.11622559       4.19887326      -0.00177535       0.00363528      -0.00242020      -3.66724822
Al       2.00619758       7.04048366       6.86056439      -0.00284951       0.00539486      -0.00384379      -3.52417637
Al       1.10701229       6.74671650       9.34156416      -0.00577908      -0.00232128      -0.00316899      -4.06198081
Ni      -0.01262830       5.46569740      11.02781420       0.00411478      -0.00283658       0.00538276      -5.89237472
Al       1.42729777       6.81969646      12.52770166       0.00359480      -0.00714392      -0.00104657      -4.34618646
Ni      -0.24737359       8.30150258      -0.19778757       0.00312133       0.00736646      -0.00678021      -6.00797731
Al       1.18842219       9.68721259       1.27679282       0.00295503       0.00388953      -0.00134712      -4.09964638
Al       1.16318583       9.61660005       4.05588656       0.00482962       0.00817094       0.00134317      -4.09850491
Al       1.11311615       9.59892980       7.14967908      -0.00785366       0.00560031      -0.00096872      -4.15601436
Al       1.85644577       9.32674269       9.86875734       0.00225116      -0.00572863       0.00038893      -4.11692960
Ni       0.02110571       8.05680409      11.09539300       0.00396744       0.00359778       0.00146133      -5.98445788
Al       1.12613231       9.74655012      12.44825211      -0.00092976      -0.00216601      -0.00133337      -4.26710168
Al       1.30371335      12.36513816       1.30329704      -0.00371521      -0.00921965      -0.00018186      -4.60420023
Ni      -0.23885584      11.10892716       2.72900648       0.00384162      -0.01158048      -0.01543293      -6.00280277
Al       1.27236587      12.47564507       4.17677859       0.00141302      -0.00291337       0.00499761      -4.52048913
Ni      -0.15281060      10.94726540       5.47446412       0.00163646      -0.00674956       0.00385224      -6.13880993
Al       1.20326737      12.47680536       6.95893292       0.00156655       0.00222299       0.00039662      -4.52904835
Al       1.23398193      12.27352735       9.78729870       0.00581547      -0.00196140       0.00250799      -4.26713173
Al       1.27782778      12.43113083      12.45840661       0.00003995       0.00862830      -0.00077054      -4.26061471
Ni       2.75524707       0.06915938      -0.09412171       0.00431561       0.00054823      -0.00246129      -6.32564448
Al       4.17103296       1.42449169       1.41843795      -0.00203165       0.00347395      -0.00289797      -4.46459255
Ni       2.68147045       0.04109120       2.83880953       0.00225620      -0.00161729       0.00488568      -6.11227253
Al       4.01855206       1.46644467       4.27462685      -0.00211238      -0.00767386       0.00018892      -4.49395013
Al       4.08454189       1.40590234       7.16620863      -0.00378516      -0.00070678       0.00581750      -4.40639962
Ni       2.60616055       0.03149692       8.54849940       0.00187583       0.00344694      -0.00302755      -6.09476326
Al       3.97264297       1.70092215       9.81469279       0.00229931      -0.00218054       0.00476423      -4.51272669
Ni       2.72941221       0.02664612      11.13944002       0.00527533      -0.00169953      -0.00457454      -6.08790122
Al       4.20862114       1.41159711      12.52446219      -0.00577957      -0.00143178       0.00119721      -4.41131700
Ni       2.76748424       2.89770505       0.01895639      -0.00705820      -0.00381326       0.00258785      -6.07974554
Al       4.24688329       4.10965232       1.58929438       0.00261323      -0.00071186       0.00346065      -4.08245080
Al       4.12513417       4.47318417       4.37637227      -0.00194392       0.00305390      -0.00697979      -4.24048496
Ni       2.74102782       2.99144856       5.73600321      -0.00228436      -0.00159504       0.00149766      -5.89789072
Al       4.10597726       4.33095911       7.25823039      -0.00618073      -0.00161139      -0.00584152      -4.42908342
Al       4.41046783       4.58969598      10.09074505       0.00142246       0.00010225       0.00226019      -4.17732939
Al       4.49565198       4.12908678      12.81187855       0.00708792       0.00483969      -0.00681682      -4.31082875
Ni       2.75492021       5.44470612       0.01991451      -0.00417186      -0.00335928      -0.00166626      -5.98572699
Al       4.27709477       6.93331380       0.95970208      -0.00045605      -0.00167620       0.00551462      -3.96468629
Ni       2.83273484       5.68023784       2.65826307      -0.00317683      -0.00926604       0.00157509      -5.92132445
Al       4.56010498       7.09279897       3.65767282      -0.00484353      -0.00735473       0.00380368      -3.83859116
Al       4.79157610       6.91393594       6.42425353       0.00299301      -0.00153861       0.00198276      -4.04742721
Al       3.81343216       7.15345294       9.23298374      -0.00616853      -0.00236009      -0.00328447      -4.11026803
Al       4.11147737       6.72827491      12.13389750       0.00410707      -0.00427516      -0.00201213      -3.70843719
Al       3.95491058       9.55285609       1.37222893       0.00581336       0.00012763       0.00649209      -4.16173810
Al       3.88880844       9.63794708       4.16831685       0.00157968      -0.00163345       0.00119370      -3.97745863
Al       3.98706257       9.44949002       6.99147754      -0.00163741       0.00178354      -0.00392880      -4.33112227
Al       4.59729650       9.91836925       9.66547403      -0.00689920      -0.00300046       0.00189788      -4.01554373
Al       3.96005028       9.44309202      12.29455957      -0.00037065       0.00090525       0.00352293      -3.92561170
Ni       2.72049764      10.98425799      -0.17876440       0.00251358      -0.00173037       0.00861078      -5.97881835
Al       3.98264522      12.41045148       1.35709632       0.00419674      -0.00272621       0.00058714      -4.70782600
Al       3.93688919      12.36960430       4.23617687      -0.00176798       0.00166675      -0.00179675      -4.38971819
Ni       2.52942861      10.93386323       5.69456493       0.00398041      -0.00374506      -0.00226061      -6.01946002
Al       4.00779230      12.51782002       6.92413804      -0.00225062       0.00087273      -0.00193562      -4.37015996
Ni       2.75988124      11.02000807       8.33141965      -0.00143290       0.00321159       0.00395555      -6.00600703
Al       4.15239405      12.57827740       9.69092540       0.00331711      -0.00190909       0.00226269      -4.07332115
Al       4.12689556      12.41250424      12.37885305       0.00399753       0.00181927       0.00015799      -4.49875682
Ni       5.56586936      -0.08647427       0.04302512      -0.00477643       0.00029447       0.00459035      -6.16402460
Al       6.92160753       1.34981104       1.49452670       0.00326422      -0.00420195       0.00464838      -4.35252774
Ni       5.39341866      -0.09032087       2.93396556      -0.00375711       0.00150465      -0.00028976      -6.16926463
Al       6.85976367       1.40854099       4.21197148      -0.00314092      -0.00164829      -0.00009062      -4.48770788
Ni       5.50734998       0.00564742       5.63206362      -0.00589479       0.00132140       0.00057668      -5.99217838
Al       6.85737394       1.42856336       7.06070665       0.00333185       0.00008199       0.00610281      -4.44604981
Al       6.98919357       1.28095945       9.81743213       0.00237772       0.00004298      -0.00152723      -4.31342519
Al       6.87241218       1.21896634      12.49524090      -0.00050464       0.00179893      -0.00372903      -4.35130625
Al       6.93575866       4.17838339       1.27333388      -0.00190979      -0.00170756      -0.00262103      -3.95520950
Al       6.85204221       4.19694802       4.21429184      -0.00375319       0.00075814      -0.00131990      -4.45226989
Ni       5.39182388       2.85147091       5.71445541       0.00469251      -0.00265616       0.00297699      -6.15602912
Al       7.00857834       4.29428462       7.00129923       0.00112989      -0.00766106      -0.00114633      -4.59533054
Ni       5.66875762       2.99459324       8.58074544       0.00482207      -0.00435552       0.00228469      -6.17083209
Al       7.28108874       4.37516878       9.83655408       0.00452745       0.00044715      -0.00075249      -4.28584541
Ni       5.66466891       2.83692649      11.15260976       0.00015614      -0.00302502       0.00398222      -5.91122772
Al       7.27968140       3.94214029      12.55554886      -0.00312480      -0.00405117       0.00145164      -3.69403881
Al       6.83219099       6.86212091       1.58621035      -0.00524831       0.00234634      -0.00223598      -4.12551926
Al       7.11015480       6.92146483       4.46466971       0.00324508      -0.00020200      -0.00733231      -4.13930447
Al       7.52883807       6.97524379       7.34301062      -0.00301256       0.00497388      -0.00514139      -4.29009767
Ni       5.68906041       5.77019322       8.44339310      -0.00032388       0.00275604      -0.00169751      -6.05498131
Al       6.64187220       7.10881954      10.22923301      -0.00244888      -0.00079395      -0.00331204      -4.08575128
Al       6.76651099       6.56830726      12.88025660       0.00468747       0.00484154      -0.00137162      -3.77033405
Al       6.84144120       9.62592956       1.20956204      -0.00402223       0.00367753      -0.00254121      -4.55800548
Al       6.60780283       9.45399178       4.09571307      -0.00375029       0.00653428       0.00158458      -4.13999105
Al       6.86422799       9.77936567       6.75094468      -0.00525066      -0.00068823       0.00526081      -3.73607419
Ni       5.72523823       8.29036549       8.27715388       0.00197939       0.00487414      -0.00078521      -5.89508833
Al       7.39685499       9.65777648       9.52065515      -0.00361027       0.00092748      -0.00029371      -3.78243097
Al       6.74681127       9.33210431      12.36564297       0.00327604       0.00288919       0.00492867      -3.94258908
Ni       5.32482386      10.92699131      -0.15326767       0.00439173       0.00079621       0.00418769      -6.01443726
Al       6.84039050      12.38365985       1.39278089       0.00199177       0.00140381      -0.00011929      -4.57480068
Ni       5.42246920      10.97802627       2.72459670       0.00553374       0.00069026       0.00430003      -6.05900552
Al       6.75657901      12.31006418       4.28956343       0.00274525       0.00091950      -0.00475875      -4.37312970
Al       6.88474845      12.52432970       7.04889618      -0.00002082      -0.00343005       0.00283959      -3.66556142
Al       6.81811731      12.32445891       9.77300220       0.00038461       0.00138330       0.00158162      -3.71355941
Al       6.96022047      12.12842055      12.53643819      -0.00073627      -0.00126738      -0.00546098      -4.41118196
Ni       8.22401001      -0.03971761      -0.02517996      -0.00269503      -0.00143808       0.00591449      -6.01092066
Al       9.71637328       1.40533750       1.28076822      -0.00253892       0.00614343      -0.00077586      -4.11025010
Al       9.64783399       1.20771375       4.05577262      -0.00413870       0.00030126       0.00146603      -4.35064792
Al       9.58566072       1.19876778       6.95221495      -0.00294664       0.00387955       0.00463481      -4.32375507
Al       9.67300379       1.03913362       9.62828421      -0.00195500       0.00646614       0.00046098      -4.24864424
Ni       8.41363170      -0.24968185      11.24614261      -0.00212447       0.00097143       0.00447717      -6.00979097
Al       9.64490345       1.43919416      12.49999066       0.00176824       0.00256754      -0.00525851      -4.44151012
Al       9.83360262       4.10359222       1.37924310      -0.00007967      -0.01108527      -0.00316378      -4.35566996
Ni       8.29805581       2.82246179       2.79097498       0.00481360      -0.00473218      -0.00348911      -5.99396065
Al       9.88039571       4.02628492       4.12739931      -0.00380177       0.00556538      -0.00122179      -4.66625803
Ni       8.35749610       2.80091291       5.60103037       0.00098012       0.00479067       0.00343030      -6.24808231
Al       9.98363893       4.04850246       7.04053017      -0.00102968      -0.00222505       0.00159374      -4.45245837
Ni       8.43113029       2.73862713       8.40556163       0.00051641      -0.00356268      -0.00449467      -5.96833518
Al      10.16961911       3.87951094       9.78310727      -0.00438889      -0.00638524      -0.00503557      -3.75866995
Al       9.87169003       4.34513050      12.48663340      -0.00194457       0.00520109       0.00700484      -3.69717629
Al       9.75542358       6.80600808       1.29092973      -0.00220759       0.01076478      -0.00778902      -4.50814874
Ni       8.40459687       5.50053784       2.83618629      -0.00500678      -0.00615294       0.00306325      -6.17610250
Al       9.96508813       6.97491156       4.08794420      -0.00496919       0.00609145      -0.00147165      -4.44908829
Ni       8.58380524       5.50102034       5.61465727      -0.00677681       0.00154280      -0.00439880      -6.03165183
Al      10.16286406       6.82141811       6.80492274       0.00050213       0.00764576       0.00831097      -4.25128036
Al       9.44473290       6.60533936       9.54922118       0.00411399       0.00031105      -0.00056863      -3.71221345
Al       9.61364490       6.99376117      12.22711700      -0.00181997       0.00170856      -0.00003167      -3.97291152
Ni       8.32246753       8.20962442      -0.02542537       0.00287587      -0.01086138      -0.00188942      -5.99332083
Al       9.73546869       9.70126590       1.46003303       0.00391445      -0.00574642       0.00007482      -4.33282663
Ni       8.30657641       8.27111741       2.76263283       0.00404726      -0.00345091      -0.00079623      -6.14937508
Al       9.44877538       9.59318299       4.46120365      -0.00554009      -0.00734954      -0.00677842      -4.24700906
Al       9.50223045       9.48294723       7.18579965       0.00524219       0.00127188       0.00285045      -4.15790879
Al      10.05028980       9.25361327      10.08316767       0.00451383       0.00353738      -0.00146254      -4.00720383
Al       9.49805184       9.80177246      12.59992716      -0.00362225      -0.00393041       0.00372249      -3.95342448
Al       9.52138036      12.50078132       1.55261108       0.00095869      -0.00259865      -0.00328125      -3.93198615
Ni       8.13359794      10.89759717       2.85677589      -0.00159680      -0.00011412      -0.00472684      -6.01603877
Al       9.45539397      12.33380722       4.31330905       0.00606103       0.00552921      -0.00149206      -4.18278836
Al       9.62994599      12.35092979       7.19633513       0.00220979       0.00277965      -0.00275110      -4.12324552
Al       9.60425134      11.92899221       9.94048156       0.00141412      -0.00554244      -0.00148684      -4.33677337
Al       9.79136279      12.39964618      12.79869066       0.00033443       0.00113817      -0.00200258      -4.14188436
Al      12.53882314       1.60962709       1.41336944      -0.00211684      -0.00061756      -0.00209058      -4.26949850
Al      12.48865441       1.17794671       4.14819276       0.00577791      -0.00590575      -0.00344416      -4.17202671
Ni      11.00917349      -0.13642687       5.63425906       0.00751565      -0.00591154      -0.00561931      -6.06679505
Al      12.40971543       1.21937439       7.13414456      -0.00164610      -0.00151654       0.00163486      -4.26225836
Al      12.37567306       1.35114057       9.90089680       0.00408427      -0.00666497       0.00240208      -4.01685685
Ni      10.99239626      -0.23029619      11.18458481       0.00440775      -0.00354458       0.00538083      -5.89993679
Al      12.40800519       1.07948109      12.63254494       0.00102308      -0.00086055       0.00363712      -4.18510917
Ni      11.14553592       2.83663205      -0.16458516       0.00943974       0.00410079       0.00766108      -5.78289524
Al      12.57532436       4.43493961       0.95479416       0.00257779      -0.00113366      -0.00197818      -3.96594853
Al      12.67737345       3.84769651       3.78581323      -0.00504637       0.00156444      -0.00133978      -4.12299955
Ni      11.15994967       2.50821427       5.52776395       0.00233353       0.00683353       0.00520194      -6.09917947
Al      12.85553558       3.84548345       6.56904614      -0.00462004       0.00262892      -0.00767538      -3.94318264
Al      13.00120760       4.01741723       9.22050952      -0.00409522      -0.00169913       0.00072290      -3.85275917
Al      12.42567023       3.71023961      11.90945861       0.00138636       0.00185099       0.00156861      -4.20464515
Al      12.43913074       7.22938813       1.57901893      -0.00500073      -0.00906734       0.00500664      -4.26709275
Ni      11.31323895       5.53108435       2.77388140       0.01201280       0.00206024       0.00563582      -5.95482500
Al      12.93332179       6.84613427       4.26892682      -0.00211273       0.00207719      -0.00467319      -3.94910344
Ni      11.42347268       5.34078505       5.39917363       0.00494086      -0.00809156      -0.00222218      -6.01744371
Al      12.90325568       6.58311155       7.14410764      -0.00237263       0.00457534      -0.00238815      -3.95695459
Al      12.16794660       6.64715081       9.94276156       0.00076614       0.00293657      -0.00711385      -4.34202106
Al      12.38775068       6.47742668      12.68313136       0.00330536       0.00205000      -0.00104706      -4.35396633
Ni      10.98845674       8.31015441      -0.12906427      -0.00471064      -0.00276960       0.00471531      -6.07413818
Al      12.37647780       9.98082363       0.98236775       0.00074062       0.00360303       0.00067654      -4.25441783
Al      12.18730636       9.54581403       3.93091407      -0.00137906      -0.00169044      -0.00134881      -4.10274991
Al      12.38565759       9.31335395       6.69929404      -0.00356755       0.00615351      -0.00768714      -4.39146850
Ni      11.22475819       8.12444691       8.38469646      -0.00523377      -0.00753700      -0.00359710      -5.85565957
Al      12.97389332       9.48431645       9.44700955       0.00239511      -0.00385335      -0.00311168      -4.29765262
Al      12.24009765       9.43608987      12.13918443      -0.00198171       0.00600476      -0.00191767      -4.16294902
Al      12.21003927      12.60310905       1.35836882       0.00208871      -0.00182722      -0.00050508      -4.12675874
Al      12.34545992      12.40032621       4.16144922      -0.00612250       0.00973968       0.00449544      -4.48421806
Ni      11.00080781      11.00787982       5.68294912       0.00462697       0.00780424       0.00760917      -6.07179166
Al      12.46536475      12.33641110       7.03164163      -0.00334978       0.00073482      -0.00066645      -4.40099813
Ni      11.08974533      10.73265369       8.40005505      -0.00241513       0.00046468       0.00151611      -6.01349437
Al      12.40882461      12.31805688       9.73822354      -0.00753368       0.00443305      -0.00494649      -4.17357152
Al      12.48037302      12.19239947      12.53916376       0.00034405      -0.00390566      -0.00221565      -3.97911646
