114
Lattice="11.259937676374195 0.026864695126327096 0.0108227585884306 0.02682642446724381 11.268341942910771 -0.0066534786325907645 0.010834444298693298 -0.006682189563026757 11.262077467552919" Properties=species:S:1:pos:R:3:forces:R:3:energies:R:1 energy=-614.2091715956337 stress="-0.0004857091164792376 3.6703695989865774e-05 0.0004112160598377162 3.6703695989865774e-05 -0.00045233113125375357 -0.0002991751220236243 0.0004112160598377162 -0.0002991751220236243 0.0010577465397309516" free_energy=-614.2091715956337 pbc="T T T"
Ni       0.06737754       0.06238955       0.00617986       0.00400083      -0.00241618      -0.00059171      -6.10974694
Ni       0.05005727       0.11478273       2.89375017      -0.00501318       0.00409905       0.00663845      -5.62171679
Ni       0.01616467       0.10246620       5.49499295       0.01089829       0.00080034       0.00580138      -5.94983487
Al       1.42559520       1.37995520       7.04296730      -0.00254192      -0.01702536      -0.00487633      -4.64750392
Ni       0.03198418       0.00397980       8.51390784      -0.00184933      -0.00662116      -0.00343457      -6.30054600
Al       1.58321972       1.50141659       9.94993566       0.00057462      -0.00610016      -0.00405127      -4.74680098
Ni      -0.04847587       2.79377380       0.00266605       0.00101036       0.00138478       0.00165756      -6.03409682
Al       1.62076160       3.95415525       1.37463384       0.00177180      -0.00487182       0.00409534      -4.79512276
Ni       0.15285401       2.64867117       2.83723179       0.00408289       0.00524371      -0.00064623      -5.57974696
Al       1.42792351       4.16602674       4.21132121      -0.00159272       0.01128852      -0.00493895      -4.60777470
Ni       0.02677854       2.69638832       5.53454658      -0.00282699      -0.00097900       0.00056363      -5.94342574
Al       1.47664432       4.18819047       7.00184655      -0.00814238       0.00667554       0.00429035      -4.69807212
Ni       0.02705509       2.79821696       8.49164847      -0.00601030      -0.00549765       0.00665530      -6.35838889
Al       1.38604354       4.24553873       9.86061116      -0.00449690      -0.01103168      -0.00996735      -4.64383792
Ni       0.00305881       5.61623591       0.05791505       0.00694941       0.00374934       0.00653700      -6.07056725
Al       1.46935523       6.99054517       1.43857195       0.00073990      -0.01037480      -0.00469053      -4.62175223
Ni       0.05795373       5.59533642       2.80404605      -0.00286737      -0.00250740      -0.00488025      -6.07798503
Al       1.54938576       7.01221132       4.29962714       0.00067007       0.00524156       0.00675748      -4.74458134
Ni       0.03187943       5.64992866       5.64653814       0.00083185       0.00278760       0.00189589      -6.28939775
Al       1.63278953       6.96406734       7.00229165      -0.00853145      -0.00310560      -0.00199666      -4.72360861
Ni       0.02916662       5.64141504       8.39295269      -0.00183808       0.00379436      -0.00874890      -6.28450697
Al       1.51644762       7.02461972       9.80544090      -0.00311032       0.00013177      -0.00347237      -4.71936722
Ni       0.00265162       8.42454603       0.05380643       0.00021573      -0.00423112      -0.00489637      -6.06337959
Al       1.42812289       9.93682384       1.48924314      -0.00054757       0.00169534      -0.00014718      -4.64896762
Ni       0.02952289       8.40804418       2.82269370       0.00403379      -0.00711779      -0.00077509      -6.11248118
Al       1.50063650       9.87941510       4.21098405       0.00634828       0.00352196       0.00056171      -4.60853387
Ni       0.02817044       8.38507796       5.62478960       0.00017970       0.00524310       0.00683746      -6.28052647
Al       1.44787738       9.91514225       6.95394224       0.00464098       0.01372559      -0.00080199      -4.65300357
Ni       0.05884009       8.41523253       8.39299760       0.00344682      -0.00658383       0.00707764      -6.27032185
Al       1.45876912       9.82962669       9.84364350      -0.00260852      -0.00064154      -0.00770387      -4.67849576
Ni       2.80322683      -0.07282899       0.00685047      -0.00798648      -0.00505033      -0.00115693      -6.00074147
Al       4.01492804       1.54552874       1.32583040      -0.00228111       0.00731599       0.00478167      -4.64127801
Ni       2.73608160       0.25789093       2.93557839       0.01318506       0.00624151      -0.00041776      -5.46110002
Ni       2.81286294       0.13152152       5.53077127      -0.00181552       0.00056293       0.00697209      -5.44248492
Al       4.51785394       1.70821206       6.90424021      -0.00745900       0.00144982      -0.00931084      -4.79994433
Ni       2.93533342      -0.01905473       8.32914080       0.00173777      -0.00598254      -0.01156323      -6.13830280
Al       4.26918495       1.35615965       9.80312404      -0.00121252       0.00508139       0.00191028      -4.68384569
Ni       3.39023882       3.33878766      -0.53865099       0.00888029      -0.00536404      -0.00747137      -5.93545409
Al       4.30766149       4.18648957       1.49132453       0.00783109      -0.00390744      -0.00126329      -4.55439413
Ni       3.10461783       2.82643870       3.15640943       0.00121822      -0.00017072      -0.00512176      -5.53482010
Ni       2.70994720       2.68261776       5.59383234       0.00938653      -0.00549049      -0.00076747      -5.51146324
Ni       2.86063222       2.80222550       8.34419482       0.00267812       0.00256896       0.01120631      -5.93175908
Ni       2.86984422       5.66413216      -0.01141663       0.00633968       0.00748745      -0.00059345      -6.08646322
Al       4.31160086       6.94717843       1.38942333       0.00990945      -0.00311286      -0.00291812      -4.74873030
Ni       2.90419655       5.56068236       2.87614675      -0.01249601      -0.00618705       0.01146153      -6.15366565
Al       4.26859918       7.06333599       4.30093922       0.00136026       0.00429469       0.01504250      -4.51642447
Ni       3.12006513       5.30357340       5.57040150       0.00655629       0.01010348       0.00277583      -5.97577667
Al       4.30050414       6.97690092       7.04449842       0.00138042      -0.00750069      -0.00993389      -4.48936575
Ni       3.11649756       5.35511136       8.53495743      -0.00036604      -0.00200131      -0.00415968      -5.99366001
Al       4.31741814       7.05359505       9.82541434      -0.00752488       0.00355848      -0.00105177      -4.69585227
Ni       2.88292609       8.46109476       0.05264962      -0.00145436       0.00444441      -0.00126300      -6.32638410
Al       4.20202573       9.97813094       1.56382942       0.00566059      -0.01436104       0.00830461      -4.62622286
Ni       2.88325436       8.40932885       2.83146270      -0.00065389       0.00217335       0.00592041      -6.08197053
Ni       3.07613177       8.68267793       5.67100744       0.00046870      -0.00360515      -0.00054598      -5.91188127
Ni       2.92406132       8.53470242       8.36699454      -0.00442533       0.00366288      -0.00172330      -6.09063382
Al       4.30634923       9.87150642       9.87131361       0.00461540       0.00262527      -0.01474918      -4.68361553
Ni       5.63871010       0.08987913       0.08277931       0.00091388       0.00463522      -0.00017465      -6.15835320
Ni       5.49336742       0.14683224       2.93705983       0.00254603       0.00604997      -0.00424039      -5.71170344
Al       6.59309509       1.47243029       4.68962470       0.00448272      -0.00462588      -0.00716016      -4.70982944
Ni       5.18448767      -0.33765911       5.63917505      -0.00074637      -0.00432399       0.00291850      -5.42067587
Ni       5.54238417      -0.06788596       8.30070843       0.01435871      -0.00002182       0.00135757      -5.83044086
Al       6.91248916       1.54587860       9.60860249      -0.00966835       0.00316529       0.00757038      -4.59592570
Ni       5.74869050       2.71215045       0.08344236       0.00283059      -0.00732041      -0.00112164      -5.80224764
Al       7.05327557       4.18796525       1.41961165       0.00105525      -0.00012215      -0.00666443      -4.66136855
Ni       5.71227129       2.68738618       2.76162587      -0.00702427      -0.00166813      -0.00074100      -5.78090560
Al       7.07065699       4.17340258       4.24366126       0.00556658      -0.00298577      -0.00128454      -4.70680037
Ni       4.93936619       3.42036109       5.02868010      -0.00385809       0.00391712      -0.00082735      -5.56962504
Al       6.74096535       3.88205155       6.97445523      -0.00097291      -0.00206760       0.00521671      -4.72572582
Ni       5.28458070       3.34027486       8.89563646       0.00627498      -0.01202859       0.00105062      -5.52833246
Ni       5.57465803       5.30504127      -0.29685889      -0.00397939       0.00010320       0.00082586      -5.96401573
Al       6.96956426       6.94432065       1.41873970      -0.00653884      -0.00109999       0.00066893      -4.69813834
Ni       5.57311009       5.51185122       3.01296871       0.00283017      -0.00055256       0.00517319      -6.21312435
Al       7.06580407       7.05370325       4.27372425      -0.00299951      -0.00337918       0.00229987      -4.68535009
Ni       5.74502202       5.67236887       5.69490701      -0.00112036       0.01456888      -0.00110661      -5.76352371
Ni       5.76853492       5.69335608       8.34979803      -0.00277044      -0.00408359       0.00970471      -5.42334776
Al       7.05147853       7.02311561       9.85356660       0.00076965      -0.00363294      -0.00185037      -4.62487948
Ni       5.65977439       8.53641395       0.09552892      -0.00342136       0.00179288      -0.00020300      -6.28330395
Al       7.03813750      10.00087843       1.51812676      -0.00005512       0.00317723       0.00221214      -4.61836373
Ni       5.61792838       8.45324601       2.81453294      -0.00703265      -0.00267004       0.00507498      -6.11286271
Al       6.95815007       9.91676263       4.23760601      -0.00382779       0.01134661       0.00660574      -4.69495461
Ni       5.69778773       8.43279470       5.69875228      -0.00551957      -0.00089932      -0.00090354      -5.81093951
Al       7.05713140      10.01923036       6.93314995      -0.00822473      -0.00393723       0.00067135      -4.49000478
Ni       5.69528594       8.49641055       8.36794568      -0.00138018       0.00844137      -0.00432905      -5.93518516
Al       7.04014072       9.90828264       9.86014452      -0.00510293       0.00280648      -0.00325269      -4.74799860
Ni       8.31393999       0.12259638       0.01739215      -0.00344318       0.00124850       0.00223128      -6.11234679
Al       9.81903094       1.41934390       1.46901168       0.00360444       0.01205173       0.00469485      -4.47897496
Ni       8.31430982       0.17540788       2.94941940       0.00062728       0.00198665       0.00434701      -5.81594108
Ni       8.49212170       0.13387326       5.55173910       0.00609591      -0.00107134      -0.00120920      -5.86380762
Al       9.86464809       1.41378279       7.04456212      -0.00236121       0.00412340      -0.00478617      -4.58788626
Ni       8.41845529       0.04341681       8.43504838      -0.00464323      -0.00002071       0.00235298      -6.11429591
Al       9.82292237       1.42519027       9.87268451      -0.00997120       0.01138784      -0.00137946      -4.69661315
Ni       8.37817682       2.79324315      -0.00555097      -0.00486215       0.00097815       0.00831422      -5.88598939
Al       9.87633357       4.15963696       1.48100769       0.00254442      -0.00299193       0.00670525      -4.66464478
Ni       8.35784827       2.69564745       2.91845937      -0.00129745       0.00362614       0.00097753      -5.83613889
Al       9.87589891       4.14266143       4.19680388       0.00112321      -0.00872995      -0.00231512      -4.73899285
Ni       8.49867244       2.73282899       5.60327690      -0.00425374       0.00203485      -0.00720241      -5.85369491
Al       9.89240748       4.19098243       6.99938931      -0.00369130      -0.00670529      -0.00455682      -4.72617715
Ni       8.46492813       2.85470199       8.39007414      -0.00436200      -0.00015657       0.00650870      -5.77513328
Al       9.78868756       4.25107568       9.86874969      -0.01161365      -0.00343659       0.00202698      -4.69603795
Ni       8.48591761       5.65401339       0.07462739      -0.00004641       0.00607112       0.00751641      -5.98374507
Ni       8.47375469       5.63440570       2.80112735       0.00201914      -0.00091618       0.00027671      -6.11374438
Al       9.85093966       7.01409649       4.21283127       0.00640598       0.00059887      -0.00456317      -4.61988752
Ni       8.39383697       5.56469892       5.70024612       0.01238917       0.00624023      -0.01157225      -6.12400714
Al       9.77869812       7.03783867       7.05519208      -0.00509131       0.00521052       0.00457366      -4.56223653
Ni       8.35109167       5.55361402       8.38286245       0.00635315      -0.00778990      -0.00504905      -5.81626713
Al       9.83980009       7.04689506       9.86166194       0.00533762      -0.00214983      -0.00322953      -4.61884003
Ni       8.43320232       8.45658655       0.08220764      -0.00562895      -0.00850565       0.00172928      -6.08229215
Al       9.85333538       9.96289657       1.46076470       0.00949502      -0.00172110       0.00228346      -4.69275768
Ni       8.44955031       8.43728432       2.79609172       0.00330610      -0.00102957       0.00418001      -6.10943376
Al       9.85612807       9.93063769       4.18546099       0.00570190      -0.00372407      -0.00624608      -4.72694015
Ni       8.46128921       8.50173378       5.63445797       0.00345153      -0.00297663      -0.00276683      -6.13802760
Al       9.91162585       9.93555941       6.99629596      -0.00594112       0.01080935      -0.00453639      -4.75052016
Ni       8.42448551       8.51749874       8.40445477      -0.00122258      -0.00323211      -0.00299609      -6.10772283
Al       9.84613697       9.88752034       9.90415592       0.00063786       0.00509055      -0.00091468      -4.74782194
