164
Lattice="13.708575443774949 0.022525705518759716 -0.058040328783612365 0.022777671320695983 13.736939277759268 -0.05361520542889786 -0.05818234706842384 -0.05295799207747449 13.807783168302674" Properties=species:S:1:pos:R:3:forces:R:3:energies:R:1 rep=5 n_sites=250 energy=-745.2918551653219 stress="-0.0003483689813418969 -9.893861810886358e-05 -0.0002737868817247264 -9.893861810886358e-05 0.0003575643594625839 0.0010321156524785268 -0.0002737868817247264 0.0010321156524785268 0.00016906242398718782" free_energy=-745.2918551653219 pbc="T T T"
Al       1.72992474       1.56028844       1.40795548       0.00168909       0.00260428       0.00233516      -4.13943575
Al       1.52341298       0.70043161       4.14559170      -0.00487601       0.00171910      -0.00024872      -4.04456449
Al       0.86374950       1.46110122       6.66046630      -0.00415906      -0.00754514      -0.00605507      -4.25555699
Al       1.17059074       1.45997556       9.51159043      -0.00560317      -0.00420223      -0.00954710      -4.41025898
Ni      -0.16379392      -0.14437253      10.73929520      -0.00946511      -0.00000670       0.00326205      -5.84745627
Al       1.18637957       1.00305211      12.47721939       0.00608250      -0.00178420      -0.01331321      -4.23053767
Ni       0.03056209       2.65241895       0.01932913      -0.00057793       0.00528375       0.00294789      -6.00010020
Al       1.43410346       4.19832050       1.47367125      -0.00390090       0.00202389      -0.01664583      -4.21987069
Al       0.89581277       3.42194785       3.90267125       0.00040925      -0.00533159       0.00801185      -4.18060491
Al       1.24537892       4.40232919       6.54909115       0.00337026      -0.00344900       0.00626468      -4.37580344
Ni      -0.09921026       3.15850319       8.15928796      -0.00103411       0.00709047       0.00102165      -5.99139813
Al       1.37432372       4.27997758       9.68135304      -0.00780698       0.00154252      -0.00458917      -4.07369473
Al       1.45499751       3.81067822      12.35318160      -0.00598375      -0.00295269       0.01270987      -4.13231501
Ni       0.17180670       5.43785406      -0.09726867       0.01550138      -0.00985514       0.00285335      -6.03452545
Al       1.44924512       7.05528384       1.23111288      -0.00114541      -0.01522066      -0.01225298      -4.57904661
Ni      -0.18012918       5.39412698       2.92477278      -0.00840039       0.00858692      -0.00253357      -5.96034342
Al       1.56721222       6.35459728       4.14658952      -0.00192158      -0.00713788       0.00509070      -4.19273270
Al       1.57043133       7.15502570       6.74770372       0.00180680       0.00102757      -0.00208257      -3.83146026
Ni       0.10708786       5.80409987       8.25102734       0.00136115       0.00920247       0.00396894      -5.89710250
Al       1.93924820       6.93917859       9.39116853      -0.00770787      -0.00676168      -0.01179214      -3.83661151
Al       1.35490529       6.72364905      12.08142322      -0.00176488      -0.00462768       0.00244061      -4.06603913
Al       1.06544865       9.85272654       1.81583679      -0.00331658       0.00087842       0.00053032      -4.30619446
Ni       0.12007292       8.01857221       3.02199898      -0.01439702      -0.00118818       0.00756590      -5.90434500
Al       1.25263809       9.23526318       4.80202319       0.00021315       0.00574321      -0.00395802      -4.18528559
Al       0.85077564       9.80420174       7.44476756       0.00450838      -0.00359443       0.00116977      -3.61273857
Al       1.02245139       9.33817182      10.08272393       0.00119860       0.00512602      -0.00002109      -3.87866559
Al       1.71599919       9.42856820      12.79352342      -0.00084071       0.00477559       0.00663169      -4.05148854
Ni      -0.06174709      10.80678132      -0.08481341       0.00055368      -0.00151811      -0.00770754      -5.76485006
Al       1.37521138      12.49846884       0.93952081       0.01107520       0.00398370      -0.01202025      -4.13736027
Al       2.00801497      11.79851570       3.71311923      -0.00507865       0.00574376      -0.00452633      -3.88051794
Al       1.20533921      12.36223502       6.33150935       0.00041229      -0.00015163      -0.00626809      -3.61500476
Al       1.18030657      12.04231996       9.17170922       0.00498594      -0.00091786      -0.00680916      -4.11898936
Al       0.97407122      11.95583603      12.00596855       0.00057529      -0.00441812       0.00817789      -4.44400681
Al       4.50285788       0.95124169       0.94671304       0.00746364       0.00606143       0.00342509      -3.84543029
Ni       2.97765931      -0.19744762       2.41191993      -0.00714048      -0.00831329      -0.00221384      -5.75813757
Al       4.13196407       1.46378626       3.86499907       0.00067018       0.01076619      -0.00183807      -4.09755532
Al       3.91577509       1.16915101       6.60985919       0.00261969      -0.00662583      -0.00445754      -4.54028005
Al       3.83933496       1.21841265       9.35925029      -0.00839113       0.00334691      -0.00643004      -4.53535961
Ni       2.39457096      -0.21333442      10.73646674       0.00330882       0.00693313      -0.00080291      -6.10583638
Al       3.77009080       1.47080097      12.15767287       0.00235296       0.00038849      -0.00479098      -4.11190148
Al       4.10035056       3.68906121       1.17096916      -0.00076373       0.00501928      -0.00741575      -3.95566660
Al       3.79095639       4.35323492       3.99939585      -0.00186153      -0.00003967      -0.00030568      -3.97634531
Ni       2.56726136       2.64863640       5.34731835       0.00350060       0.00330690      -0.00241571      -5.87957501
Al       4.08726609       4.02061070       6.66146009      -0.00673093       0.00331750      -0.01049639      -4.37240837
Ni       2.49634672       2.76306665       7.94724078      -0.00574852       0.00241880       0.00848969      -6.12900935
Al       4.00409900       4.18099258       9.37201735      -0.00879419      -0.00201089       0.00435104      -4.14495735
Al       4.06009538       4.33662758      12.04097940      -0.00206617      -0.00649290       0.00420634      -4.28059399
Ni       2.77271946       5.46332017      -0.04728757      -0.01408388      -0.01352513       0.00666214      -6.04912336
Al       4.02313456       6.45479636       1.94041790      -0.00048264       0.00277143      -0.00166135      -4.46424000
Al       4.01775228       7.34287485       4.81436687      -0.00122884       0.00895201      -0.00368028      -4.39155247
Al       4.31830142       6.79658775       7.55336183      -0.00374249       0.00187608       0.00112196      -3.93083536
Al       4.40196249       6.69119334      10.30043734       0.00115450      -0.00133942      -0.00172539      -3.58900281
Al       3.90044722       7.29654635      12.92239246       0.01330579       0.00165724      -0.00520713      -4.08084520
Al       3.76321524       9.28599444       1.20725722      -0.00303984      -0.01078063       0.01738702      -4.04912895
Ni       2.65167708       8.24644806       3.00702951       0.00593331       0.01107718      -0.01011197      -6.06877457
Al       3.94443902      10.00261546       4.24147562      -0.00426973       0.00491929      -0.00408659      -3.98001908
Al       3.43337321       9.35561121       6.80906504       0.01111993      -0.00500028      -0.00007607      -3.54541652
Al       3.86057118       9.24592062       9.48118630       0.00356206       0.00173549       0.00534832      -3.98186117
Al       4.39442502       9.83186665      12.57519207       0.00149087      -0.00064377      -0.00992767      -3.99610166
Al       4.28311401      11.91138887       0.95733676      -0.00373672      -0.00654352       0.00117150      -3.84414905
Al       4.79559858      12.46058659       3.53858707      -0.00100259       0.00716926       0.00118987      -4.13129345
Al       4.14607928      12.05682438       6.34123648       0.01062805      -0.00636743      -0.00255220      -3.88248875
Al       3.93178658      12.19804274       9.12573603       0.00201996       0.00122656       0.00182611      -4.45398237
Ni       2.70754120      10.83361715      10.84829020       0.00566414      -0.01008017      -0.00767889      -5.97217673
Al       3.78271775      12.47680239      12.27903271       0.00743158       0.00175231       0.01859505      -4.28631117
Al       7.06666925       1.70950436       1.04571830      -0.00604557      -0.00749751      -0.01169284      -3.74473241
Al       6.86191843       1.21425188       3.75074356      -0.00380866      -0.00266923       0.01548763      -4.18025388
Ni       5.69129417      -0.04014134       5.36092033      -0.00037710      -0.00013529       0.00157047      -5.86771991
Al       6.96635786       1.54545015       6.63152263       0.00828700       0.00122744      -0.00373631      -4.11537680
Ni       5.45334087      -0.12180204       7.92310842      -0.00810824      -0.00543863      -0.00013733      -6.07221473
Al       6.89109856       1.16404114       9.46875594       0.00911647       0.00725104      -0.00128654      -4.46715316
Ni       5.29751761      -0.12170445      10.78873671      -0.00541933      -0.01024548       0.00442253      -6.27035179
Al       6.60494742       1.23645312      12.33014925       0.01014467      -0.00304603       0.01046060      -4.17391930
Al       6.80325081       4.32855011       1.28870383      -0.00457352       0.00550493      -0.00100764      -4.21457523
Al       6.59315392       4.16035929       4.11583221       0.00120572       0.00189452       0.00191144      -4.30412164
Al       6.80213827       4.20030577       6.90569349       0.00525969       0.00128634       0.00040621      -4.14792981
Ni       5.40719401       2.61134249       8.18338054      -0.00193978       0.00004587       0.01246553      -6.06344644
Al       6.81075621       4.04820708       9.59903715      -0.00877613      -0.00481818       0.00953793      -4.49962489
Ni       5.34788666       2.63647977      10.81589744      -0.00891083      -0.00872771       0.00544154      -6.00230460
Al       6.72543511       4.03106842      12.35169734       0.00786057      -0.00164581       0.00058915      -4.06933919
Ni       5.29362059       5.55129864      -0.00158227       0.00324105       0.00126327      -0.00361058      -5.89839470
Al       6.68636822       7.14765216       1.34610859       0.00676610      -0.00192400      -0.00656615      -4.16040074
Al       6.81628953       6.98056882       4.10507779      -0.00059015      -0.00110635       0.00512257      -4.26127372
Ni       5.38810595       5.62824252       5.57545014       0.00287818       0.00317417       0.00334511      -5.74957473
Al       7.02720673       6.93467599       6.80905431      -0.00267337       0.00421562      -0.00358816      -4.14948319
Al       6.91081213       6.85754216       9.44572436      -0.00045324       0.00984539      -0.00204812      -4.12980162
Al       6.59275366       6.77084016      12.25639553      -0.00187307      -0.00006555       0.00114085      -4.34428792
Al       6.41491417      10.11034065       1.68466139      -0.00195454       0.00244507       0.00001402      -3.92430315
Ni       5.22413849       8.41735266       2.93669060      -0.00687980      -0.00302929      -0.00127266      -5.88497959
Al       6.70011137       9.70925868       4.47725072       0.00004633      -0.00427740      -0.00101132      -4.23153563
Al       7.40384607       9.74942439       7.36607560      -0.00935846       0.00355871      -0.00587692      -4.03698217
Al       6.57813459       9.36536799       9.89727839       0.00471287      -0.00941838       0.00818969      -4.08614832
Al       7.23638841       9.30921413      13.00850249       0.00148112       0.00070728       0.00169673      -4.06392915
Al       6.84067347      12.78472238       1.35138596       0.00703050       0.01415928      -0.00757781      -3.65287315
Al       7.47950464      12.27465154       4.01010927      -0.00440184      -0.00025172       0.00879641      -3.99915036
Al       7.28937933      12.52082690       6.75785662       0.01313423       0.00421922       0.00423996      -4.25613066
Al       6.86544532      12.10030136       9.40205248       0.00417867      -0.00243726      -0.00181439      -4.46204535
Ni       5.19181402      10.99497962      10.74155535      -0.00698274      -0.00624182       0.00804523      -5.80874472
Al       6.43519110      12.08788684      12.49063084      -0.00237523       0.00733576      -0.00598654      -4.34003529
Al       9.73639791       1.45257051       1.63745714       0.00270777       0.00286212      -0.00072404      -4.37883345
Al       9.71897660       1.58257372       4.33422930       0.00273434       0.00045825       0.00165759      -4.00730252
Al       9.62273323       0.91160351       7.04469335      -0.00410362      -0.00390749      -0.00709730      -3.60945964
Al       9.54550103       0.99695613       9.78325678      -0.00167629       0.00563403      -0.00248263      -3.97172718
Ni       8.00934644      -0.36155624      11.18031360       0.00246301      -0.00424871       0.00493306      -6.00811959
Al       9.38560657       1.10803417      12.54657807      -0.00338524      -0.00779536       0.00872779      -4.41158405
Al       9.66080585       4.13052794       1.29568218       0.01419609       0.00430748       0.00991392      -4.35187762
Ni       8.17786981       2.90573389       2.81282190       0.00403578       0.01149224       0.00481996      -5.88733101
Al       9.45845794       4.30903714       4.30200048      -0.01025403       0.00253174      -0.00714720      -4.12439264
Al       9.50868125       3.72526529       6.86855586      -0.00238472      -0.00597287       0.00237503      -3.86008500
Al       9.58530738       3.88796714       9.62774349      -0.00138523      -0.00345845       0.00499355      -4.23714670
Al       9.42725157       3.98526091      12.41736379      -0.00567831       0.00192896       0.00111801      -4.23859887
Al       9.50591219       6.96542520       1.25588752       0.00446182      -0.00064851       0.00803914      -4.10866978
Ni       8.22034028       5.54057177       2.70486778      -0.00244838      -0.00090489      -0.00013756      -5.98919407
Al       9.52412360       7.11738407       4.03995267      -0.00144718       0.01115070       0.00160374      -4.39818471
Al       9.80221424       6.65526708       6.75576208       0.00360093       0.00668482       0.01136242      -4.05882484
Ni       8.39863165       5.39929693       8.28436954       0.00103382       0.00568754      -0.00947443      -5.89777595
Al       9.91057142       6.83121510       9.64485265      -0.00301084       0.00227858       0.00231387      -4.11253474
Ni       8.23526797       5.51926419      10.92474477       0.01091095      -0.00433762      -0.00710271      -6.01621020
Al       9.63184354       6.72915826      12.47333962       0.00625534       0.00082567       0.00494494      -3.87950088
Al       9.25687238       9.70140071       1.17287862       0.00192249       0.00530908      -0.00461685      -3.73144104
Al       9.63807921       9.86438308       3.84612924      -0.00990412       0.00114737       0.00894034      -4.26027439
Ni       8.39099797       8.43739529       5.57001635       0.00296071       0.00169025       0.01104976      -5.87190032
Al      10.22758805       9.34588287       6.80246917      -0.00095517      -0.00268076      -0.01019414      -4.03946305
Al       9.36111889       9.53702551       9.42224510      -0.01153658      -0.00491426      -0.00423749      -4.03466563
Ni       8.28820224       8.14538286      11.10583862       0.00027018       0.00498040       0.00617602      -6.05417658
Al       9.97042647       9.55041174      12.23208638       0.00317468       0.00294762      -0.00321228      -4.07390761
Al       9.45795996      12.31032276       1.97828788      -0.00350632       0.00335450      -0.00260035      -3.96948321
Al      10.23440928      12.59933755       4.83420696       0.00002209      -0.00801420       0.00901885      -4.20041013
Ni       8.65671551      10.93575758       5.66046147       0.00513693      -0.00237879       0.00246935      -5.90672735
Al       9.99286266      11.96163847       7.51719516      -0.00052300      -0.00203289      -0.00767291      -3.95959196
Al       9.85598623      12.02411016      10.30722797       0.00286099      -0.01032627       0.00323468      -4.02445213
Ni       8.07151446      10.74974157      11.23939573       0.00430447       0.00319044      -0.00107318      -6.12115383
Al       9.07090702      12.11026218      13.08406332      -0.00347311       0.00657598      -0.00634569      -4.32175562
Ni      10.84087990      -0.16233523       0.28423924       0.01021242       0.00665292       0.00547593      -5.96827061
Al      12.60699419       1.14553091       1.37067321      -0.00930758      -0.00438339      -0.00172525      -4.40841097
Ni      11.16759373      -0.04557111       2.93935227       0.01047462       0.00397881      -0.00365693      -5.90604975
Al      12.57678123       1.44857199       4.20802053       0.00330515       0.00592479       0.00368539      -3.88821905
Al      11.85665103       2.38803468       6.60958459      -0.00360172      -0.00672596      -0.00858781      -3.89240000
Al      12.21861624       1.54765885       9.35470015      -0.00268592      -0.00467678      -0.00088566      -4.19183035
Al      12.24736739       1.08076582      12.31534236      -0.00439110       0.00023369       0.00506894      -4.40244308
Ni      11.03105508       2.59607061      -0.10697725      -0.00444583       0.00430515       0.00027325      -6.07395142
Al      12.30382741       4.05428878       1.35127222       0.00188826       0.00190590       0.00333876      -4.56384331
Al      12.09107346       4.10950221       4.33389075      -0.00042408      -0.00095125      -0.00151341      -4.00495677
Al      12.06952313       5.02036898       6.85733047       0.00105718       0.00508014      -0.01235137      -3.93166113
Al      12.24865238       4.38428815       9.67077550       0.00605347       0.00004036      -0.00272272      -4.14351485
Ni      10.87633022       2.61938775      11.06408198      -0.00744054       0.00454630      -0.01544018      -5.86328008
Al      12.32237943       4.07174542      12.32533178       0.00036884      -0.00863098      -0.00196890      -4.36029441
Al      12.41070242       6.82696749       1.29566332      -0.00469820      -0.00802373       0.01521406      -4.40513146
Ni      10.92263364       5.61605606       2.78831475      -0.01193244      -0.00465654      -0.00217770      -6.15765304
Al      12.26908184       6.96329571       4.39319931       0.00672549       0.00162944       0.00264062      -4.31851742
Al      12.54916549       7.74211933       7.05609541       0.00925395       0.00255097      -0.00807087      -3.78810797
Al      12.73918500       7.23243825       9.82416898      -0.00271723      -0.00392077       0.00097307      -3.83467494
Al      12.28368116       6.88529275      12.43935537      -0.00259816       0.00483989      -0.01008512      -3.74738226
Al      11.89224400       9.33064767       0.52100333       0.01182102       0.00897348      -0.00420058      -4.17014847
Ni      11.04161624       8.35565317       2.56944127      -0.00353611      -0.00320729       0.00902877      -5.94075908
Al      12.46145963       9.91748316       3.65391071      -0.00259378      -0.00022216       0.00119147      -3.95963496
Al      12.42087338      10.84841745       6.22284196      -0.00131303      -0.00872604      -0.00206987      -3.72500645
Al      12.08502342       9.75305226       8.91885243       0.00508153       0.00104219       0.00303913      -3.67020594
Al      12.65997834       9.48383208      11.72534732      -0.00056000      -0.00204137       0.00982568      -3.79935597
Al      12.31800236      12.02105325       1.44804685       0.00119572       0.00002167      -0.00420080      -4.25016752
Al      13.02002709      12.51113606       4.11232677       0.00746472       0.00040180       0.00519171      -3.88691790
Al      12.26761464      13.50155510       6.62678365       0.00086627      -0.00237145      -0.00099678      -3.69663380
Al      12.16629136      12.45182460       9.12991132       0.00629137      -0.00374291      -0.00180378      -3.82476154
Al      11.99000183      12.16829258      12.30843723      -0.00194162      -0.00002316      -0.00224376      -4.13851129
