128
Lattice="11.593708180068115 -3.508847620132177e-16 -0.0003739850145526374 -3.6423933500098376e-16 11.600946193071323 -1.2216293731170408e-12 -0.0003740287202642405 -1.0852599579495532e-12 11.600895809061285" Properties=species:S:1:pos:R:3:forces:R:3:energies:R:1 energy=-679.5940852521862 stress="0.0009037551259086661 2.3696664216483454e-16 1.5293834089951005e-05 2.3696664216483454e-16 -0.00039442900739653376 -1.104979133988203e-13 1.5293834089951005e-05 -1.104979133988203e-13 -0.0006999453586164468" free_energy=-679.5940852521862 pbc="T T T"
Ni       0.01083749      -0.01742501      -0.04340843       0.00196377      -0.00102037      -0.00377884      -6.19648911
Al       1.51869250       1.40294865       1.35580944      -0.00249292       0.00945187       0.00568957      -4.47296710
Ni      -0.03553789       0.03969048       2.92201024      -0.00278155       0.00262888       0.00282747      -6.34641272
Al       1.51352433       1.38821248       4.44244171      -0.00169935       0.00793900      -0.00710501      -4.48468431
Ni       0.00741680      -0.02529201       5.84200866       0.00370382       0.00110684      -0.00028260      -6.21045417
Al       1.45037427       1.45867729       7.25482213      -0.00131447       0.00326134       0.00301028      -4.57994828
Ni      -0.01087069       0.01056764       8.67563696      -0.00306090       0.00413989       0.00000043      -6.22750303
Al       1.45618907       1.45119045      10.13859568      -0.00453236       0.00646654      -0.00005426      -4.56785807
Ni       0.00325483       2.90023655       0.01026904       0.00397926       0.00000000       0.00568398      -6.29121857
Al       1.51869250       4.39752444       1.35580944      -0.00249292      -0.00945187       0.00568957      -4.47296710
Al       0.01715313       2.90023655       2.90915840      -0.00614820      -0.00000000       0.00030554      -3.71708199
Al       1.51352433       4.41226061       4.44244171      -0.00169935      -0.00793900      -0.00710501      -4.48468431
Ni      -0.00385207       2.90023655       5.77330137       0.00419969      -0.00000000      -0.00114533      -6.29911409
Al       1.45037427       4.34179580       7.25482213      -0.00131447      -0.00326134       0.00301028      -4.57994828
Ni       0.00130480       2.90023655       8.70468387      -0.00037304      -0.00000000       0.00016617      -6.21729419
Al       1.45618907       4.34928264      10.13859568      -0.00453236      -0.00646654      -0.00005426      -4.56785807
Ni       0.01083749       5.81789811      -0.04340843       0.00196377       0.00102037      -0.00377884      -6.19648911
Al       1.44515155       7.11987930       1.46593405      -0.00066841       0.00420430       0.00274095      -4.41152960
Ni      -0.03553789       5.76078262       2.92201024      -0.00278155      -0.00262888       0.00282747      -6.34641272
Al       1.52295226       7.17696843       4.41102447      -0.00455719       0.00692290      -0.00821418      -4.47811230
Ni       0.00741680       5.82576511       5.84200866       0.00370382      -0.00110684      -0.00028260      -6.21045417
Al       1.45728078       7.26786238       7.24813643      -0.00502071      -0.00117246       0.00137077      -4.56975975
Ni      -0.01087069       5.78990545       8.67563696      -0.00306090      -0.00413989       0.00000043      -6.22750303
Al       1.39587611       7.19448412      10.07900664       0.00377819       0.00715543       0.00512358      -4.49301416
Ni       0.04524141       8.70070964       0.04032337       0.00183044       0.00000000       0.00288710      -6.34860176
Al       1.44515155      10.28153999       1.46593405      -0.00066841      -0.00420430       0.00274095      -4.41152960
Al      -0.02099533       8.70070964       2.93740494       0.00288788      -0.00000000      -0.00384642      -3.64892280
Al       1.52295226      10.22445086       4.41102447      -0.00455719      -0.00692290      -0.00821418      -4.47811230
Ni       0.00905546       8.70070964       5.72782220       0.00434931       0.00000000       0.00309051      -6.30511524
Al       1.45728078      10.13355691       7.24813643      -0.00502071       0.00117246       0.00137077      -4.56975975
Ni       0.00455480       8.70070964       8.69719770      -0.00384826       0.00000000      -0.00330617      -6.20693178
Al       1.39587611      10.20693516      10.07900664       0.00377819      -0.00715543       0.00512358      -4.49301416
Ni       2.94811287      -0.04619560      -0.03302767       0.00020513      -0.00173196      -0.00514733      -6.29627803
Al       4.35646545       1.47269330       1.46144057      -0.00057874       0.00046059       0.00323343      -4.55375543
Ni       2.91236424       0.03947967       2.90734620      -0.00092443      -0.00175953       0.00217934      -6.19560312
Al       4.35676579       1.47127139       4.34367192      -0.00145569       0.00079094      -0.00349120      -4.56796573
Ni       2.95137514      -0.00247713       5.84473068      -0.00007116      -0.00166889       0.00452300      -6.22487861
Al       4.35585087       1.46553446       7.26590047      -0.00377819       0.00365062      -0.00012467      -4.59120584
Ni       2.89581538       0.00543831       8.68179811       0.00513357       0.00320603       0.00170983      -6.22718092
Al       4.35131124       1.45245147      10.13267473      -0.00368263       0.00815394       0.00232230      -4.58119143
Ni       2.92401460       2.90023655      -0.02004493       0.00126866       0.00000000      -0.00163236      -6.20222522
Al       4.35646545       4.32777980       1.46144057      -0.00057874      -0.00046059       0.00323343      -4.55375543
Ni       2.80768577       2.90023655       2.89990255       0.01133682       0.00000000      -0.00327803      -6.28925537
Al       4.35676579       4.32920171       4.34367192      -0.00145569      -0.00079094      -0.00349120      -4.56796573
Ni       2.91665851       2.90023655       5.81014768       0.00070366      -0.00000000       0.00248698      -6.22228598
Al       4.35585087       4.33493864       7.26590047      -0.00377819      -0.00365062      -0.00012467      -4.59120584
Ni       2.88822441       2.90023655       8.70806787      -0.00179656      -0.00000000      -0.00273558      -6.23192518
Al       4.35131124       4.34802162      10.13267473      -0.00368263      -0.00815394       0.00232230      -4.58119143
Ni       2.94811287       5.84666870      -0.03302767       0.00020513       0.00173196      -0.00514733      -6.29627803
Al       4.41095221       7.18463874       1.54206913      -0.00537926       0.00751074      -0.00265714      -4.48617142
Ni       2.91236424       5.76099343       2.90734620      -0.00092443       0.00175953       0.00217934      -6.19560312
Al       4.35308151       7.24917211       4.34481221       0.00010387       0.00386599      -0.00398080      -4.56582844
Ni       2.95137514       5.80295023       5.84473068      -0.00007116       0.00166889       0.00452300      -6.22487861
Al       4.34715279       7.27532082       7.25795504       0.00145321       0.00336912       0.00092945      -4.58348408
Ni       2.89581538       5.79503479       8.68179811       0.00513357      -0.00320603       0.00170983      -6.22718092
Al       4.41206080       7.19808433      10.05180133      -0.00273372       0.00570117       0.00339312      -4.50585281
Al       2.92856830       8.70070964      -0.00500216      -0.00115028       0.00000000       0.00323831      -3.73145538
Al       4.41095221      10.21678055       1.54206913      -0.00537926      -0.00751074      -0.00265714      -4.48617142
Ni       2.85173306       8.70070964       2.87584819      -0.00534903      -0.00000000      -0.00494574      -6.35415174
Al       4.35308151      10.15224718       4.34481221       0.00010387      -0.00386599      -0.00398080      -4.56582844
Ni       2.90702564       8.70070964       5.78527826       0.00380615      -0.00000000       0.00422071      -6.20784661
Al       4.34715279      10.12609847       7.25795504       0.00145321      -0.00336912       0.00092945      -4.58348408
Ni       2.88151956       8.70070964       8.73790440      -0.00212607       0.00000000       0.00201464      -6.31019535
Al       4.41206080      10.20333496      10.05180133      -0.00273372      -0.00570117       0.00339312      -4.50585281
Ni       5.76412740      -0.02869011      -0.02429525       0.00235454       0.00013306      -0.00446727      -6.21654180
Al       7.17946304       1.37616383       1.35276772       0.00314072       0.00455537       0.00806739      -4.49567124
Ni       5.82260808       0.02787678       2.92369363       0.00278755       0.00232960       0.00222372      -6.21062777
Al       7.19378910       1.38184389       4.44889379       0.00548274       0.00614357      -0.00765549      -4.49859043
Ni       5.77075920      -0.02027817       5.82934894       0.00209978      -0.00194683       0.00193576      -6.23168791
Al       7.24249103       1.46869060       7.26407732      -0.00033312      -0.00189216      -0.00136113      -4.58474162
Ni       5.81757440       0.01681079       8.67388098      -0.00053190      -0.00042212      -0.00142806      -6.23313550
Al       7.23593974       1.45278959      10.13976919       0.00167758       0.00259516       0.00294111      -4.58293716
Ni       5.77631670       2.90023655      -0.01149412       0.00009406       0.00000000       0.00028545      -6.21857139
Al       7.17946304       4.42430927       1.35276772       0.00314072      -0.00455537       0.00806739      -4.49567124
Ni       5.90438904       2.90023655       2.90315132      -0.01546469      -0.00000000      -0.00210623      -6.29891778
Al       7.19378910       4.41862920       4.44889379       0.00548274      -0.00614357      -0.00765549      -4.49859043
Ni       5.78625199       2.90023655       5.80322689      -0.00271689      -0.00000000       0.00195169      -6.22257245
Al       7.24249103       4.33178249       7.26407732      -0.00033312       0.00189216      -0.00136113      -4.58474162
Ni       5.80384827       2.90023655       8.70909484       0.00219836       0.00000000      -0.00284064      -6.24000957
Al       7.23593974       4.34768351      10.13976919       0.00167758      -0.00259516       0.00294111      -4.58293716
Ni       5.76412740       5.82916320      -0.02429525       0.00235454      -0.00013306      -0.00446727      -6.21654180
Al       7.24330399       7.25896421       1.45047443       0.00085948       0.00056467       0.00460016      -4.55527758
Ni       5.82260808       5.77259631       2.92369363       0.00278755      -0.00232960       0.00222372      -6.21062777
Al       7.24859182       7.24937738       4.34996503      -0.00175892       0.00603061      -0.00500115      -4.56743277
Ni       5.77075920       5.82075127       5.82934894       0.00209978       0.00194683       0.00193576      -6.23168791
Al       7.23456908       7.26656411       7.25898579       0.00540146       0.00879060      -0.00068822      -4.59017437
Ni       5.81757440       5.78366231       8.67388098      -0.00053190       0.00042212      -0.00142806      -6.23313550
Al       7.23190533       7.26676355      10.14383873       0.00455428       0.00751298      -0.00272576      -4.58135362
Ni       5.72985894       8.70070964       0.01549171      -0.00146556      -0.00000000       0.00488471      -6.30578061
Al       7.24330399      10.14245508       1.45047443       0.00085948      -0.00056467       0.00460016      -4.55527758
Ni       5.81568765       8.70070964       2.91352832       0.00593558      -0.00000000       0.00012563      -6.20118282
Al       7.24859182      10.15204191       4.34996503      -0.00175892      -0.00603061      -0.00500115      -4.56743277
Ni       5.79290208       8.70070964       5.78109352      -0.00425658       0.00000000      -0.00013197      -6.23243311
Al       7.23456908      10.13485518       7.25898579       0.00540146      -0.00879060      -0.00068822      -4.59017437
Ni       5.80833532       8.70070964       8.68921532      -0.00016842       0.00000000      -0.00053725      -6.22855840
Al       7.23190533      10.13465574      10.14383873       0.00455428      -0.00751298      -0.00272576      -4.58135362
Ni       8.66317464      -0.02414615      -0.05865175      -0.00549751      -0.00001895      -0.00245478      -6.21602605
Al      10.14215111       1.35500110       1.31710756      -0.00065117       0.00523841       0.00570726      -4.40682593
Ni       8.69375750       0.05335543       2.88842946       0.00263777       0.00498612       0.00106424      -6.28653091
Al      10.12729203       1.35579414       4.48421042       0.00005365       0.00723888      -0.00546531      -4.41357140
Ni       8.66060654      -0.01396513       5.87531174      -0.00493731      -0.00179143       0.00056716      -6.21720467
Al      10.13909057       1.46140696       7.26941311       0.00237045       0.00129631      -0.00283710      -4.56823684
Ni       8.68637257      -0.00406573       8.69980218      -0.00060520       0.00148315      -0.00148218      -6.23601856
Al      10.14152714       1.45054384      10.13021244       0.00472404       0.00264534       0.00099132      -4.56619238
Ni       8.69006322       2.90023655       0.01214743      -0.00048868       0.00000000       0.00085254      -6.29880531
Al      10.14215111       4.44547200       1.31710756      -0.00065117      -0.00523841       0.00570726      -4.40682593
Al       8.65841076       2.90023655       2.88965657       0.00217870      -0.00000000      -0.00291381      -3.75682788
Al      10.12729203       4.44467895       4.48421042       0.00005365      -0.00723888      -0.00546531      -4.41357140
Ni       8.69313413       2.90023655       5.79110792      -0.00251239      -0.00000000      -0.00052483      -6.30365187
Al      10.13909057       4.33906613       7.26941311       0.00237045      -0.00129631      -0.00283710      -4.56823684
Ni       8.69605905       2.90023655       8.71195462       0.00172023      -0.00000000       0.00148747      -6.21857106
Al      10.14152714       4.34992926      10.13021244       0.00472404      -0.00264534       0.00099132      -4.56619238
Ni       8.66317464       5.82461924      -0.05865175      -0.00549751       0.00001895      -0.00245478      -6.21602605
Al      10.08209948       7.19870965       1.38297140       0.00443083       0.00660006       0.00526688      -4.46662141
Ni       8.69375750       5.74711767       2.88842946       0.00263777      -0.00498612       0.00106424      -6.28653091
Al      10.05925439       7.18531302       4.42224833       0.00162589       0.00820798      -0.00329829      -4.47609987
Ni       8.66060654       5.81443823       5.87531174      -0.00493731       0.00179143       0.00056716      -6.21720467
Al      10.14538099       7.27115865       7.26134288       0.00060476       0.00131063       0.00128644      -4.58051448
Ni       8.68637257       5.80453883       8.69980218      -0.00060520      -0.00148315      -0.00148218      -6.23601856
Al      10.14553462       7.26427947      10.13630420      -0.00139151       0.00137928       0.00043119      -4.57039615
Ni       8.68725215       8.70070964      -0.00437820      -0.00475193       0.00000000       0.00138041      -6.20495229
Al      10.08209948      10.20270964       1.38297140       0.00443083      -0.00660006       0.00526688      -4.46662141
Ni       8.74177133       8.70070964       2.89292722      -0.00061095       0.00000000      -0.00245379      -6.28217312
Al      10.05925439      10.21610627       4.42224833       0.00162589      -0.00820798      -0.00329829      -4.47609987
Ni       8.67803307       8.70070964       5.80459231       0.00147882       0.00000000      -0.00204860      -6.22335645
Al      10.14538099      10.13026064       7.26134288       0.00060476      -0.00131063       0.00128644      -4.58051448
Ni       8.69413463       8.70070964       8.70905782       0.00384237       0.00000000      -0.00148577      -6.23302213
Al      10.14553462      10.13713982      10.13630420      -0.00139151      -0.00137928       0.00043119      -4.57039615
