179
Lattice="14.040914653490017 -0.004068626336308988 -0.007003874889226106 -0.004068844478296089 14.035158358669396 -0.006861819678383626 -0.0070037800483807875 -0.006861382107760376 14.040361229286717" Properties=species:S:1:pos:R:3:forces:R:3:energies:R:1 rep=5 n_sites=250 energy=-854.6064453817116 stress="-0.0005510134138472433 0.00046495021748966576 0.0007683668181403184 0.00046495021748966576 9.434397861020668e-05 0.0006643503295977982 0.0007683668181403184 0.0006643503295977982 -0.00034893414151442774" free_energy=-854.6064453817116 pbc="T T T"
Ni      -0.00528658      -0.01823917       0.00326672       0.00396210       0.00325252      -0.00455553      -6.25378631
Al       1.41367199       1.45386161       1.40424960       0.00822786       0.00108277      -0.00040225      -4.75212280
Ni       0.06269418      -0.00559259       2.80996922       0.00119560      -0.00488315      -0.00318272      -6.15509345
Al       1.45362087       1.41788010       4.29840495      -0.00027589       0.00069420      -0.00786494      -4.46406363
Al       1.43386784       1.39776165       6.98871996       0.01041439       0.00296114       0.00520369      -3.92100317
Al       1.37544107       1.40811670       9.74926018      -0.00076032       0.00706445      -0.00317671      -3.93170095
Al       1.36175323       1.35660302      12.52190507      -0.00533163       0.00629523      -0.00144552      -4.46276848
Ni       0.03449325       2.88148365       0.03110055       0.00651641      -0.00532436       0.00099783      -6.16560141
Al       1.45067482       4.27100517       1.43248605      -0.00209179      -0.00301153       0.00252764      -4.46280760
Ni       0.02138027       2.82993304       2.93580906      -0.00230277      -0.00108539       0.00349536      -6.15625132
Al       1.48843399       4.28519675       4.24310687      -0.00422655      -0.00829447       0.00320684      -4.08834733
Ni       0.00915209       2.90286073       5.61741148       0.00443816      -0.00168739      -0.00841239      -6.09224686
Al       1.42250182       4.29916238       6.98343502       0.00002411       0.00592069      -0.00268618      -4.25263910
Ni      -0.08343917       2.82348104       8.25629246       0.00709433       0.00118043       0.00059570      -6.03243619
Al       1.38092874       4.15328005       9.67212882       0.00843891      -0.00109820      -0.00273308      -4.36722683
Al       1.36681875       4.25020565      12.59027266      -0.00034137       0.00198819       0.00016028      -4.52766590
Ni      -0.10858037       5.59149513      -0.00761133       0.00173018      -0.00604500      -0.00271253      -6.16113223
Al       1.39941753       6.96445605       1.42905850       0.00367529      -0.00936775      -0.00001298      -4.25163613
Al       1.41154321       6.99449153       4.20635168      -0.00824884      -0.00359012       0.00070596      -3.67745195
Al       1.34746433       7.01799300       6.92131097      -0.00312996      -0.00215236       0.00539391      -3.95729069
Al       1.31831763       7.00697509       9.82994244      -0.00308515      -0.00025964       0.00865424      -4.42569120
Al       1.40546952       6.95261276      12.55681431       0.01235934      -0.01154137      -0.00750125      -4.43571377
Ni       0.06170307       8.38266741      -0.03636834       0.00132268       0.00141304       0.00279038      -6.27162924
Al       1.46114800       9.79728540       1.43695071       0.00049048       0.00030681      -0.00811587      -4.44196463
Ni      -0.07392464       8.43866651       2.86773182       0.00106965      -0.00465570      -0.00324290      -6.05567457
Al       1.45177831       9.77462005       4.24627090       0.00436194       0.00262780       0.00165213      -4.33810750
Al       1.38733892       9.77980934       7.06494007       0.00387749       0.00875057      -0.00349881      -4.25000458
Al       1.43172028       9.79442278       9.81201839      -0.00645515      -0.00068275      -0.00118137      -4.27920079
Ni      -0.09436498       8.46776706      11.20831301       0.00951917      -0.00258232      -0.00328585      -5.99579154
Al       1.47757214       9.79089039      12.61273968       0.00429912       0.00421732       0.00498288      -4.44785196
Ni      -0.01537165      11.19438774      -0.03513448       0.01194211      -0.00446770      -0.00597681      -6.24916017
Al       1.46320315      12.56338734       1.39252955       0.00250536       0.00340052       0.00408795      -4.56132944
Ni       0.01689835      11.19326502       2.81524835       0.00290551      -0.00280632      -0.00472587      -6.23723454
Al       1.46596847      12.64559899       4.22500825       0.00741397       0.00205968      -0.00132048      -4.49246311
Ni       0.09127609      11.23023298       5.70103061       0.00141856      -0.00862301       0.00287527      -6.12370198
Al       1.47100701      12.73312299       7.14388741      -0.00248584       0.00426566      -0.00453407      -3.91269789
Al       1.38147516      12.65863355       9.84790438      -0.00623414       0.00588048       0.00725989      -3.66322140
Ni       0.00079748      11.11646633      11.20923339      -0.00355071      -0.00393093      -0.00201469      -5.99435128
Al       1.44728896      12.58835430      12.58550258       0.00137042      -0.00156623       0.00223458      -4.31377217
Ni       2.81444653      -0.01814378       0.00276200      -0.00789554       0.00195791       0.00183185      -6.03954027
Al       4.29450419       1.39708470       1.34243020       0.00588319       0.00633633       0.00354479      -4.44877139
Ni       2.81805876       0.06358196       2.80611876      -0.00577362      -0.00403043      -0.00300454      -6.05544944
Al       4.24493999       1.38619445       4.33300290       0.00266770       0.00200981       0.00069585      -4.11585588
Al       4.16484457       1.46027154       7.06274800       0.00916450      -0.00226738      -0.00010140      -3.37510266
Al       4.12931487       1.30119110       9.77230214       0.00299096       0.00380635      -0.00398691      -3.93525573
Al       4.22470843       1.32513338      12.53574471      -0.00074460       0.00169039      -0.00815912      -4.34726740
Ni       2.80814984       2.74217678      -0.11478666      -0.00215974       0.00063652       0.00285684      -6.15753628
Al       4.23613094       4.20326756       1.29641103       0.00835702       0.00365646      -0.00617052      -4.34660989
Ni       2.92590912       2.82953520       2.83348620      -0.00374229      -0.00728007      -0.00718304      -6.16091843
Al       4.22511599       4.37889116       4.21128824      -0.00135857       0.00451735      -0.00271786      -3.91536096
Al       4.18109222       4.19912753       6.89125930      -0.00106237       0.00652159      -0.00394246      -3.91899972
Al       4.25664070       4.09612570       9.70454185       0.00525182      -0.00635693       0.00271290      -4.41444570
Ni       2.81118107       2.82787159      11.19401864      -0.00402517      -0.00146703      -0.00262844      -6.02840238
Al       4.27385137       4.22663955      12.59380310       0.00025666       0.00258754       0.00295633      -4.37858222
Al       4.15681839       6.94787159       1.48238965      -0.00005495      -0.00149846       0.00310052      -4.12963739
Al       4.15655056       7.08290035       4.18545882       0.00350876       0.00231768       0.00356603      -3.67414620
Al       4.25868715       7.08359885       6.94956548      -0.00388991       0.00322068      -0.00604265      -4.40923002
Ni       2.86659883       5.70841985       8.37006135      -0.00490325      -0.00479384      -0.00062377      -6.09029596
Al       4.25158186       7.04246916       9.85967373       0.00720648       0.00462322       0.00708405      -4.47826421
Ni       2.77145722       5.49198604      11.08229308       0.00073397       0.00104708       0.01155353      -6.02467652
Al       4.11878893       6.95809031      12.52866623      -0.01065936      -0.00003873      -0.00252049      -4.47566858
Ni       2.83869098       8.41302088       0.03095480       0.00285933      -0.00365126       0.00233953      -6.08033173
Al       4.22959843       9.79984032       1.44833738       0.00118677      -0.00039544       0.00182247      -4.23518865
Al       4.13064020       9.80207802       4.18055733       0.00769262       0.00987777       0.00088641      -4.24220209
Al       4.16758831       9.79848423       7.05312347       0.00180823      -0.00559020       0.00974534      -4.40225263
Ni       2.74605627       8.37048268       8.38866844       0.00053730       0.00572788      -0.00186779      -5.89781061
Al       4.19375497       9.81071888       9.79856350      -0.00258857      -0.00015511       0.00842731      -3.97961874
Al       4.15338084       9.87419609      12.61263151      -0.00463008       0.00569229       0.00224496      -4.13631185
Al       4.24532132      12.60155080       1.40012000       0.00654579       0.00190373       0.00910252      -4.20646987
Al       4.17459091      12.66103559       4.18065719      -0.00504283       0.00686354      -0.00291153      -4.34260865
Ni       2.78459546      11.28157958       5.70473090      -0.00515155      -0.00253941       0.00065551      -6.07416064
Al       4.26119250      12.73438717       7.05155734       0.00570761       0.00304267       0.00803707      -3.95731920
Al       4.10656182      12.53365618       9.74968193      -0.01296871      -0.00144633       0.00556844      -3.68369718
Al       4.20831343      12.57724821      12.59853094      -0.00078885      -0.00360485       0.00822795      -3.90027633
Al       6.95638273       1.39469282       1.41439358      -0.00654645       0.00578461       0.00357124      -4.45952181
Al       6.96544016       1.35177973       4.25458677      -0.00518033      -0.00036631      -0.00208738      -4.24493903
Al       6.91802585       1.28574560       7.02263419       0.00332108      -0.00132662      -0.00646711      -3.91528154
Al       6.94781673       1.41598047       9.80201159      -0.01019562       0.00001733       0.00203391      -4.21985868
Ni       5.58795772      -0.10705683      11.11434507       0.00393869       0.00908254       0.00486571      -5.78073744
Al       6.97785609       1.31532994      12.55915312      -0.00421788      -0.00317258      -0.00887181      -4.33145986
Al       6.97328265       4.23779891       1.40461863      -0.01224313       0.00286837      -0.00926325      -4.44168610
Ni       5.54712448       2.83215322       2.87387243      -0.00259415      -0.00503625       0.00459802      -6.07934676
Al       6.95983066       4.23337450       4.28865108      -0.00445621       0.00313911       0.00130829      -4.27034356
Al       6.97404035       4.22421161       6.97725430      -0.00052802      -0.00329214      -0.00202097      -4.38054705
Al       6.95315402       4.21016396       9.81374468      -0.00300165       0.00015489       0.00184444      -4.47432303
Al       7.02540573       4.27324110      12.67779515      -0.00471421       0.00637645       0.00297889      -4.39087466
Ni       5.61371376       5.69593645       0.00901205       0.00087405      -0.01230014      -0.00074518      -5.92312584
Al       7.09478891       7.02641072       1.39428533      -0.00048754       0.00159587      -0.00446145      -4.28922144
Al       6.96580279       6.99917013       4.18236019       0.00473843      -0.00094647       0.00125730      -4.08021960
Al       7.04596203       7.08645925       6.97790034      -0.00405655       0.00314568      -0.01065920      -4.25217454
Ni       5.59510598       5.59352411       8.33719178       0.00543852       0.00287000      -0.00351919      -6.06424115
Al       6.93702606       7.05771130       9.83950020      -0.00244630       0.00257190       0.00623693      -4.38404627
Al       7.03914949       7.00361697      12.56832884       0.00892471      -0.00262763       0.00059445      -4.39893363
Ni       5.52684338       8.31903922      -0.05741618      -0.00574957       0.00423182      -0.00209701      -6.10647163
Al       6.95222776       9.76827879       1.35048035      -0.00181119      -0.00007414       0.00273734      -4.33106383
Al       7.10181564       9.80448750       4.21500057       0.00122130       0.00079324       0.00744503      -4.41046438
Ni       5.66852110       8.47954667       5.58906562       0.00160023       0.00300654      -0.00235881      -5.89911978
Al       7.02331039       9.85073760       7.05580383       0.00048150       0.00426924      -0.00086484      -4.27281848
Al       7.04482800       9.83824577       9.87786981      -0.00324037       0.00115544       0.00247966      -4.11667623
Ni       5.63829071       8.52110735      11.26640662       0.00315367      -0.00603296       0.00043183      -5.88445420
Al       7.00576202       9.84488110      12.69760190       0.00515633       0.00218465       0.00020465      -4.24708949
Al       6.93319727      12.64106642       1.35219960      -0.00353371      -0.00200131      -0.00004180      -4.44264161
Ni       5.64333553      11.20894404       2.84747673      -0.00750646       0.00388765      -0.00164732      -6.03163344
Al       6.98942223      12.67057472       4.25529404       0.00464121       0.00116364      -0.00834877      -4.36733670
Ni       5.50502078      11.18938822       5.58352487      -0.00469876      -0.00323435       0.00309885      -6.08910265
Al       7.02184708      12.58319979       6.96747095       0.00751869       0.00246432       0.00581854      -3.90993854
Al       6.95896163      12.63576081       9.70890056      -0.00728942       0.00026751      -0.00286093      -4.08432603
Al       7.01569829      12.60597219      12.56758244       0.00646371       0.00447231      -0.00759595      -4.20576758
Ni       8.46350109      -0.03943081       0.02954067       0.01893016       0.00097724       0.00634588      -6.18080998
Al       9.89699485       1.41898093       1.43255419       0.00077047       0.00579010      -0.00387964      -4.43342321
Ni       8.42330269      -0.03412281       2.79882137      -0.00035376      -0.00360011      -0.00296212      -6.14106873
Al       9.83071880       1.33369157       4.26652184       0.00681350      -0.01227648       0.00604331      -4.32862060
Al       9.88038275       1.37587714       7.00563806      -0.00039783      -0.00708804      -0.01461423      -4.34547198
Al       9.77003244       1.32204454       9.76430328       0.00348121      -0.00634993      -0.00507258      -4.46665130
Al       9.82100756       1.39158321      12.59792780      -0.00540802       0.00404798       0.00215302      -4.62059563
Ni       8.38386752       2.72002755      -0.04029421      -0.00550721      -0.00098772      -0.00021258      -6.12968444
Al       9.79433504       4.21202641       1.35451104       0.00818632       0.00361033      -0.01167634      -4.37321828
Ni       8.37424787       2.82149949       2.88005207      -0.00426720      -0.00479328      -0.00943010      -6.27144034
Al       9.86078652       4.19654707       4.28192463      -0.00128544       0.00677435       0.00283631      -4.14527608
Ni       8.37296063       2.77314874       5.68458723       0.00624923       0.00374718      -0.00174821      -6.07612789
Al       9.83542867       4.28489773       7.00010827       0.00557910      -0.00153318      -0.00575836      -4.27172731
Ni       8.41667823       2.76850515       8.33371931      -0.00534729      -0.01005971      -0.00537132      -6.15085394
Al       9.85635446       4.25835970       9.76938846      -0.00377310      -0.01068027       0.00221412      -4.66169403
Ni       8.41082967       2.86648244      11.21407050       0.00053452      -0.00447310      -0.00544757      -6.15955455
Al       9.87357243       4.21324995      12.63219366       0.01145517       0.00918757       0.00197453      -4.42612196
Al       9.87708031       6.95866786       1.48469046       0.01177253       0.00329084      -0.00352583      -4.12594652
Ni       8.42328205       5.59316517       2.88883468      -0.00182261      -0.00037165       0.00137712      -5.89481573
Al       9.83738386       7.00238985       4.31296039      -0.00279518      -0.00737807      -0.00374893      -3.96481583
Al       9.90353964       7.07095591       7.06041068      -0.00541428       0.00011123      -0.00842840      -3.71192344
Ni       8.36943101       5.70758911       8.44214437      -0.00801743       0.00311984       0.00089572      -6.03844504
Al       9.85662891       7.11465583       9.84579253       0.00174316       0.00395333      -0.00555955      -3.94511288
Ni       8.45607053       5.63775245      11.14616937       0.00079870       0.00342963      -0.01251378      -5.99771399
Al       9.79935055       7.00156021      12.68594352       0.00142034      -0.00155093       0.00208222      -3.98922285
Al       9.80575416       9.72603541       1.45441814       0.00978579      -0.00471792       0.01119660      -4.24905615
Al       9.85925742       9.86948316       4.25514270       0.00043980       0.00031440       0.00062054      -4.11715571
Al       9.86763221       9.82202695       7.05318933       0.00587001      -0.00016430       0.01010629      -3.97234734
Al       9.84621149       9.79814827       9.87103201      -0.01287615       0.00560023       0.00493585      -3.65441802
Al       9.83280005       9.74819092      12.62090960       0.00279409       0.00465436       0.00784073      -3.67277728
Ni       8.44420467      11.21671343      -0.00262167      -0.00052545       0.00579260       0.00750147      -5.99262761
Al       9.92195341      12.59171200       1.41156903       0.00407281       0.01061215      -0.00667689      -4.41981956
Ni       8.36260530      11.24129740       2.74776879      -0.00708739      -0.00144276       0.00079972      -6.07174359
Al       9.82447590      12.57715808       4.20995558       0.00210588       0.00039116       0.00064188      -4.44125362
Al       9.81781426      12.62028533       7.12744365      -0.00717954       0.00514695       0.00433504      -4.27153039
Ni       8.41718682      11.20521169       8.47772951      -0.00191103      -0.00678441       0.00466842      -5.76141523
Al       9.80060216      12.59425216       9.88085507      -0.00455291       0.01167935      -0.00084918      -4.06211375
Al       9.84144729      12.54680536      12.59292529       0.00556682      -0.00409363       0.00253807      -4.31534839
Ni      11.26193549      -0.02792584      -0.08089849      -0.00213856      -0.00783149      -0.00500128      -6.15014171
Al      12.60424564       1.41920310       1.42080130      -0.00284061      -0.00912284       0.00370398      -4.41242928
Al      12.61581170       1.35252828       4.24519824      -0.00240698      -0.00715920       0.00277332      -4.30157873
Ni      11.21877579      -0.12136737       5.67548848      -0.00437063       0.00881867      -0.00732733      -5.92302568
Al      12.58527891       1.39654982       6.92556963      -0.00235227      -0.00470764      -0.00320708      -4.34742089
Al      12.68918118       1.30074661       9.73857154       0.00384675      -0.00441674      -0.00117401      -4.37116514
Ni      11.23447312      -0.01176360      11.20468947       0.00336730      -0.00207924       0.00654560      -5.99385184
Al      12.66497900       1.45340542      12.60272472       0.00272103       0.00566909      -0.00688214      -4.46839812
Al      12.57989751       4.18690505       1.48886856      -0.00651340       0.00122076      -0.00452096      -4.32622678
Al      12.58146794       4.30239467       4.22797014       0.00049295      -0.00899753       0.00045418      -3.89325003
Al      12.55673753       4.35069878       6.95689762      -0.00136452      -0.00051165       0.00042946      -4.14212716
Ni      11.28990625       2.85446077       8.43928847       0.00426849      -0.01091172      -0.00054313      -6.14916648
Al      12.69690160       4.27909446       9.81176666       0.00526018      -0.00528017       0.00585477      -4.14172125
Ni      11.22498683       2.73646826      11.09354980       0.00598407      -0.00242219      -0.00272350      -6.08212544
Al      12.57668494       4.15824142      12.55506261      -0.00421824      -0.00575202      -0.00416672      -4.31892425
Ni      11.28384802       5.61838537       0.00641794      -0.00633025       0.00065423       0.00723669      -5.91697233
Al      12.61451640       7.02581912       1.43404968      -0.01289272      -0.00845683      -0.00146229      -4.54291490
Al      12.65012370       6.99658920       4.37259608       0.00071171      -0.00238978      -0.00053650      -3.94182671
Al      12.65845203       7.07576256       7.07527217      -0.00117401       0.00282357       0.00539600      -3.37233264
Al      12.56541372       7.00332209       9.78047529      -0.00278568      -0.00141563       0.01103469      -3.68920381
Al      12.56393448       7.02706970      12.56723955      -0.00745648      -0.00408119      -0.00480366      -4.39054637
Al      12.55624283       9.81072020       1.37679058      -0.00774606      -0.00229579       0.00012037      -4.43570837
Ni      11.27704693       8.38383386       2.91403408       0.00744483       0.00804258      -0.00664582      -5.90884630
Al      12.61160082       9.85899352       4.27640438      -0.01000079      -0.00439378       0.00293815      -4.52948041
Al      12.65628968       9.79548213       7.10018534       0.00218262       0.00505116      -0.00208531      -3.93816340
Al      12.52358397       9.80419914       9.77629224      -0.00268000      -0.00095955       0.00829024      -3.92695514
Al      12.51739417       9.80206930      12.64152468      -0.00420721      -0.00579958       0.00557964      -4.25274924
Al      12.58551411      12.59875357       1.41531231      -0.00231813       0.00962036      -0.00887859      -4.40143823
Al      12.69754001      12.66354685       4.22862444      -0.00665691       0.01098587       0.00603031      -4.48622207
Ni      11.32652650      11.29348130       5.71718521      -0.00097364       0.00221630       0.00553499      -6.02148132
Al      12.76006403      12.69274455       7.13098198       0.00313009       0.00257338       0.00886053      -4.12939031
Al      12.62431085      12.56345192       9.80324259      -0.01027849      -0.00307001       0.00692809      -3.91118005
Al      12.65449766      12.59745760      12.54853271       0.00250140       0.00677387       0.00168062      -4.47665176
