184
Lattice="14.082042414769044 -0.0024154547474001162 0.01591303357805246 -0.002417003402636449 14.072268019674645 -0.0036714363881149904 0.01591881360664807 -0.0036711353947562757 14.047257434035334" Properties=species:S:1:pos:R:3:forces:R:3:energies:R:1 rep=5 n_sites=250 energy=-891.191672062125 stress="-0.0006203883980741483 0.000284979230452602 -0.0009546017673708587 0.000284979230452602 -0.00021796632222105422 0.00013533877817098065 -0.0009546017673708587 0.00013533877817098065 0.0008103500283476489" free_energy=-891.191672062125 pbc="T T T"
Al       1.38900753       1.50181281       1.40014494       0.00501865      -0.00031499       0.00495227      -4.47268203
Ni       0.03948547       0.04017088       2.84084580       0.00275358       0.00145475      -0.00031712      -6.14289422
Al       1.47544802       1.45441679       4.19757108      -0.00030463      -0.00193529       0.00631119      -4.48523010
Al       1.41283560       1.43714968       7.01824617       0.00339403      -0.00117384       0.00150375      -4.49038407
Ni       0.00892527      -0.00922233       8.44572177       0.00329049      -0.00260272       0.00091362      -6.11292869
Al       1.41637721       1.52842267       9.83542559      -0.00452487      -0.00373112       0.00433749      -4.54507789
Ni      -0.01463849       0.10744981      11.22792441      -0.00025308       0.00517276       0.00137700      -6.17824750
Al       1.42504731       1.49468864      12.65100807       0.00211221       0.00177638       0.00403188      -4.49317751
Al       1.44220081       4.20464053       1.37166344      -0.00126607       0.00428161       0.00403245      -4.24800419
Ni      -0.09037476       2.89541056       2.84578507      -0.00070887       0.00102267      -0.00524322      -6.20309324
Al       1.42443609       4.30407033       4.17847316      -0.00248413      -0.01005858       0.00216526      -4.53970317
Ni       0.02998386       2.83079465       5.54652764       0.00107533       0.00259100      -0.00368877      -6.02191231
Al       1.33255109       4.24562855       7.04974090       0.00224060       0.00870790       0.00706006      -4.58527820
Al       1.44441678       4.18702807       9.84703860      -0.00243383       0.00322610      -0.00680152      -4.59310995
Ni      -0.05011249       2.88557395      11.32926031       0.00262632      -0.00376109       0.00030890      -6.07188375
Al       1.48725026       4.22368677      12.68988276      -0.00352230       0.00280094       0.00428167      -4.33384919
Al       1.41702784       6.99127462       1.36989068      -0.00145367       0.00060537      -0.00232414      -3.95366866
Ni      -0.02475644       5.56844506       2.72635807       0.00163179      -0.00046681       0.00307997      -5.91211528
Al       1.42578542       6.97593283       4.17039160       0.00094939       0.00193623      -0.00574701      -4.12033331
Al       1.43288438       7.06219548       6.94044422       0.00202913      -0.00186386      -0.00474063      -4.37617819
Ni      -0.00016443       5.72688605       8.46110394       0.00369615      -0.01048248       0.00042223      -6.06386713
Al       1.41146274       7.08484376       9.83858800       0.00872325      -0.00371236       0.00664586      -4.57742789
Ni      -0.01773010       5.50744187      11.28688121      -0.00016046       0.00311776       0.00355308      -6.05905626
Al       1.29432976       7.04960955      12.70693628      -0.00265210       0.00727639       0.00034501      -4.10517974
Al       1.40733884       9.79106128       1.46526260       0.00268844      -0.00078875       0.00179466      -4.27702168
Al       1.40558103       9.77618212       4.25055632      -0.00128160      -0.00185386      -0.00186693      -3.94339759
Al       1.36026542       9.79764212       7.03360626       0.00160894       0.00075269       0.00056081      -4.16250840
Ni      -0.05690897       8.36876300       8.38252942      -0.00880926       0.00405472      -0.00765113      -6.01956406
Al       1.42507506       9.77996540       9.76058572       0.00634646       0.00269374       0.00729753      -4.30275726
Al       1.34867816       9.78648227      12.57607994       0.00406078      -0.00687241      -0.00271038      -4.36287579
Ni       0.09374441      11.18404245       0.02524262      -0.00019412      -0.00118927      -0.00389395      -5.90811484
Al       1.38770248      12.71948503       1.36310232       0.00422887       0.00750047       0.00005069      -4.48523591
Al       1.45950282      12.61554272       4.22232262      -0.00335092      -0.00270750      -0.00392491      -4.17751394
Al       1.37519457      12.68675956       6.98927151       0.00185910       0.01031018       0.00384269      -4.25485460
Al       1.39691145      12.61249240       9.85337048       0.00127900      -0.00146379       0.00520038      -4.56406264
Al       1.38025052      12.68100834      12.60203138      -0.00240433      -0.00212547      -0.00426287      -4.54026775
Ni       2.86778345       0.11205628      -0.03839373       0.00768091      -0.00223075       0.00430691      -6.24835642
Al       4.32419315       1.45966395       1.41600142       0.00378797      -0.00139455      -0.00008646      -4.34217590
Ni       2.81756189       0.00897095       2.74974493       0.00253954      -0.00344111       0.00193921      -6.13157187
Al       4.18620917       1.46062669       4.23622473       0.00377859       0.00259855      -0.00279452      -4.33377886
Al       4.23993530       1.43140160       6.92709286       0.00173983      -0.00170518       0.00948146      -4.53985397
Ni       2.82368754       0.02210139       8.48969713       0.00064215       0.00450558       0.00104160      -6.25368918
Al       4.25583834       1.44038201       9.91365285      -0.00099013       0.00519069       0.00162117      -4.42650658
Ni       2.82766153      -0.01069512      11.27784693       0.00074763       0.00147893       0.00070873      -6.16226495
Al       4.35383478       1.47117562      12.60009775      -0.00197319       0.00196733       0.00368109      -4.06939361
Ni       2.90640236       2.82457150       0.02886736      -0.00046961       0.00266238      -0.00205621      -5.91092708
Al       4.28700755       4.27423047       1.42377964       0.00014413      -0.00615078       0.00037910      -3.69818538
Al       4.34881473       4.26335353       4.14307817       0.00036983       0.00893928      -0.00002426      -3.94914657
Ni       2.81265106       2.95483514       5.60576903      -0.00029201       0.00254804      -0.00628441      -6.06454436
Al       4.36510380       4.26321117       6.97664911       0.00283941       0.00146945      -0.00047649      -4.59928167
Ni       2.92561886       2.85144563       8.38892506      -0.00621605       0.00053307       0.00153635      -6.16925262
Al       4.27307107       4.28392942       9.91921810       0.00531726      -0.00382097      -0.00341478      -4.46448846
Al       4.24166870       4.29822438      12.64862327      -0.00843233      -0.00326594      -0.00042094      -3.93865578
Al       4.23413501       6.98048897       1.45253879      -0.00195054      -0.00192345      -0.00144808      -3.72539149
Al       4.26501103       7.07161458       4.23036377       0.00183498      -0.00044992      -0.00008986      -3.98284238
Ni       2.89687413       5.61210738       5.62031271      -0.00085994      -0.00059477      -0.00049791      -5.99105348
Al       4.28145305       7.04567206       6.97781480      -0.00105692       0.00423794      -0.00729656      -4.35729163
Ni       2.84914803       5.60307145       8.40174808      -0.00192293      -0.00079223       0.00289622      -6.25125457
Al       4.28526364       7.06879988       9.84730053      -0.00408974      -0.00294445       0.00077998      -4.54544271
Ni       2.81688231       5.76615899      11.27327159      -0.00085079       0.00290450       0.00036543      -6.06399289
Al       4.20034373       7.05142507      12.81352639       0.00114420      -0.00557381       0.00459814      -3.93337697
Al       4.18523044       9.80690172       1.39693702      -0.00465497      -0.00580208       0.00008666      -4.39583607
Ni       2.83225737       8.39927721       2.79362831      -0.00308217       0.00775102      -0.00164256      -5.77594010
Al       4.21982538       9.87874316       4.16399536       0.00046396      -0.00347609      -0.00389901      -4.15471902
Al       4.29495031       9.80223657       7.01126819       0.00502200       0.00064331       0.00085220      -4.23450104
Al       4.31949440       9.78320187       9.78757712      -0.00306501       0.00756476       0.00143343      -4.40911983
Ni       2.84372472       8.39520015      11.30041784      -0.00296482       0.00497345      -0.00108328      -6.07588479
Al       4.25792828       9.75461032      12.68670492      -0.00525624       0.00299816       0.00091378      -4.46601582
Ni       2.74116403      11.25076666      -0.04960000       0.00748942      -0.00130401      -0.00141313      -6.15991844
Al       4.21760916      12.64683039       1.35624815       0.00097160       0.00656743      -0.00034344      -4.62609659
Al       4.20072668      12.58496175       4.23088664       0.00387421       0.00246906      -0.00631555      -4.40709943
Ni       2.79557272      11.19121097       5.70592046      -0.00097968      -0.00265120      -0.00132882      -5.91599315
Al       4.22972974      12.72412064       6.95773263       0.00466653       0.00648455       0.00556414      -4.49420081
Ni       2.84327596      11.26809372       8.36067501       0.00562042      -0.00640250       0.00363931      -6.13865052
Al       4.32243215      12.64158162       9.83064172       0.00218305       0.00681681      -0.00337453      -4.54968048
Ni       2.90054816      11.14485472      11.18386877       0.00250268      -0.00139448       0.00277147      -6.24447348
Al       4.28830806      12.67849658      12.64969004      -0.00040766       0.00458451      -0.00140899      -4.60721788
Al       7.04642032       1.39452827       1.44109498      -0.00026967      -0.00071715       0.00093333      -4.20134768
Ni       5.57681296      -0.02141245       2.87006148      -0.00040461      -0.00551803      -0.00101083      -6.07656505
Al       7.08496739       1.47572485       4.15328250      -0.00325959      -0.00042515      -0.00006736      -4.34930698
Ni       5.71724080       0.03931829       5.53990898       0.00051917       0.00201857      -0.00508993      -6.14261625
Al       7.06905523       1.51785689       6.99638846      -0.00225459      -0.00033674       0.00381092      -4.43630120
Ni       5.67958041       0.10399592       8.41739005       0.00403613       0.00035909      -0.00319862      -6.17692261
Al       7.10012543       1.45170108       9.90174542      -0.00246616      -0.00149639       0.00126814      -4.34928345
Al       7.04242453       1.26990391      12.73792182       0.00172305      -0.00737158      -0.00059749      -3.89529363
Al       6.98067273       4.25127493       1.49674548      -0.00233844       0.00536040       0.00272714      -4.14578546
Al       7.10231569       4.30622400       4.26087875       0.00127909      -0.00339849      -0.00809880      -3.67737809
Al       7.11290633       4.18822280       6.97750756       0.00283861       0.00270833       0.00247962      -4.10375017
Ni       5.63452186       2.86023227       8.47191141      -0.00180797       0.00109276       0.00089293      -6.13417094
Al       7.08078432       4.21539851       9.93467332      -0.00007490       0.00582020       0.00152555      -4.35807075
Al       6.90155820       4.19073428      12.68880730      -0.00248514       0.00045160       0.00140033      -4.13904376
Al       6.91482294       7.02468815       1.40184475       0.00080559       0.00649760      -0.00127601      -3.70207197
Al       6.99472558       7.05445316       4.13491817      -0.00317336       0.00298135      -0.00219020      -3.38412754
Al       7.12756458       7.01077031       6.86027622       0.00417854      -0.00304975      -0.00003570      -4.09547870
Ni       5.78936668       5.67770959       8.44046000       0.00297345      -0.00041710       0.00580200      -6.26515032
Al       7.14540449       7.09809744       9.92697028      -0.00055998      -0.00209220       0.00027056      -4.11844852
Al       6.88238805       6.94352573      12.61508507      -0.00184331      -0.00015247      -0.00182172      -3.68936239
Al       7.12201261       9.73561103       1.39131229      -0.00506458      -0.00334646      -0.00183265      -3.96086179
Al       7.01840948       9.82038988       4.20295396      -0.00039821      -0.00012284      -0.00490599      -3.94315100
Al       7.06342766       9.77825863       7.00456021       0.00885835      -0.00318460      -0.00292713      -4.22742655
Ni       5.71285239       8.34197489       8.37156888       0.00522234      -0.00179903       0.00208861      -5.91981527
Al       7.04968322       9.85624282       9.81177514      -0.00501026      -0.00657666      -0.00274662      -4.10800036
Al       7.10071097       9.65419734      12.64043534      -0.00255126      -0.00193105      -0.00368502      -3.94141635
Ni       5.68547292      11.16450118       0.00289599      -0.00181642       0.00009111      -0.00107968      -6.13801552
Al       7.08296410      12.72661930       1.34621714       0.00038653      -0.00342511      -0.00697868      -4.09606006
Ni       5.70360371      11.23042140       2.67280843       0.00356414      -0.00417921       0.00649629      -6.00107316
Al       7.06973166      12.58609027       4.16386561      -0.00913195       0.00224357      -0.00460317      -4.53216684
Al       6.94467708      12.58885712       7.02444251       0.00126584      -0.00822206       0.00622095      -4.58861493
Al       7.00815826      12.63433129       9.87548006       0.00018728       0.00212947      -0.00297591      -4.33629994
Ni       5.70773740      11.20206661      11.36758447      -0.00228440      -0.00398487      -0.00243815      -6.00125831
Al       7.16300715      12.62255330      12.67057322      -0.00316303       0.00447274      -0.00446750      -3.86770217
Al       9.87567563       1.37007036       1.33412749       0.00139746       0.00066375       0.00569897      -4.32827384
Al       9.81607821       1.32072406       4.20471007       0.00735592       0.00422305      -0.00436374      -4.31207505
Ni       8.38836171      -0.02500455       5.64315161      -0.00075156       0.00291372       0.00172441      -6.06713266
Al       9.84486532       1.42791192       6.98098084       0.00518564      -0.00007674       0.00653261      -4.38817567
Ni       8.41065530      -0.05048831       8.42721630      -0.00301819      -0.00107916       0.00378001      -6.16553774
Al       9.81453756       1.39721590       9.93115390      -0.00221893      -0.00119108      -0.00070577      -4.42796897
Al       9.92835919       1.41910968      12.68451114      -0.00466248       0.00839675       0.00154081      -4.21848743
Ni       8.40455291       2.87195200       0.00455696       0.00379964       0.00019651      -0.00123792      -6.18294256
Al       9.90035497       4.28598052       1.36067662      -0.00464353       0.00161257       0.00207249      -4.37620185
Ni       8.52265671       2.86439158       2.76145312       0.00347098       0.00075206      -0.00098652      -6.02060068
Al       9.86425902       4.25556105       4.29071157       0.00153535      -0.00583772       0.00084176      -3.89796961
Al       9.86966619       4.23689916       7.02244029       0.00378727      -0.00542090       0.00044795      -3.92603422
Al       9.80628019       4.15176506       9.84944139       0.00171493      -0.00318780      -0.00573996      -4.13781795
Ni       8.41791428       2.79734481      11.41542857      -0.00037330      -0.00095562       0.00426675      -5.93804881
Al       9.84930616       4.33604622      12.60539708      -0.00199253      -0.00195789      -0.00035772      -4.12471749
Ni       8.34054252       5.61640951       0.02297712      -0.00153576      -0.00171676      -0.00057111      -5.91341449
Al       9.71068086       7.04286224       1.42628953      -0.00553319      -0.00515858      -0.00103925      -4.25922879
Al       9.73290262       6.97426665       4.19751500       0.00229139       0.00251095       0.00291294      -3.88741325
Al       9.86545325       7.00762310       7.03460618      -0.00328001       0.00299575      -0.00078039      -4.19177925
Ni       8.42657118       5.64335641       8.42366079      -0.00355182       0.00063360       0.00130479      -5.92479023
Al       9.88858190       6.96572934       9.85849282       0.00544114      -0.00302159       0.00938126      -4.20570970
Al       9.65769034       7.10059106      12.66276886       0.00137565       0.00400668       0.00429780      -4.24853944
Al       9.80843450       9.92616425       1.39585427       0.00101499      -0.00482295      -0.00320732      -4.08209397
Al       9.75892245       9.82991174       4.17812083       0.00220298      -0.00119803      -0.00688723      -4.45697039
Al       9.85409927       9.76579770       7.01742677       0.00448540       0.00184469       0.00214406      -4.58375364
Al       9.78043818       9.80846705       9.86312455      -0.00026057      -0.00207961       0.01247286      -4.45612014
Al       9.77264948       9.94166282      12.73821392      -0.00243402      -0.00102512       0.00017831      -4.06700699
Al       9.81425494      12.67324545       1.38633211      -0.00404331      -0.00124755       0.00187925      -3.89134640
Al       9.87422747      12.70880906       4.24496440       0.00202142      -0.00661551       0.00203685      -4.49407959
Ni       8.46424235      11.23672689       5.65367032       0.00299991      -0.00440997       0.00352712      -6.04588275
Al       9.93198645      12.70291505       7.00279061      -0.00437058      -0.00440001      -0.00251979      -4.66922798
Ni       8.48375830      11.26285628       8.39119473      -0.00444842      -0.00433184      -0.00810276      -6.04946125
Al       9.83290113      12.67694704       9.87592027      -0.00310086      -0.00240360       0.00156295      -4.61531099
Al       9.85108751      12.67774725      12.73875442      -0.00130921       0.00067257       0.00068929      -3.86515234
Al      12.68956550       1.41629766       1.37475739      -0.00026834       0.00211143       0.00600060      -4.24702728
Ni      11.34693198      -0.05622341       2.76488042      -0.00022383       0.00719608      -0.00121740      -6.14348134
Al      12.62949844       1.39890820       4.29576663       0.00142538       0.00192438      -0.00630898      -4.44153129
Al      12.73749753       1.44399001       7.00794501      -0.00206680      -0.00215817      -0.00179276      -4.31764334
Ni      11.30303722       0.08498671       8.47898950       0.00437405      -0.00602160      -0.00294080      -6.24443994
Al      12.65169999       1.50892990       9.89227435       0.01018646      -0.00546149       0.00530630      -4.57621755
Ni      11.32184137      -0.08280816      11.33393183       0.00017701      -0.00217748      -0.00084667      -6.05506608
Al      12.65885189       1.41621768      12.76963006       0.00650109       0.00124976      -0.00774038      -4.10847569
Al      12.58356421       4.21907288       1.37457652       0.00317495       0.00088357      -0.00567574      -4.09653747
Ni      11.17889289       2.78066166       2.83193468      -0.00158139      -0.00191211       0.00214786      -6.15328132
Al      12.58933892       4.27250714       4.28396049      -0.00477510      -0.00367394      -0.00229873      -4.26257679
Al      12.69699507       4.21576206       7.04474036      -0.00202820       0.00389501      -0.00011700      -4.11259133
Ni      11.22807026       2.78093992       8.41091599      -0.00138912      -0.00425090       0.00068628      -5.90031320
Al      12.61977134       4.21266965       9.80193710      -0.00058256       0.00785885      -0.00157085      -4.38657186
Al      12.54632384       4.20805810      12.73744124      -0.00151149      -0.00399149       0.00242992      -3.91455223
Al      12.65965957       6.99969203       1.38331916      -0.00392185       0.00320874      -0.00370939      -4.22311840
Al      12.72421292       7.01620688       4.14576396      -0.00419312       0.00153679      -0.00227649      -4.22984370
Al      12.65662183       6.95565358       6.94003311      -0.00804991       0.00183878      -0.00509131      -4.33533457
Al      12.67925095       7.04210011       9.97812673      -0.00490106       0.00879104       0.00188928      -4.49378008
Al      12.61776038       6.96411994      12.67152071       0.00223001      -0.00249107      -0.00146571      -4.18112782
Ni      11.19649034       8.39934350       0.03109583       0.00077281       0.00187118       0.00511753      -6.07236710
Al      12.67590178       9.86194997       1.40189950      -0.00889402      -0.00207727      -0.00164594      -4.32079512
Ni      11.19763733       8.44217808       2.77154719       0.00337655       0.00251883      -0.00135385      -6.13172892
Al      12.76780783       9.81460632       4.16878470       0.00010736      -0.00411410      -0.00626656      -4.22904609
Ni      11.24616775       8.36964149       5.50405174       0.00139098      -0.00166767       0.00083299      -6.10431834
Al      12.71981789       9.81595298       6.98005677       0.00194729      -0.00663664       0.00307227      -4.41523160
Ni      11.33220395       8.42538868       8.46502676       0.00273570       0.00312053       0.00414497      -6.15879078
Al      12.74932219       9.84323320       9.90240522       0.00092455       0.00286132       0.00004025      -4.44118216
Ni      11.18094484       8.48228035      11.36691627      -0.00358470       0.00013677       0.00301728      -6.12813489
Al      12.68155450       9.85677571      12.72072294      -0.00637238      -0.00277933      -0.00799823      -4.30943626
Al      12.76035229      12.60760173       1.40082931      -0.00683849       0.00144511      -0.00711539      -4.31659303
Ni      11.25895382      11.29393619       2.86167550      -0.00360178       0.00472074      -0.00485170      -6.13895306
Al      12.76251131      12.65127284       4.28352556      -0.00304672       0.00030328      -0.00057913      -4.27295881
Ni      11.28860835      11.17402051       5.57961125      -0.00475450      -0.00091215      -0.00553852      -6.16390830
Al      12.69162777      12.64308055       7.02140718       0.00904030       0.00147866       0.00256369      -4.27454643
Ni      11.24262138      11.20745919       8.44608642       0.00310828      -0.00296623      -0.00002952      -6.24565075
Al      12.72190890      12.61310526       9.84731625       0.00090847       0.00031302       0.00113772      -4.56172581
Ni      11.23490155      11.24798315      11.26409178      -0.00242499       0.00026880       0.00664273      -6.13590901
Al      12.77521764      12.59428408      12.68304272      -0.00505680       0.00324653       0.00292600      -4.33375669
