128
Lattice="11.541839235869183 0.0033607680081716254 0.010771860504438156 0.0033656675663713046 11.617841987308301 0.0013582458215115325 0.010634869476213437 0.0013147911446223675 11.196245905817001" Properties=species:S:1:pos:R:3:forces:R:3:energies:R:1 energy=-708.4770424135857 stress="0.0004963504094948958 -4.1356137293020934e-06 0.0006584725753730344 -4.1356137293020934e-06 -8.116777056674612e-06 3.1200498004373484e-05 0.0006584725753730344 3.1200498004373484e-05 0.0005322212874762736" free_energy=-708.4770424135857 pbc="T T T"
Ni      -0.01215909      -0.17716114      -0.03148434      -0.00327340       0.00386753       0.00308590      -6.15207571
Ni       1.40975979       1.37585939       1.38105859      -0.00324666       0.00392570      -0.00116226      -5.83950070
Ni      -0.07782686      -0.11218585       2.81479734       0.00412497      -0.00553891       0.00565545      -5.98377015
Al       1.46466369       1.38190141       4.02338498      -0.00198710       0.00083860       0.00247200      -4.88014025
Ni       0.05856182       0.07359067       5.56642980      -0.00353085       0.00028529      -0.00662779      -6.01977922
Al       1.50477618       1.39493014       7.01857765      -0.00889087      -0.00602131      -0.00116063      -4.68356954
Ni       0.13072175      -0.01072705       8.44853953       0.00322145       0.00972660       0.00021053      -6.16636912
Al       1.58641129       1.39028725       9.97717548      -0.00387946       0.00371344      -0.01208106      -4.87613739
Ni       0.04584092       2.98785801      -0.06051455      -0.00393559      -0.01087534       0.00415548      -6.03145684
Ni       1.34965781       4.60323090       1.33277694      -0.00361684       0.00077499       0.00438414      -5.69902132
Ni       0.07939999       3.00983620       2.80019580      -0.00084388       0.00132441      -0.00873811      -5.90680899
Ni       1.43746121       4.49527156       4.29943802       0.00687152      -0.00964631      -0.00380499      -5.74632579
Ni       0.15212382       2.76739910       5.57887164      -0.00603808      -0.00636608       0.00542541      -6.00652939
Al       1.38614556       4.46497473       6.91405950       0.00212277      -0.01099206       0.00228528      -4.97830149
Ni       0.17852601       2.83561266       8.47246497       0.00481920      -0.00206789       0.00289425      -6.15961970
Al       1.43506645       4.62148711       9.86577861       0.00139962      -0.00430973      -0.00169303      -4.91243490
Ni      -0.20770558       5.95539595      -0.12554703      -0.00108441       0.00421366       0.00304775      -5.95638014
Al       1.40748882       7.19048263       1.29190415       0.00007629       0.00520433       0.00845082      -4.91787418
Ni      -0.04198961       5.92910372       2.89933829       0.00893805       0.00114439      -0.00035329      -6.04258615
Al       1.47278744       7.30724213       4.34645397       0.01251940       0.00916670      -0.00759243      -4.96295555
Ni      -0.05213660       5.98425860       5.70669113       0.00611275       0.00712338      -0.00605371      -5.79592177
Ni       1.57382466       7.34739639       6.96564246       0.00305885       0.00155597      -0.00226448      -5.68630101
Ni       0.04040352       5.94348888       8.32786389       0.01369543      -0.00485494      -0.00062985      -5.84155011
Ni       1.51653880       7.30172184       9.78945567      -0.00557906       0.00290621       0.00859800      -5.79086864
Ni      -0.15053444       8.64567096      -0.01704725       0.00079470       0.00065503      -0.00195534      -6.14616078
Al       1.37644217      10.05692767       1.52137671      -0.00949969       0.00419775       0.00547194      -4.85274541
Ni      -0.10141366       8.60856969       2.84861656       0.00081205       0.00680879      -0.00022271      -6.16271861
Ni       1.40041968      10.05139438       4.22739120       0.00338704       0.00403976      -0.00304394      -5.78823711
Ni      -0.14694141       8.61363528       5.64776500      -0.00319932      -0.00281847       0.01044657      -5.79197731
Al       1.37178491      10.02541659       6.85505312       0.00532631       0.01260832       0.00300138      -4.97590057
Ni      -0.03177141       8.65085638       8.31730766       0.00931642       0.00084667      -0.01093289      -5.81685090
Al       1.42241572       9.91138871       9.79727443      -0.00287377       0.01374819      -0.00552838      -4.79559425
Ni       2.78974950      -0.27531932       0.04978643      -0.00625579       0.00029188       0.00997059      -5.93885974
Al       4.07126266       1.45630436       1.25252691       0.01400892       0.00590148       0.00481812      -4.90882969
Ni       2.91920640      -0.13543722       2.77313543       0.00345306      -0.00144047       0.00489340      -5.99138444
Al       4.19857175       1.47277188       4.09820070       0.00620397       0.00124330       0.01152920      -4.72267723
Ni       2.88818547      -0.02903249       5.56806140       0.00090325      -0.00142105      -0.00315032      -6.18573690
Al       4.23368908       1.42819744       7.13807952       0.00235744      -0.00252929       0.00120665      -4.80084155
Ni       2.78447387      -0.15136953       8.40470853      -0.00509403      -0.00512522       0.00515549      -6.14639148
Ni       4.18050919       1.38819278       9.87072434       0.00046644       0.00809356       0.00409597      -5.85716885
Ni       2.76210383       3.08723797       0.03185089      -0.00240284      -0.00153525       0.01006279      -5.89150680
Al       4.27021945       4.39079413       1.42022486       0.01291618       0.00162514       0.00239812      -4.77358694
Ni       2.76096458       3.01664196       2.72952288       0.00654707      -0.00077861      -0.00224835      -5.90212889
Al       4.19532936       4.34714819       4.17877816       0.01491674       0.00041183       0.00250064      -4.79109638
Ni       2.85103122       2.86467951       5.61535619       0.00649602      -0.00109742      -0.00799109      -6.17742337
Al       4.39300234       4.27920892       7.01381725      -0.01191153      -0.00919859      -0.00058162      -4.81159247
Ni       2.79801198       2.98910648       8.42346022       0.00089411       0.00627301      -0.00195462      -6.15640111
Al       4.31756151       4.29186328       9.82298850      -0.00702480       0.00121636      -0.00503629      -4.78251307
Ni       3.04682835       5.88183107      -0.00085612       0.00429406       0.00066765      -0.00109071      -5.96141567
Al       4.41436670       7.25013940       1.43470514       0.00565508      -0.00219493      -0.00558128      -4.69950831
Ni       2.87829805       5.89957769       2.81441865      -0.00610373       0.00223010      -0.00059564      -6.04255737
Al       4.39696229       7.24499243       4.21103850       0.00661579      -0.00590127      -0.00222364      -4.74123439
Ni       3.03134294       5.84430816       5.65408127      -0.00006764      -0.00311189       0.00398598      -6.00090219
Al       4.46737323       7.29725409       7.00715406      -0.00438791       0.00308708      -0.00339910      -4.86629758
Ni       2.97452208       5.81288985       8.35529314      -0.00393906      -0.00290026       0.00712861      -6.06597352
Al       4.33476203       7.30593476       9.76885982       0.00567470      -0.00360673       0.00619830      -4.79012499
Ni       2.97683154       8.70159962       0.06950250       0.00227556      -0.00355946      -0.00032855      -6.14806732
Al       4.41388591      10.11629252       1.42331611       0.00385182      -0.00599412      -0.00309323      -4.70333388
Ni       2.94094430       8.65572390       2.80846085      -0.00303360      -0.00199689      -0.00695878      -6.15584668
Al       4.44478921      10.19714642       4.15591266       0.00659567       0.00776414       0.00129081      -4.80115006
Ni       3.08128596       8.75932551       5.57099441       0.00578358      -0.00116953      -0.00465086      -5.99766200
Al       4.37699202      10.23311921       6.99383633      -0.00217416      -0.00517810       0.00320674      -4.72286227
Ni       3.01015824       8.77127881       8.36438178      -0.00174737       0.00446457      -0.00268833      -6.03221471
Al       4.38122330      10.26254939       9.82775139      -0.00285157       0.00439145      -0.00256370      -4.78760642
Ni       5.81367172       0.04426301       0.07428308       0.00014682       0.00821563      -0.00019932      -6.12385424
Al       7.29915916       1.50907987       1.40962429       0.00465025      -0.00536975      -0.00690607      -4.63216518
Ni       5.69307203       0.16208818       2.70575759      -0.00817326      -0.00582137       0.00154796      -6.11718634
Al       7.23847133       1.40864267       4.16875386      -0.00564422       0.00652055       0.00180681      -4.78944837
Ni       5.69900091       0.13952827       5.60525237       0.00540690       0.01564614       0.01105182      -6.15333379
Al       7.18464731       1.59888388       6.98717310      -0.00306199      -0.01102532       0.00114925      -4.80786330
Ni       5.82554820       0.05162596       8.40649171       0.01061712      -0.00260644      -0.00929599      -6.16584793
Al       7.21760939       1.47849898       9.85124728       0.00263707      -0.00102800      -0.00387007      -4.72509888
Ni       5.75178460       2.88301259       0.04481906      -0.00724303      -0.00358833       0.00146210      -6.12002687
Al       7.23086102       4.32912230       1.38468483      -0.00157140       0.00443225       0.00520715      -4.65463454
Ni       5.73692289       2.89425871       2.76994572      -0.00532316       0.00103355      -0.00600213      -6.28211853
Al       7.19574245       4.24569865       4.32868235      -0.00506216       0.00211337      -0.01548291      -4.76738190
Ni       5.61087549       2.79325406       5.50410921      -0.00824327      -0.00666494       0.00983807      -6.11873676
Ni       7.08588054       4.15931716       7.00523387       0.00074028       0.00260365      -0.00346799      -5.72877106
Ni       5.67511478       2.79875308       8.51356266      -0.00188368       0.00166674      -0.00750652      -6.00979569
Al       7.20305819       4.28130347       9.70730102       0.00383237       0.00770439       0.00770372      -4.79249199
Ni       5.81309197       5.80060386      -0.03066548      -0.00981354      -0.00019423      -0.00666781      -6.30457700
Al       7.25575380       7.20816787       1.41469462      -0.00981729      -0.00040857       0.00343635      -4.64442755
Ni       5.84182492       5.75183802       2.84713378      -0.00193534       0.00272099       0.00196614      -6.29800768
Al       7.23416937       7.23228697       4.39239935      -0.00756048      -0.01045042      -0.00249012      -4.84629321
Ni       5.73868687       5.71389058       5.59881485      -0.00877439       0.00987207      -0.00125590      -6.05683877
Ni       7.17823970       7.25061687       6.99384777      -0.00437905      -0.00822808       0.00275804      -5.73417052
Ni       5.74766081       5.74674737       8.41258904      -0.00275601      -0.00479937       0.00398475      -6.04123822
Al       7.22882883       7.23883270       9.62974341       0.00873718      -0.00184253       0.00131350      -4.80312170
Ni       5.86642400       8.70079307       0.00339156      -0.00648815      -0.00458184      -0.00831291      -6.28629349
Al       7.23793222      10.21479863       1.53734628       0.00153911      -0.00059105       0.00052860      -4.77004726
Ni       5.87523734       8.63607748       2.83340487       0.00499935       0.00511456       0.00901574      -6.12165219
Ni       7.21178961      10.33248298       4.17719329      -0.00527248      -0.00750435      -0.00332994      -5.82104788
Ni       5.78633538       8.79786148       5.57904831      -0.00531339      -0.00629269       0.00158698      -6.00341949
Al       7.26033078      10.27627236       6.87041556      -0.00990922       0.01163168       0.00994124      -4.90625147
Ni       5.81394936       8.84595685       8.41137093      -0.00685535      -0.00503835      -0.00094352      -6.17364348
Al       7.23930977      10.24349084       9.83479863       0.00677236      -0.00216167      -0.00124803      -4.68099638
Ni       8.71966369       0.01798195       0.03762200       0.00765507      -0.00210822      -0.00375543      -6.28626583
Al      10.31238111       1.48713230       1.39125003      -0.00346628       0.00119284      -0.00504711      -4.79167256
Ni       8.78349703       0.08644389       2.76717967      -0.00147939      -0.00885586       0.00097635      -6.12659384
Al      10.18210424       1.50555410       4.17511470      -0.00112102       0.00269266       0.00457813      -4.75430585
Ni       8.70340362       0.17471751       5.61576820      -0.00635912      -0.00806354      -0.00367397      -5.98167769
Al      10.19880585       1.46971485       7.04552171       0.00745339      -0.00046863      -0.00181972      -4.86084721
Ni       8.61931270       0.10038364       8.40298916       0.00319845       0.00311889       0.00211731      -6.16426175
Al      10.19138619       1.43968759       9.81926842      -0.00091680      -0.00360554       0.00069020      -4.72859595
Ni       8.76534300       2.94817026       0.00074267      -0.00275191       0.00072620       0.00488622      -6.28858603
Al      10.24595320       4.42329470       1.40582982      -0.00949582      -0.00223613       0.00064276      -4.78348761
Ni       8.75048199       2.96765995       2.80391042       0.00199750      -0.00025818       0.00465532      -6.28619801
Al      10.29058750       4.36840274       4.38393166      -0.00997439      -0.00669824      -0.00587323      -4.92166644
Ni       8.74729729       2.87414216       5.60234412       0.00475257      -0.00405761       0.00049952      -6.05263306
Ni      10.26117570       4.27099861       7.02892560      -0.00129356       0.00238296      -0.00345034      -5.75797319
Ni       8.71410343       2.85049852       8.42115725      -0.00198090       0.00624078      -0.01201054      -6.03884244
Al      10.16825710       4.37509024       9.61570243      -0.00322527       0.00452998       0.01207175      -4.83650532
Ni       8.64687335       5.76782957      -0.05870976       0.00772687       0.00156295      -0.00511764      -6.30052737
Al      10.00686956       7.23617836       1.44530798      -0.00021718      -0.00063352       0.00373823      -4.70510906
Ni       8.64195548       5.71540315       2.87460528       0.00515636      -0.00150672       0.00333607      -6.30061415
Al       9.97418667       7.21640481       4.37640791       0.00194406       0.00058512      -0.01196710      -4.85228909
Ni       8.61913927       5.62232027       5.69319931      -0.00158123       0.00596799      -0.00181316      -5.81225876
Ni       9.88851049       7.25896108       7.03657132       0.00334963      -0.00121907      -0.00874622      -5.65922218
Ni       8.57669125       5.64679893       8.31228424       0.00227057      -0.00555690      -0.00084952      -5.78696456
Al      10.00516007       7.27955232       9.58467207      -0.00972981      -0.00466581       0.01108561      -4.87893041
Ni       8.61066246       8.70551732      -0.02388479       0.01034904      -0.00589285      -0.00431064      -6.28913864
Al      10.06301592      10.09677276       1.43000830      -0.00008188       0.00058816       0.00039817      -4.69418711
Ni       8.61618582       8.67160629       2.87754785       0.00357166       0.00079768       0.00759147      -6.14068498
Al      10.07903649      10.18071239       4.33882358      -0.00054808       0.00160080      -0.00602312      -4.94562432
Ni       8.62029806       8.78601397       5.61974338       0.00095115       0.00304586      -0.00538193      -5.75827210
Ni      10.12353623      10.25885385       7.01385549      -0.00312510       0.00314078      -0.00114560      -5.79350113
Ni       8.55277079       8.84931229       8.35574998      -0.00026801       0.00092079      -0.00187566      -5.88295370
Al      10.09421529      10.16075732       9.65200527      -0.00579179       0.00154693       0.00822952      -4.81451113
