156
Lattice="13.500171384684167 -0.03889117590080054 0.08008101982311956 -0.03820674223812925 13.594834687081642 -0.06909146415637014 0.08009228984732145 -0.06978153187266752 13.53569190639722" Properties=species:S:1:pos:R:3:forces:R:3:energies:R:1 rep=5 n_sites=250 energy=-687.0592962538647 stress="0.0003471568389441747 0.00028617775304951286 0.0001302691577224996 0.00028617775304951286 0.0003325265380944373 0.000369808290158654 0.0001302691577224996 0.000369808290158654 -0.0011022431862957424" free_energy=-687.0592962538647 pbc="T T T"
Al       1.22915019       1.31957735       0.35398808      -0.00223440      -0.00563380      -0.00172338      -3.84397587
Al       0.85816064       0.83017197       3.07730913      -0.00378140      -0.00101062       0.00915848      -3.88782896
Al       1.24189707       1.30291838       5.94330556       0.00601326      -0.00565629       0.00241303      -3.80025151
Al       0.79153852       1.11434477       8.83252941      -0.00292192       0.00140963      -0.00242304      -3.87852601
Al       2.13051163       1.86541588      11.32029839      -0.00806883      -0.00296478       0.00433418      -3.60829457
Al       0.89490561       3.92675147       1.16813186       0.00506385       0.00691626      -0.00105536      -3.97922600
Al       0.87753549       3.51359799       3.90191036       0.00172474      -0.00189312       0.00232318      -3.89743756
Al       1.22069781       4.01869742       6.53044486      -0.00320493      -0.00680121       0.00124830      -3.77770983
Al       1.33760517       3.72702363       9.66473748       0.00612602      -0.00934340       0.00261113      -3.91737178
Al       0.69728265       4.75068545      12.14378618       0.00014316      -0.00163733       0.00705311      -3.91196258
Al       0.81518728       6.83727225       1.59720956      -0.01036131      -0.00136847       0.00481452      -3.96720538
Al       1.87177978       6.23586837       4.43533058       0.00738147       0.00003219       0.00224688      -4.02093627
Al       1.80757101       6.53304484       7.23312280      -0.00010925       0.00551413      -0.00349976      -4.38355266
Ni       0.05235965       5.25563336       8.42601256      -0.01046461       0.00363850      -0.00208999      -6.01746253
Al       1.34076321       6.61065726      10.01305263      -0.00236118       0.00740180      -0.00075691      -4.07142520
Al       1.48517935       7.52580593      12.54991262      -0.00360542       0.00118747      -0.00087909      -4.05760474
Ni      -0.45079539       8.60063848       0.25879455      -0.00042950      -0.00553639       0.00117571      -5.89441885
Al       1.05521093       9.74135430       1.69925401       0.00527153      -0.00492220      -0.00016752      -3.84247624
Al       1.92408213       9.37142444       4.18736704      -0.00345536      -0.00072946      -0.00314520      -4.03177909
Ni       0.43216904       8.00920304       5.57315592       0.00144726       0.00692491       0.00227476      -6.11835131
Al       1.66841002       9.54246901       7.09266127      -0.00562406      -0.00076807      -0.00410781      -4.15223629
Ni       0.23900991       8.00934999       8.27422233      -0.00732115       0.00722338       0.00711292      -5.97630297
Al       1.54122391       9.30222724       9.95887521       0.00671711      -0.00781778       0.00463650      -4.06478733
Al       0.88792244      10.27312451      12.54132580       0.01893635       0.00275055       0.00842205      -4.05395771
Al       1.63360027      12.28571789       0.73732444      -0.00527887      -0.00877401      -0.00227524      -3.62362711
Al       1.23785625      11.83549812       3.46243190      -0.00187288      -0.00657542       0.00869768      -3.63969444
Al       1.93839708      12.10255988       6.04069215      -0.00229480      -0.00078565      -0.00385807      -3.81494620
Al       1.63904605      11.90221363       8.76857384      -0.00141535      -0.00144442      -0.00554885      -4.08998882
Ni       0.02401646      11.15946670      10.47154875      -0.00328982       0.01034936       0.01176682      -5.76398202
Al       1.25709505      12.91300953      11.55901341       0.00489225      -0.00565576       0.00653163      -3.94373064
Al       3.86892925       0.93867685       1.09629685      -0.00142910       0.00233962      -0.00477896      -4.39020397
Al       3.50133155       0.84375098       3.84596222       0.00109472      -0.00064227      -0.00197760      -4.11296892
Al       4.19352935       1.64070960       6.30678470      -0.00176357      -0.00462470      -0.00649414      -3.77184657
Ni       2.66446404       0.24318324       7.63399267       0.00727854      -0.00146906       0.01086422      -5.76435228
Al       3.51290734       2.37401789       8.82031710      -0.00246421      -0.00284584       0.00032031      -3.76030858
Al       4.65153044       1.60960889      12.02744989       0.00133247       0.00132327       0.00005683      -3.81576707
Al       3.90603505       3.89572203       1.01720243       0.00245447      -0.00019528       0.01151283      -4.36938698
Ni       2.43587750       2.41706174       2.31148777      -0.00819220      -0.00683235      -0.00099521      -5.89637663
Al       3.63431324       3.83003037       3.99237140       0.00494781       0.00343814      -0.00370474      -4.19509967
Al       3.91973307       4.28525225       6.62917102       0.00311975       0.00488593       0.00000705      -3.83042541
Al       3.53303025       5.20906305       9.26688314       0.00402022       0.00359948       0.00360486      -4.06386720
Al       3.49851433       4.27231254      11.81871457       0.00247500      -0.00923312      -0.00359988      -4.00176648
Ni       2.31217973       5.57665799       0.12770022      -0.00993151      -0.00106051       0.01129601      -5.74919146
Al       3.51629729       6.41848693       2.04162148       0.00042209      -0.00757877      -0.00138395      -4.23078066
Al       4.61215103       6.35473945       4.66706890       0.00450238       0.00118928      -0.00182485      -4.19849409
Al       4.55343975       7.31124454       7.43379782       0.00075343       0.01092625      -0.00246585      -4.25004029
Al       4.32250086       7.98581802      10.30496186      -0.00846169       0.00513403      -0.00104214      -3.95539160
Al       4.16862262       6.82652865      12.77781248       0.00349167       0.00109420       0.00517851      -4.02538326
Al       3.71210435       9.09678379       1.72920948       0.00355712      -0.00079394      -0.00376059      -3.95984525
Al       4.63190081       9.01686542       4.42853605       0.00175910       0.00490766       0.00282244      -4.36900431
Ni       2.99023528       7.98211924       5.77935865       0.00422596      -0.01013625      -0.00159245      -5.88005483
Al       4.33109416       9.89534594       7.06686175       0.00035665      -0.00178229      -0.00045266      -3.97290717
Al       3.93354040      10.60918648       9.80860019       0.00285443      -0.00054145       0.00028242      -3.69373824
Al       3.50347223       9.56517597      12.48990846      -0.00435017      -0.00923501      -0.00027515      -3.66461961
Al       4.20634991      11.66880851       1.03301672       0.00633340      -0.00203190      -0.00129634      -4.11353480
Al       3.99104822      11.76606865       4.12396687       0.01312369      -0.01143486      -0.01127734      -4.20245101
Al       4.63455321      12.56239813       6.86458485      -0.00105008      -0.00000748      -0.00546013      -4.01124158
Al       3.66834087      13.47823284       9.71143458       0.00147813       0.00361263      -0.00395155      -3.90360022
Al       4.06614152      12.30356395      12.04540123      -0.00503252       0.00085784      -0.00794215      -3.86003768
Ni       5.66212381      -0.08656517       0.00130978       0.00289427       0.01539330       0.00719759      -5.99216186
Al       6.92705879       1.03402421       1.83245161       0.00195162      -0.00391488       0.01029979      -4.31763205
Ni       5.30329503      -0.42771292       2.65805736       0.00207949       0.00147548      -0.00330173      -6.07264873
Al       6.31225936       0.94534813       4.50700629      -0.00650270       0.00241652       0.00910665      -4.31088997
Al       6.77825413       0.69843933       7.13069445      -0.00388281      -0.00194889       0.00137932      -4.15170089
Al       6.17174040       1.29680249       9.77193453       0.00992071       0.00580344      -0.00052053      -3.82683298
Al       7.22166572       1.83767489      12.67759854       0.00177522       0.00787485      -0.00302026      -4.04631267
Al       6.87339913       3.68289092       1.34270542       0.00172008      -0.00243798      -0.00575721      -3.99085088
Ni       5.09571052       2.43402955       2.70538309      -0.00372403      -0.00161940      -0.00157594      -6.14023600
Al       6.70079620       3.55766320       4.14950075       0.00730565       0.00613366       0.00339546      -4.40247226
Al       6.69645091       3.58827146       6.87114608      -0.00837856       0.00620700       0.00169934      -4.36487426
Al       6.58177116       3.93624154       9.65500326      -0.00466174      -0.00340405       0.00371453      -4.38223206
Al       6.20270363       4.29284447      12.40682875       0.00373491      -0.01026507       0.00876981      -4.10023992
Al       6.53849851       6.31549378       0.94473819      -0.00036653      -0.00141472      -0.00702500      -4.00374161
Ni       5.38534143       5.04215072       2.72304972       0.00024764       0.00654276      -0.00452592      -6.03458523
Al       7.32192833       6.24628422       3.64880268      -0.00291653       0.00482460      -0.00063576      -4.26787770
Al       6.99117433       6.30030552       6.45119311       0.01128766      -0.01080109      -0.01036782      -4.01679978
Ni       5.51476339       5.29308914       8.05109750      -0.00092456      -0.01251330       0.00706782      -5.57868997
Al       6.84425155       6.86430672       9.22773147       0.01050692       0.00403709       0.00268828      -4.21086098
Ni       5.29194307       5.75557729      10.76745616      -0.01351599       0.00244989      -0.00431437      -5.98798110
Al       6.67823900       7.36397258      12.01876664      -0.00040834       0.00465139       0.00133216      -4.08341746
Al       6.44615420       9.11565365       0.80077467      -0.01174305       0.01009846      -0.00335826      -4.07881313
Ni       5.55855707       7.68493250       2.67070039       0.00529671      -0.00856073      -0.01003815      -6.08588031
Al       7.30464495       9.19646354       3.59997086       0.00983084       0.00285246      -0.00545120      -4.34187897
Al       6.96586328       8.93902719       6.50309842      -0.00149140      -0.00562709      -0.00388000      -4.00696061
Al       6.40419423       9.49661209       9.11348568      -0.00154620       0.01150187      -0.00442007      -3.84569913
Al       6.04413695      10.09856535      11.79071286      -0.00108545       0.00075323      -0.00479245      -3.87008869
Al       6.98403923      11.84896473       1.05614043       0.00741452      -0.00935364      -0.00245487      -4.34052686
Ni       5.51225837      10.51775057       2.67298320      -0.00676172       0.00071161      -0.00006360      -6.11249126
Al       7.13541325      12.05995296       3.78078823      -0.00094218      -0.00395746       0.00899624      -4.48630228
Ni       5.84806722      10.78108776       5.39767148      -0.00529958      -0.01641719      -0.01000781      -5.97841549
Al       7.37386937      11.61199724       7.13843723       0.00402115       0.00818316       0.00245307      -4.19309706
Al       6.07856264      12.20639765       9.30172186       0.00068439       0.00664281       0.00085988      -3.85961144
Al       7.06468213      12.90519362      11.61457501       0.00082002      -0.00932259      -0.01885133      -4.29692869
Ni       8.29923967       0.07913206       0.10207314       0.00515881      -0.00113845       0.00661578      -5.89439548
Al       9.31222410       2.14809931       1.45869623       0.00140689       0.00544163       0.00466080      -3.88561889
Al       9.39799086       0.81689937       3.86832536      -0.00869033       0.00239717      -0.00056747      -3.92340720
Ni       8.44005124      -0.45378008       5.61696647       0.00479933      -0.00609856       0.00095014      -6.00790276
Al       9.54810188       0.81553190       7.39487926      -0.00022599       0.00534768       0.00214138      -4.15660184
Al       8.95164571       1.25421875      10.37922977      -0.00492916       0.01067037       0.00090768      -4.07936279
Al      10.50684024       0.83594038      12.88304801       0.00062483      -0.00180104      -0.00161128      -4.16254079
Al       9.44598264       4.89433725       1.44352770      -0.00538106       0.00312934      -0.00242024      -3.69475809
Al       9.75100885       3.38416515       3.94976326      -0.00228419       0.00986295       0.00409579      -4.05654834
Ni       8.21050123       2.14960215       5.62957594       0.00529151       0.00507946       0.00205722      -6.09607072
Al       9.64179997       3.58261424       7.00725466       0.01284391       0.00529947       0.00489598      -4.39947266
Ni       7.96875324       2.32544445       8.43867441       0.00205839      -0.00138152       0.01118228      -5.87609054
Al       9.39794154       3.88825185       9.73796607       0.00191909       0.00194288      -0.00351099      -4.23923198
Al       9.02757799       3.85326109      12.46599828       0.00313626      -0.01287698       0.00382969      -4.06944303
Al       8.90445544       7.55679424       1.71252362      -0.00023090       0.00589270      -0.00147053      -3.88532060
Al      10.05516030       6.19242672       3.94402425       0.00173739       0.00175939      -0.00811414      -4.13659010
Ni       8.42137839       4.80370845       5.27566855      -0.00813866       0.00320164      -0.01158514      -5.88767336
Al       9.77405806       6.33532885       6.67738547      -0.00284063       0.01078928       0.01129014      -4.12289009
Al       9.45914142       6.59685574       9.55852357      -0.01006127      -0.00922790       0.00338334      -4.13290998
Ni       7.86783300       5.48152651      11.02770868      -0.00760820      -0.00374800      -0.00002408      -5.91663968
Al       9.39286334       6.56754580      12.55793578       0.00291637       0.00824203      -0.00114539      -4.33736532
Al       9.08305640      10.18655832       1.19918637      -0.00769566       0.00280486      -0.00357158      -3.78866114
Al       9.95150826       9.12399080       3.81101972      -0.00769721       0.00169766      -0.00372744      -3.97296089
Al       9.68590134       9.03174889       6.66310274      -0.00361469       0.00285865      -0.00333659      -3.92104062
Al       9.34007877       9.41408475       9.31863744       0.00231854      -0.00225327       0.00071350      -3.98839624
Al       8.72937864       9.27902807      12.10196990       0.00122275      -0.00373818       0.00110973      -4.23056714
Al       9.90836235      12.79570371       1.50812589       0.00208466      -0.00403476       0.00565149      -3.97129787
Al      10.03527766      11.83476904       4.02818379      -0.00260782       0.00186765       0.00962718      -4.00377109
Ni       8.43745796      10.56334944       5.27710295      -0.00123916      -0.00950476      -0.00676865      -5.97064733
Al      10.17257019      11.78370217       6.76378167      -0.00414994      -0.00255421       0.00495267      -4.00201159
Al       9.60402318      12.31662718       9.39566387      -0.00724791      -0.00245369      -0.00336980      -3.86227123
Ni       7.88501999      10.95704177      10.48790926      -0.00152892       0.00741340       0.00548400      -5.82118365
Al       9.46204882      11.87852618      12.24274161      -0.00391364      -0.00982939      -0.00057029      -4.02781516
Al      12.14452054       1.69652418       1.46324924      -0.00520571       0.00091669       0.00174206      -3.69020180
Al      12.07105824       1.60228219       4.31517605       0.00134919      -0.00950072      -0.00093875      -3.62615004
Al      12.18742496       0.63393426       6.90474437       0.00172175      -0.00041439       0.00678130      -3.51654314
Al      11.58331299       1.14013890       9.53934585       0.00082325       0.00390305       0.00402672      -3.90116549
Al      12.99586826       1.68694382      11.95056462      -0.00219729       0.00867551       0.00096655      -3.99496129
Al      11.95658156       4.29367262       2.48090308       0.00345481       0.00433460      -0.00052236      -3.75673164
Al      12.06809041       4.12898027       5.19923047       0.00637540       0.00085910       0.00069906      -3.61733274
Al      12.42647268       3.17226250       7.77171719      -0.00223889       0.00389262      -0.00412951      -4.11638217
Al      12.18684800       4.22280020      10.38823307      -0.00456650       0.00707761      -0.00184639      -4.34965432
Ni      10.80617754       2.59197519      11.35936118      -0.00824877       0.00050847       0.00336813      -5.78163258
Al      11.69566451       4.01369223      13.25002556       0.00432109       0.00627453       0.00660474      -3.90512879
Al      11.56797121       6.91754776       1.52075033      -0.00571084      -0.00504942      -0.00785225      -4.06746114
Al      12.81294476       6.50770107       3.95993431      -0.00401943      -0.00131181      -0.01242997      -4.04987736
Al      12.46750402       6.42640409       6.82316537       0.00313141      -0.00333093       0.01180646      -4.59243182
Ni      11.01332767       5.07747826       8.35232394      -0.00318292      -0.00294444      -0.01161397      -5.93264798
Al      12.08154407       6.82874485       9.64486827       0.01187127      -0.00481911      -0.01029760      -4.32678898
Al      12.20187673       6.83538508      12.35020860       0.00336446      -0.00147354      -0.00411472      -4.17683891
Ni      10.49776949       8.52864233       0.03528504      -0.00133686      -0.00231242      -0.00515898      -6.00813380
Al      11.74226112      10.19192417       1.56286018       0.00073105      -0.00257897       0.00641696      -4.06099409
Al      12.69380627       9.55408399       4.09326051       0.00893103       0.00665023      -0.00596078      -4.03182505
Ni      11.33017261       7.84155342       5.29507838      -0.00870352      -0.00184972      -0.00509447      -5.90055210
Al      12.36806825       9.44300320       6.85784761       0.00600088      -0.00286045       0.00144606      -4.17798325
Al      12.13209711       9.46200423       9.53397619       0.00900179       0.00532323       0.00041655      -4.12424767
Ni      10.62380208       8.17031114      11.01928055      -0.00585535       0.01291402       0.00237213      -5.89880312
Al      11.78903026       9.97597045      12.18331353      -0.00493071      -0.00602401       0.00065416      -4.34742232
Al      12.51542729      12.85234963       0.21141679      -0.00521400      -0.00717800      -0.00236052      -3.70019244
Al      12.25104951      12.71168863       2.89524224       0.00740064      -0.00306371      -0.00739785      -3.66030363
Al      12.70650619      11.94126273       5.52481349       0.00139901       0.00066609       0.00306072      -3.60351431
Al      12.33842211      12.04933254       8.51443013       0.00496299       0.00570564       0.00458017      -3.89513705
Al      11.81713296      12.61291114      11.15523469       0.00926902       0.00806402      -0.00853693      -3.90333044
