119
Lattice="11.463614951186425 0.0006720038827255783 -0.0008981111647817527 0.0006719987006754528 11.464796064771132 -0.0005187339664285613 -0.0008980782805232221 -0.0005187196234172196 11.46625619158827" Properties=species:S:1:pos:R:3:forces:R:3:energies:R:1 energy=-632.2494300279997 stress="0.00039919388832469174 -0.00010012862415436705 0.00012300979893930327 -0.00010012862415436705 0.00023688080127905845 3.419517363286517e-05 0.00012300979893930327 3.419517363286517e-05 6.780756329544541e-05" free_energy=-632.2494300279997 pbc="T T T"
Al       1.39256547       1.39108202       1.38470725      -0.00105882       0.00139886      -0.00074207      -4.53562913
Ni      -0.00902354      -0.03571161       2.87637589       0.00237964       0.01037083      -0.00490305      -6.20496632
Al       1.42424338       1.43354371       4.30683308       0.00187235      -0.00752088       0.00032271      -4.63587400
Ni       0.01634484       0.00513589       5.77349109      -0.00394682      -0.00407058      -0.00541881      -6.24753624
Al       1.47806018       1.46509725       7.21179521       0.00062580      -0.00121120      -0.00319980      -4.53135842
Ni       0.03772389      -0.02883054       8.59324707      -0.00009826       0.00530516      -0.00220069      -6.22169287
Al       1.44055852       1.41962932      10.04042084       0.00393703       0.01247133       0.00350337      -4.45383228
Ni      -0.00605030       2.89821272      -0.06283467       0.00208590      -0.00021718       0.01016686      -6.21429367
Al       1.42122633       4.31140215       1.41965621      -0.00079438      -0.00009775      -0.00140462      -4.64440831
Ni      -0.00847522       2.83486849       2.83354536      -0.00096553       0.00374759      -0.00048667      -6.24553644
Al       1.40393385       4.28776053       4.29210316       0.00364074       0.00912970       0.00049453      -4.63996801
Ni      -0.00729477       2.86312199       5.80382978       0.00022660       0.00356807      -0.01273272      -6.24870039
Al       1.47034877       4.27093981       7.21219539       0.00086025       0.00338322       0.00535836      -4.53780769
Ni      -0.00167231       2.84541521       8.63137826      -0.00253081      -0.00458147      -0.00085303      -6.20300090
Al       1.48670005       4.28416174       9.99960592       0.00319555      -0.01142580      -0.00446543      -4.54805540
Ni      -0.00732317       5.72402024      -0.04332828      -0.00502839      -0.00375175       0.00797391      -6.20997604
Al       1.39363822       7.20457107       1.39222327      -0.00269441       0.00198659      -0.00533396      -4.55463570
Ni      -0.00394200       5.76930984       2.83898148      -0.00098727      -0.01516065       0.00047519      -6.25289182
Al       1.41612881       7.18032083       4.30317619      -0.00017289       0.00037839       0.00682663      -4.64121232
Ni       0.01775593       5.72074485       5.77125982      -0.00682491       0.01026918      -0.00561021      -6.24966606
Al       1.47165136       7.20315078       7.20228267      -0.00651880       0.00675879       0.00712948      -4.56031122
Ni       0.04158053       5.75107895       8.62823516      -0.00455705      -0.00195288      -0.00051711      -6.26936670
Al       1.44577174       7.23525582      10.02202114      -0.00349774       0.01628210       0.00718070      -4.41582785
Al       1.40306748      10.02348306       1.39045315      -0.00831414      -0.00395020      -0.00441393      -4.43998895
Ni      -0.03651871       8.63223850       2.86318486       0.00368120      -0.00682709       0.01018021      -6.20184856
Al       1.44578304      10.02506298       4.31688585      -0.00475772       0.00066500      -0.00385508      -4.64195641
Ni       0.02405811       8.60601681       5.76800655      -0.00041871      -0.00678723       0.00364109      -6.24925713
Al       1.48611788       9.98517945       7.19542259      -0.00492380       0.00083712       0.00169790      -4.54429744
Ni      -0.04734848       8.62258863       8.60177762      -0.00036422       0.00475405       0.00200756      -6.13897471
Al       1.43880287       9.96673965      10.03731367      -0.00296047      -0.01215208      -0.00309749      -4.32669429
Ni       2.88504483      -0.04142556      -0.05157650       0.00063701       0.00342249      -0.00174935      -6.21957506
Al       4.30851605       1.41338833       1.41692479       0.00492924      -0.00184832      -0.00608376      -4.64913562
Ni       2.82367875      -0.00140488       2.83418674       0.01569481      -0.00561965       0.00593863      -6.25227223
Al       4.29084051       1.40990711       4.29118794       0.00139096      -0.00244597       0.00655583      -4.63811437
Ni       2.86851372       0.00261595       5.78161200      -0.00138856       0.00805528       0.00358842      -6.25770395
Al       4.26566731       1.46674585       7.20105934      -0.00267065       0.00121238       0.00344404      -4.53533663
Ni       2.87216272      -0.02515062       8.63365375      -0.00697787       0.00212156      -0.00079417      -6.21999827
Al       4.27889183       1.47210040      10.02048841      -0.00801979       0.00488212      -0.00247958      -4.54948342
Ni       2.85438519       2.85406343       0.04629258       0.00262431      -0.00054860      -0.01092636      -6.20582013
Al       4.31789475       4.34397398       1.44527799       0.00939585       0.00783350       0.00577202      -4.55120572
Ni       2.86691025       2.87028614       2.84622743       0.00756077       0.00355123       0.00750650      -6.25506495
Al       4.32192351       4.33341363       4.28476083       0.00896200       0.01004734       0.00488323      -4.42244389
Ni       2.88316676       2.88532576       5.69272029       0.01244295       0.00156770       0.00679690      -6.20990052
Al       4.29207374       4.29641800       7.14997827       0.00831115       0.00220587       0.00551250      -4.45304822
Al       4.25432900       4.27302930      10.02641962      -0.00890370      -0.00317940      -0.00521070      -4.55254506
Ni       2.85553051       5.77776842      -0.02106464       0.00169118      -0.00245859      -0.00657774      -6.27351799
Al       4.32667645       7.11811601       1.47255301       0.00680879      -0.00771489       0.00660678      -4.55392426
Ni       2.82163088       5.74407740       2.87348431       0.00798403       0.00473348      -0.00368573      -6.20365340
Al       4.33189199       7.12138951       4.26991092       0.00512469      -0.00262373      -0.00205214      -4.43468242
Ni       2.84298632       5.73043133       5.73918347      -0.00006076      -0.00055161       0.00875743      -6.21861229
Al       4.36397302       7.14572739       7.14163128       0.01005778       0.00754827       0.00999748      -4.33438010
Ni       2.91584860       5.76389970       8.57979957      -0.00150334      -0.00213309       0.00377254      -6.21543020
Al       4.30229695       7.20705547       9.99249587      -0.00085005       0.00681348      -0.00785822      -4.47431116
Ni       2.91166000       8.60474122       0.02811917      -0.00261666      -0.00637295      -0.00345956      -6.15091222
Al       4.30853807      10.04559527       1.44448401       0.00453088       0.00788003       0.00264789      -4.64776282
Ni       2.86117590       8.58239440       2.84568600       0.00531831      -0.00439403      -0.00535495      -6.26858262
Al       4.28846532      10.05897936       4.28036786       0.00127874      -0.00109823      -0.00086849      -4.64735049
Ni       2.93043388       8.56957513       5.70979480      -0.00779382      -0.00237959       0.00419127      -6.21406472
Al       4.30861940       9.99948103       7.20430315      -0.00121946      -0.01028688       0.01226916      -4.44869410
Al       4.32511428       9.97977756       9.99072105      -0.00150539      -0.00735827      -0.00725948      -4.45716525
Ni       5.75836225      -0.03413500      -0.04122893      -0.00403504      -0.00039493       0.00333278      -6.26808474
Al       7.15923184       1.43646359       1.42235629      -0.00502632      -0.00611766      -0.00357614      -4.64596711
Ni       5.75567510      -0.00372771       2.85468246      -0.01335821      -0.00020755      -0.00146273      -6.24507744
Al       7.17568307       1.42180746       4.29468662       0.00290584      -0.00552384       0.00276248      -4.63612470
Ni       5.73355397       0.00197855       5.76971780      -0.00175804      -0.00552376       0.00039031      -6.25900279
Al       7.19516171       1.46655841       7.21497093       0.00897855      -0.00096577       0.00019527      -4.54470729
Ni       5.71790508       0.04620576       8.61546193      -0.00375939       0.00066254      -0.00417839      -6.22263581
Al       7.18225988       1.47865330      10.00421789       0.01018769       0.00788202      -0.00092140      -4.56008575
Ni       5.72635459       2.90238894      -0.00795412       0.00199775      -0.00434859      -0.00902933      -6.26283864
Al       7.13933937       4.33220892       1.45767445      -0.00829881       0.00737199       0.00385868      -4.55022544
Ni       5.72828524       2.84856106       2.87672130       0.00018277       0.00009632       0.00249339      -6.19572741
Al       7.13595327       4.33322723       4.28516373      -0.00861997       0.00843566      -0.00271640      -4.42294279
Ni       5.72821101       2.84790293       5.73789202      -0.00269399      -0.00051941       0.01216305      -6.21626462
Al       7.15868054       4.31445844       7.15704113       0.00272491       0.00060375       0.00883164      -4.46664562
Ni       5.72657413       2.89852891       8.58227207      -0.00148504      -0.00250845      -0.00642730      -6.21217120
Al       7.20519873       4.26852904      10.00486496       0.00435732      -0.00938135      -0.00076337      -4.56052240
Ni       5.75886856       5.76361220      -0.05536670      -0.00272411      -0.00058240       0.00154522      -6.22830882
Al       7.17433627       7.16473175       1.43194965      -0.00803789      -0.00523086      -0.00257526      -4.47270010
Al       7.13505639       7.12929489       4.30112508      -0.01124150      -0.00671930      -0.00125583      -4.43961150
Al       7.07843138       7.16897364       7.16473681      -0.00902068       0.00113833      -0.00012432      -4.42943274
Ni       5.71068363       5.68088142       8.63279083      -0.00009090       0.00122403      -0.00594800      -6.16223319
Al       7.15276407       7.24109280      10.02783788      -0.00352952       0.01709210       0.00495196      -4.44775583
Ni       5.68544321       8.56840070       0.04497496      -0.00142725       0.00117872      -0.00736474      -6.15379855
Al       7.19682649       9.99883673       1.39770438       0.00040519       0.00088792      -0.01235153      -4.56819356
Ni       5.75894254       8.61891254       2.86722237      -0.00218239       0.00842573      -0.00558078      -6.21546053
Al       7.18252068      10.04987546       4.30522386      -0.00286130      -0.00019829       0.00303398      -4.64495617
Ni       5.70641465       8.61580591       5.68247758       0.00239906      -0.00466324       0.00292456      -6.14498074
Al       7.11787235       9.99872153       7.20567544       0.00096647      -0.00236155       0.00471567      -4.57641772
Al       7.14819526       9.94455576      10.03283681      -0.00007533      -0.01663644       0.00208155      -4.44314881
Ni       8.56438529       0.02262959      -0.03960164       0.00973679       0.00241649      -0.00016357      -6.15064491
Al      10.06079424       1.40056688       1.39211873       0.00109920      -0.00177721      -0.00087817      -4.54261848
Ni       8.62267288      -0.02045235       2.81935282      -0.00553764      -0.00479009       0.00275565      -6.26276269
Al      10.03178356       1.42604617       4.31102147      -0.00280348      -0.00367819       0.00092064      -4.63808522
Ni       8.57731647       0.02336872       5.78284279       0.00344853      -0.00146776      -0.00268027      -6.24860953
Al       9.99061699       1.44550089       7.22247092      -0.00396731       0.01043703      -0.00497936      -4.54323842
Ni       8.57255228      -0.07923395       8.65409419       0.01203499      -0.00187428      -0.00355847      -6.23268255
Al      10.02600922       1.41232201      10.02434910      -0.00421406       0.00502473       0.00553929      -4.46631883
Ni       8.61746974       2.85921251       0.03311605      -0.00438707       0.00329001      -0.00431399      -6.21201779
Al      10.03789644       4.30879279       1.42577556       0.00563539       0.00075058      -0.00372301      -4.63823754
Ni       8.60104868       2.87792550       2.85725797      -0.00518203       0.00803565       0.00199958      -6.25754287
Al      10.05583497       4.30029756       4.29819306      -0.00071768       0.00427811       0.00170116      -4.63927909
Ni       8.58424031       2.89155350       5.70695916      -0.00565810      -0.00169328      -0.00469023      -6.20674090
Al       9.99877345       4.29414854       7.22221412      -0.00718923      -0.00489550       0.00234048      -4.54988567
Al       9.98104912       4.29363096       9.97967048      -0.00497660      -0.00459250      -0.00123231      -4.55360158
Ni       8.58412908       5.71351289      -0.01113805       0.00510652      -0.00678859      -0.00292359      -6.22081056
Al      10.02891115       7.19959800       1.38048110       0.00196221       0.00615655      -0.01352147      -4.43903803
Ni       8.62962253       5.76220366       2.86730041       0.00500104      -0.00191421      -0.00586279      -6.21191899
Al      10.04602097       7.17288327       4.32945891       0.00004368      -0.00166471       0.00734063      -4.64533764
Ni       8.60482182       5.71807233       5.73960828       0.00184397      -0.00099843      -0.00172160      -6.20869328
Al      10.03806156       7.15326836       7.16397318       0.00679041       0.00129719      -0.00285585      -4.65868135
Ni       8.52881200       5.82082884       8.59560303       0.00691079      -0.00532575       0.00160000      -6.22500776
Al      10.02230589       7.18973924      10.05658140      -0.00137011       0.01463979       0.01192249      -4.47214926
Al      10.02548076      10.02141347       1.36188597      -0.00031806      -0.01014155      -0.01347179      -4.27032243
Ni       8.60936081       8.58131414       2.88498846      -0.00076483      -0.00384642      -0.00035489      -6.21822578
Al      10.01359502      10.03560482       4.34405136       0.00444175      -0.00259693      -0.00211062      -4.64770238
Ni       8.54157851       8.57033907       5.76203141       0.00190109       0.00276886      -0.00005454      -6.26489023
Al      10.01880146      10.03940806       7.15831369       0.00148444      -0.00576427      -0.00728153      -4.64918459
Ni       8.63212765       8.59004443       8.57911655       0.00304789       0.00470607       0.00493575      -6.15699252
Al      10.04135692      10.01944322      10.09327152      -0.00060565      -0.00556732       0.00471313      -4.29792984
