128
Lattice="12.202789707372308 0.4306149611389877 0.03425903205846506 0.41669609113564715 12.612870983392233 -0.13505842784981933 0.030823743711672683 -0.15111836890767713 11.170928979932539" Properties=species:S:1:pos:R:3:forces:R:3:energies:R:1 energy=-633.4871601530449 stress="0.00022506212764193223 0.0002661300172681968 -0.0001934445701613939 0.0002661300172681968 -0.00018259261297095508 0.0013177910847110915 -0.0001934445701613939 0.0013177910847110915 0.00019707781828837414" free_energy=-633.4871601530449 pbc="T T T"
Ni      -0.49142201      -0.50265470       0.38096717      -0.01012635      -0.00917052       0.00168165      -5.85347672
Al       1.30099858       1.07222835       1.15209598      -0.00097106       0.00377768      -0.00365265      -4.26614809
Ni      -0.49151145      -0.47714653       3.16278506      -0.00404507       0.00021120       0.00125057      -6.17374427
Al       1.11779825       1.14369932       4.13565049       0.00389669       0.00420399      -0.00335932      -4.02597512
Al      -0.71634468      -0.23052417       5.76744212       0.00541302      -0.00449820       0.00233033      -4.04649992
Al       1.45298728       1.42482343       7.03357983       0.00605596       0.00797608      -0.01413791      -4.34189268
Ni      -0.46615630      -0.49502253       8.24302673       0.00588459       0.00649538      -0.00944590      -6.06982908
Al       1.92172453       0.93410771       9.62828919      -0.00812644      -0.00166008       0.00036349      -4.28976607
Al       0.19903729       3.01144582      -0.49281686       0.00448752       0.00299422      -0.00673360      -4.03086290
Al       1.82248722       5.06867840       1.19265787       0.00213015      -0.00072383      -0.00693605      -4.45136104
Al       0.32425129       3.17389778       2.52503330      -0.00394176       0.00064052       0.00965668      -3.84440031
Al       1.93450925       5.04881811       3.93755298      -0.00768297       0.01003096       0.01279988      -4.32255171
Ni       0.37331609       3.05083237       5.62589640       0.00336992       0.00635493      -0.01008150      -6.13362143
Al       1.85291180       4.85336547       6.84312058       0.01057438       0.00671052       0.00138276      -4.51560170
Ni       0.50409979       3.48762673       8.21965195      -0.00431391      -0.01561871       0.00728395      -5.80577471
Al       1.82825612       4.93568895       9.66131401       0.00274153      -0.00188523       0.00585959      -4.53924392
Ni       0.23996558       6.55271907      -0.09635290       0.00118474       0.00211224      -0.00393177      -6.17649984
Al       1.79140522       7.91445604       1.29896734      -0.00417609      -0.00619367      -0.00240018      -4.60015339
Ni       0.33278172       6.43668864       2.66631170      -0.00085035      -0.00720118      -0.00432691      -6.19575470
Al       1.94695738       7.75587828       4.02567986       0.00161055       0.00317131      -0.00830907      -4.53381681
Ni       0.42770179       6.39414046       5.46781269       0.00588412       0.00056235       0.00692266      -6.24436627
Al       1.90562717       7.66371910       7.01066623       0.00100464       0.00377176      -0.00057641      -4.53601643
Ni       0.27218720       6.26258255       8.23798721       0.00529458       0.00434434       0.00535491      -6.17081012
Al       1.74315538       7.78916055       9.69387212      -0.00567730       0.00840432       0.00058960      -4.58255237
Ni       0.23912825       9.36495781      -0.00249713       0.00515108      -0.00092633      -0.00368617      -6.18785280
Al       1.63599486      10.91850896       1.41450961      -0.00156847      -0.00137772       0.00471972      -4.41816848
Ni       0.39648669       9.43371539       2.93183123      -0.00314049      -0.00624283      -0.01069182      -6.21544956
Al       2.00466432      11.14859580       4.08030592      -0.00579568       0.00899025       0.00616433      -4.25785475
Al       0.56983323       9.45968355       5.57559005      -0.00137509       0.01083623       0.00589466      -3.95386937
Al       2.02666081      11.28645338       7.08127568      -0.01504654       0.00057872      -0.00275460      -4.35649683
Ni       0.38897882       9.39125271       8.14830008      -0.00931208       0.01214275      -0.00693031      -6.19338796
Al       1.47658340      10.85900719       9.78983145      -0.00247487       0.00280103       0.00695671      -4.34818609
Ni       3.50052317       0.51695745       0.38174135       0.00541705       0.00577533      -0.00416484      -5.70569488
Al       5.59468369       1.53892672       1.29579110      -0.00658731      -0.00557785      -0.00482839      -4.30178258
Al       3.35610604       0.56817317       2.79766899       0.00856602       0.00723194       0.00598776      -4.07388952
Al       5.17114247       2.34910712       3.85839618      -0.00494582      -0.00390110       0.00401794      -4.20644832
Al       3.66988891       0.23727167       5.38377105      -0.00619442      -0.00017468      -0.00681210      -3.89371918
Al       4.76741352       2.11412448       6.93316716       0.00128785       0.00107912       0.00227766      -4.09240795
Ni       3.48739557       0.32897052       7.80468717       0.00525895      -0.00056288       0.00792663      -6.06806284
Al       4.62146755       1.71425701       9.90139792       0.00866854      -0.00379451      -0.00354052      -4.46449860
Ni       2.60922844       2.99331006      -0.04765599      -0.00669654      -0.00143207      -0.00963137      -6.04248800
Al       4.34135304       4.29978892       1.34420516       0.00641679       0.00142925       0.00365795      -4.42965058
Ni       2.66084207       2.90890564       2.59255695       0.00602830       0.00194684       0.00328931      -6.00577976
Al       4.91228177       5.03895110       4.05786033      -0.00313616      -0.00231516      -0.00115074      -4.36574485
Al       2.84257860       2.89614466       5.08603107      -0.00901525       0.00086105      -0.00156111      -3.85040240
Al       4.55975683       4.70649408       6.83047200       0.00659530       0.00118577       0.00510616      -4.30622797
Ni       2.98416492       2.90178343       8.42627123      -0.00065026      -0.00006867      -0.01513586      -6.02579590
Al       4.40981079       4.36478063       9.74825220       0.00336652       0.00973193       0.00856130      -4.37212188
Ni       3.48718811       6.45720853      -0.10768521       0.00393636       0.00257116       0.00411768      -6.18177790
Al       4.71610046       8.21492820       1.34301047      -0.00493147      -0.00524347       0.00436335      -4.44302757
Ni       3.49418561       6.45682438       2.54350535      -0.00943397      -0.00140464       0.00502969      -6.11325874
Al       4.78712639       7.87961371       4.13063584       0.00375960      -0.00003066       0.00538422      -4.44703089
Ni       3.36430688       6.35311832       5.50825564       0.00444432      -0.00566999      -0.00085600      -6.13516843
Al       4.61141799       7.99517805       6.90641714      -0.00080556       0.00012598      -0.00290279      -4.47565883
Ni       3.53268113       6.32682465       8.42250971       0.00557341      -0.01196289      -0.00987302      -6.22415500
Al       4.60649363       8.11112456       9.76902455      -0.00484716      -0.00207642      -0.00642454      -4.22458455
Ni       3.03317814       9.56105826      -0.07752519      -0.00503055       0.00085105      -0.00689013      -6.10967902
Al       4.60332580      11.02305580       1.29078016       0.00528581       0.00163347       0.00228639      -4.38304717
Ni       3.13653105       9.43886821       2.73126378       0.01063294       0.00438544      -0.00459882      -6.10338966
Al       4.86890738      10.56004702       4.07997504       0.00065468      -0.00820701      -0.00768353      -4.30376188
Ni       3.08075611       9.41927854       5.50737846       0.00117410      -0.00192906       0.00679853      -6.23202541
Al       4.65475103      10.73579922       6.87471286      -0.00203852      -0.00000853      -0.00274949      -4.19079003
Ni       3.06864223       9.41803526       8.34361742      -0.00326523       0.00162677       0.01114551      -6.14546737
Al       4.19700507      11.22206597       9.65935435       0.00109158       0.00044362      -0.00337491      -4.48385365
Ni       5.76855545      -0.32638746      -0.41389803      -0.00404937       0.00329477       0.00287288      -6.12150962
Al       8.24699818       2.48687603       1.25485878      -0.01672506      -0.00278325      -0.00265974      -4.30067744
Ni       5.56630319      -0.08236424       3.45555834       0.01300366       0.00214582      -0.00408499      -5.97835298
Al       7.97023694       2.69449495       3.89446799       0.00503048      -0.01261601      -0.00627846      -4.10116365
Al       6.64578099       0.74330229       5.50079999       0.00054105      -0.00256995      -0.00755450      -4.04793570
Al       8.56940952       2.36432983       6.47847565      -0.00000663      -0.00131901       0.00117345      -4.17478967
Al       5.88498486      -0.10657402       8.30702882       0.00040588      -0.00461954      -0.00850809      -3.93308113
Al       7.49277921       1.25879809      10.18545455      -0.00402629      -0.01290927      -0.00402179      -4.22319305
Ni       6.39235707       3.57893614      -0.21761178      -0.00796753      -0.00564654      -0.00071058      -6.16020267
Al       8.24008244       5.19233339       1.33086764      -0.00808645      -0.00077015      -0.00848498      -4.45564064
Ni       6.43520080       3.81008285       2.33898065      -0.00158579      -0.00372607      -0.00362493      -6.01384041
Al       7.60485202       5.31461890       4.03592672      -0.00128431      -0.00215337       0.00044681      -4.43596420
Ni       6.47643618       3.51352570       5.75332942      -0.00338045      -0.00521568      -0.00865280      -6.26790468
Al       8.07405684       5.09042571       6.99574538       0.00340840      -0.00701170       0.00550723      -4.16630148
Al       6.64903231       3.26658895       8.41137052      -0.00005921       0.00061372       0.00157161      -4.01645265
Al       8.34406496       4.91223229       9.76915351      -0.00273205      -0.00410329       0.00602717      -4.32463564
Al       6.00865036       6.09989841       0.03308609      -0.00133593       0.00481728      -0.00096917      -4.15189348
Al       7.94205237       7.89653652       1.35275704       0.00332131       0.00256815       0.00381520      -4.41149010
Ni       6.15750772       6.47465258       2.44687931       0.00508550      -0.00187153       0.00033239      -6.10512623
Al       7.52102790       8.03928550       4.01395112       0.00049092      -0.00248565      -0.00724462      -4.48230062
Ni       6.12842114       6.39888546       5.80583267       0.01552654       0.00353246       0.00126398      -6.18359184
Al       7.78106851       7.88091994       7.00253558      -0.00231066       0.00614633       0.00773319      -4.27209334
Al       6.07877756       6.24743414       8.45134000      -0.00145678      -0.00330532       0.00043204      -3.88498801
Al       7.97964258       7.73026904       9.74886295       0.00292784       0.00174950      -0.00127687      -4.23645156
Al       6.57871909       9.78562116      -0.04811232       0.00305130       0.00202050      -0.00287623      -3.98401611
Al       7.58598484      11.77804009       1.49953015      -0.00326055       0.00431108      -0.00619050      -4.28575658
Ni       6.50700582       9.71099387       2.40385705      -0.00465552      -0.00125851       0.01699011      -6.09690435
Al       7.74241072      10.91444764       4.17044947      -0.00089133      -0.00443816      -0.00667017      -4.37483966
Ni       6.34636009       9.31339981       5.71866607       0.00174244      -0.00076555      -0.00206397      -6.16164574
Al       7.95496816      10.93097902       6.82664121       0.00204775      -0.00788903       0.00663391      -4.25471058
Al       6.41492999       9.62107462       8.49146229       0.00947891      -0.00664952       0.00328914      -3.78165231
Al       8.31352062      11.23945622       9.79348844      -0.00762773       0.00529995      -0.00675090      -4.31808478
Ni       9.12593824       0.18503528       0.56654447       0.00250643      -0.00714036       0.00215411      -6.09585235
Al      10.81402755       1.80765475       1.61414137      -0.00251851       0.00709634       0.00365141      -4.36791790
Al       9.11624751       0.38160548       3.16727473       0.00014052       0.00210527      -0.00463592      -3.90998495
Al      10.74919368       2.36376550       4.40762506      -0.00049251       0.00579342      -0.00485638      -4.23665898
Ni       8.89660626      -0.11061098       5.67393045       0.00730681       0.00088786       0.00733914      -6.12170321
Al      11.07574469       2.35228820       7.59728583       0.00327998       0.00784600      -0.00227241      -4.18594634
Al       9.11486939       0.39422928       8.07007664      -0.00309294       0.01295535       0.00063251      -4.03377505
Al      10.54545158       1.31820459      10.12666045       0.00603279      -0.00587424       0.00259215      -4.28938690
Ni       9.97326446       3.77961482       0.00250795      -0.00444254      -0.00116089       0.00057711      -6.03973875
Al      11.07637303       5.47592731       1.30423790      -0.00261005       0.00535123       0.00497544      -4.49139724
Ni       9.85550927       3.84158241       2.65442018      -0.00448345       0.00198853       0.00891685      -6.19013114
Al      11.31844100       5.27467756       4.11703787      -0.01352780       0.00905268       0.00860539      -4.35534205
Ni       9.41959703       4.22595371       5.17168195       0.00666215      -0.01459256      -0.00287936      -5.98651627
Al      11.13662799       5.14346037       6.85426620      -0.00977938       0.00708999       0.00399465      -4.40073011
Ni       8.95643272       2.70437445       8.85758039      -0.00572096      -0.00882549       0.00705883      -5.86306071
Al      11.07143649       5.23381040       9.59783365       0.00054343      -0.00054184       0.00499403      -4.43640494
Ni       9.60615036       6.74037916      -0.12752560       0.00910403       0.00168942       0.00266243      -6.16125291
Al      10.93577996       8.29133197       1.37606148       0.00301070      -0.00422520      -0.00474036      -4.55844614
Ni       9.53323241       6.68946866       2.88257101       0.00197378      -0.00352290       0.00850045      -6.23486420
Al      11.10023982       8.27167686       4.08479361       0.00028866      -0.01112074       0.00828318      -4.43686298
Al       9.49740565       6.70462379       5.43030082       0.00911536       0.00418922      -0.00319618      -3.96613895
Al      11.06620883       8.20248910       6.96998373      -0.00424648       0.00504745       0.00890410      -4.44572127
Ni       9.60842191       6.67067599       8.24834666      -0.00350189      -0.00003770       0.00682725      -6.20341167
Al      11.03563759       8.22782588       9.68689017       0.00306167      -0.00079391       0.00046621      -4.59096964
Ni       9.25540496       9.50679952      -0.06964622       0.00110544       0.00300334      -0.00554404      -6.08968834
Al      10.75986170      10.95609586       1.48496657      -0.00533318       0.00638770      -0.00345320      -4.51409176
Ni       9.18005516       9.43688384       2.77940888      -0.00044450      -0.00425068       0.01178705      -6.02180667
Al      10.63192983      10.86802066       4.20692698       0.00699560       0.00947522      -0.00898785      -4.29011991
Ni       9.17101905       9.25681596       5.50093788       0.00532142      -0.00294173       0.00218815      -6.25486317
Al      10.66099073      10.82373539       7.02558094       0.00135343      -0.00421934      -0.00843939      -4.27138198
Ni       9.20094913       9.39118350       8.39901911      -0.00325252      -0.00365395       0.00482917      -6.20165493
Al      10.92981867      11.00753218       9.81361820       0.00438534       0.00241845       0.00057044      -4.45077113
