116
Lattice="11.368920575800793 0.0030466002162428322 0.03419596119566071 0.002971999288645712 11.316184494492783 0.019624928613934917 0.03411315892046153 0.019629922888689467 11.266867309611188" Properties=species:S:1:pos:R:3:forces:R:3:energies:R:1 energy=-625.9840680519883 stress="-0.0011111921456806817 0.00032847056266321526 -0.0006564761474397561 0.00032847056266321526 -0.00010717548138856358 -0.0004980996129330841 -0.0006564761474397561 -0.0004980996129330841 0.0013666601845021761" free_energy=-625.9840680519883 pbc="T T T"
Ni       0.11264362      -0.04131012      -0.03656876      -0.00704385       0.00135178       0.00523980      -6.01011224
Al       1.56394864       1.33084336       1.39957645      -0.00813596       0.00238578      -0.00530281      -4.53139068
Ni       0.04099201       0.03780635       2.80423349       0.00152239      -0.00316947       0.00238879      -5.85572213
Ni      -0.01034952       0.09901743       5.62962296       0.00558690      -0.00166681      -0.00312245      -6.04773322
Al       1.69442183       1.47596891       6.77469586       0.00084561      -0.00390891       0.00008373      -4.76586903
Ni       0.12618711       0.05869567       8.45445900       0.00348630      -0.00034045      -0.00226151      -6.07462250
Al       1.52208527       1.46144150       9.83155260      -0.01198396       0.00258317      -0.00303819      -4.63458737
Ni       0.05792784       2.80880480       0.06041172       0.00040104      -0.00184386      -0.00292197      -6.07293323
Al       1.50985328       4.26107250       1.46244853      -0.00505893       0.00093294      -0.00170012      -4.71225022
Ni       0.13422722       2.80021124       2.84174462       0.00029880      -0.00052058       0.00620282      -5.83899051
Al       1.71392299       4.04119328       4.30767276      -0.00681504       0.00370897       0.01112114      -4.70503342
Ni      -0.02321086       2.81038445       5.62065437      -0.00161359       0.00398119      -0.00040706      -6.00408857
Al       1.45070916       4.26209933       7.03422982       0.00039897      -0.00242836      -0.00038563      -4.65112444
Ni       0.03977796       2.83537428       8.44959943       0.00520867      -0.00247703       0.00122823      -6.26322172
Al       1.54263582       4.28450081       9.84749630      -0.00025840       0.00209345       0.00306621      -4.75391651
Ni       0.08165313       5.68465154       0.02679307       0.00118497      -0.00058082      -0.00168076      -6.26653089
Al       1.54128170       7.15845179       1.49275093      -0.00291919      -0.00106255       0.00577249      -4.71839292
Ni       0.08772614       5.66460112       2.85592145       0.00033715       0.00812638       0.00599841      -6.28027095
Al       1.51624148       7.15037972       4.21764341      -0.00621969      -0.00673593      -0.00294885      -4.64463156
Ni       0.06387188       5.65261621       5.57897141       0.00241604      -0.00325209      -0.00196019      -6.32479969
Al       1.52440231       7.04260996       7.07125864      -0.00102243       0.00519375       0.00091491      -4.77275784
Ni       0.00162254       5.65355349       8.48949294      -0.00286804       0.00092790      -0.00171484      -6.26573688
Al       1.55381275       7.06446786       9.78974253      -0.00869648      -0.00317860       0.00391401      -4.63664459
Ni       0.13014761       8.53399662       0.00006030       0.00475394       0.01123057       0.00220077      -6.08975974
Al       1.55461192       9.88732953       1.50462508       0.00090680       0.00293438      -0.00308394      -4.68082776
Ni       0.00349445       8.54411151       2.83882311       0.00171187      -0.00487143       0.00549019      -6.29154216
Al       1.49379904      10.04454271       4.28237486      -0.00189355       0.00047119       0.01020584      -4.69533890
Ni       0.04852504       8.52019388       5.63905308       0.00290090       0.00203068      -0.00374677      -6.37092027
Al       1.46677959       9.98456976       7.03535002       0.00529485      -0.00736089      -0.00573473      -4.58447977
Ni       0.10185848       8.52959527       8.47572363       0.00154664      -0.00479789       0.00209243      -6.14102480
Ni       2.74728173      -0.21042666      -0.22112629      -0.00487468      -0.00251942       0.00042251      -5.98512338
Ni       2.94591564       0.03564869       2.92152666       0.00502151       0.00981000      -0.00274790      -5.55393309
Al       4.08483552       1.57613877       4.43518003       0.00651955      -0.00161016      -0.01448462      -4.66857508
Ni       3.25893784      -0.34062931       5.67800712      -0.00529372      -0.00660318      -0.00786391      -5.83707552
Al       4.33269408       1.34032364       7.12101506       0.00871542      -0.00347398       0.01772631      -4.58096028
Ni       2.87549122      -0.01826410       8.43712878      -0.00226216      -0.00524253       0.00098676      -5.87074835
Al       4.34846011       1.34166441       9.97434876      -0.00749465       0.00344311       0.00338299      -4.74053030
Ni       2.92810251       2.85368010       0.02279737      -0.00141235       0.00068448      -0.00508610      -6.12854027
Al       4.30885538       4.32672265       1.50215887      -0.00351079       0.01371828      -0.00817924      -4.60283898
Ni       2.96473148       2.74376627       2.68820682       0.00186415       0.00190121       0.00635916      -5.49626410
Ni       3.43086806       3.38407756       6.07002454      -0.01194451      -0.00299909      -0.00467079      -5.74200916
Ni       2.95205715       2.84880569       8.48151200      -0.00313616      -0.00013173      -0.00596712      -6.12243042
Al       4.32015939       4.30426861       9.88584381       0.00000932      -0.00578428      -0.00263672      -4.64245259
Ni       2.89878868       5.73519385       0.04530844       0.00058971      -0.00273525      -0.00174705      -6.28988928
Al       4.26267232       7.18207717       1.46462667       0.00247742      -0.00016686       0.01110617      -4.68800338
Ni       2.93544314       5.69840575       2.92454002       0.00424032      -0.00336425       0.00160258      -5.88090130
Ni       2.91540649       5.78671546       5.56899828       0.00144499      -0.01203051       0.00297205      -5.53328311
Ni       3.20298027       5.54666952       8.11345393      -0.00540054      -0.00011539      -0.00326161      -6.02191184
Al       4.33109538       7.13563002       9.63549460       0.00363617       0.00161332       0.00117144      -4.69433468
Ni       2.89898543       8.51472158      -0.11418983       0.00666912       0.00385268       0.00458506      -6.11322213
Al       4.31040495      10.07013886       1.34743437      -0.00075654      -0.00471945      -0.00391511      -4.73880290
Ni       3.12806532       8.66013147       3.09124824      -0.00282318       0.00709341       0.00175205      -5.99263093
Ni       2.79240233       8.48015034       5.70595996      -0.00010743       0.00350776       0.00135792      -5.60589811
Ni       2.81180917       8.59465059       8.41361821       0.00207286       0.00098679      -0.00603484      -5.73799174
Al       4.44191489       9.81695217       9.63260361       0.00402800      -0.00405528       0.00561433      -4.47829204
Ni       5.90604883      -0.25532850      -0.26121402      -0.00510994      -0.00346555       0.00348059      -5.97675724
Al       6.82471657       1.28566982       1.48395934       0.00178736       0.00065457       0.00175529      -4.57916842
Ni       5.46084289      -0.15984294       3.18313665      -0.00051015      -0.00065587       0.00376097      -5.90676979
Al       7.06830931       1.38813099       4.24894237       0.00602034      -0.00109297      -0.00413364      -4.78200587
Ni       5.78799909       0.04331819       5.76702775      -0.00125154      -0.00040006      -0.00775240      -5.90799303
Al       7.18351746       1.45805670       7.11309766       0.00235417       0.00763395       0.00541672      -4.69587920
Ni       5.81332582       0.03291098       8.43961622      -0.00155145       0.00720068      -0.00662284      -5.70563742
Al       7.13083261       1.50038341       9.87870951       0.00657994       0.00355359       0.00383833      -4.66221458
Ni       5.64613466       2.87255788       0.08623168      -0.00105391      -0.00185766       0.00063580      -6.05453661
Al       7.02929970       4.31309190       1.51913329       0.00769534       0.00092414      -0.00584383      -4.71270101
Ni       5.59728103       2.82591250       2.90421673       0.00031690      -0.00207489       0.00425628      -5.86341967
Al       7.00808775       4.30896600       4.30051654       0.00477308       0.00784345      -0.00319718      -4.70252018
Ni       5.79367602       2.78677941       5.70471688       0.00164115       0.00523550       0.00717281      -5.94329176
Al       7.15767978       4.34169004       7.04529521      -0.00123751      -0.00465158      -0.01056777      -4.63662445
Ni       5.65716917       2.92083172       8.41732583      -0.00182773      -0.00162859      -0.00300069      -6.24000165
Al       7.13482718       4.27235061       9.93032078      -0.00224989      -0.00325514       0.00038954      -4.73294373
Ni       5.68347561       5.77507070      -0.02479988       0.00213920      -0.00202502      -0.00381203      -6.34036159
Al       7.05273387       7.09178643       1.53895634       0.00472127      -0.00232758       0.00124905      -4.65591908
Ni       5.57539653       5.78424872       3.05233530      -0.00534430      -0.00340309      -0.00489649      -5.81424371
Al       6.41242332       7.17320058       5.03577998       0.00246512       0.00605678      -0.00497180      -4.59771625
Ni       5.27068072       5.23821255       5.85101776      -0.00646113       0.00667731      -0.00406641      -5.40850965
Ni       5.74482405       5.61837262       8.41998849      -0.01089637       0.00022372      -0.00112361      -5.70701268
Al       7.07043595       7.21848492       9.70555562      -0.00424675      -0.00050763      -0.00098099      -4.58431539
Ni       5.70036446       8.48163535       0.03263484      -0.00020022      -0.00070888       0.00409853      -6.06320233
Al       7.04982010       9.90546627       1.54263914      -0.00442763       0.00203676       0.00683895      -4.67429051
Ni       5.66992499       8.49468361       2.90922747       0.00076791       0.00139150      -0.00440574      -5.85744933
Al       7.14160095       9.87042064       4.33051111       0.00906414       0.00085814      -0.00371081      -4.76735716
Ni       5.00434927       9.15045929       5.16932239      -0.00795200      -0.00464903       0.00372432      -5.53483611
Al       6.52739924       9.33628195       7.16217614       0.00855649       0.00353246      -0.00646060      -4.70815618
Ni       4.65356371       7.42681706       7.01689273      -0.00289960      -0.00874246      -0.00429352      -5.38116904
Ni       8.45250440      -0.01675895       0.04940456       0.00681195      -0.00283366       0.00378396      -5.99682272
Ni       8.53067818       0.04144946       2.80396070      -0.00295546      -0.00459628       0.01036396      -6.10154599
Al       9.94930481       1.43456354       4.18575671      -0.00508827      -0.00215034       0.00952622      -4.54464807
Ni       8.51299581      -0.01978350       5.71680457       0.00836578      -0.00095614      -0.00106199      -6.22673974
Al       9.95595680       1.39453430       7.14284158       0.00468232      -0.00153563      -0.00355257      -4.70879613
Ni       8.42118131      -0.10883037       8.51674546       0.00142981      -0.00095604      -0.00559840      -6.02080895
Al       9.97428912       1.39506551       9.97498896      -0.00599310      -0.00749715       0.00350364      -4.64581939
Ni       8.48532941       2.79450614       0.14543070      -0.00296764      -0.00051237      -0.00390624      -6.06166677
Al       9.96840000       4.22896807       1.49657410       0.00763765      -0.00103196       0.00060424      -4.62236721
Ni       8.43289825       2.81155483       2.82477162       0.00491151      -0.00334740       0.00330275      -6.08174157
Al       9.95568800       4.23917720       4.22768015       0.00256500       0.00574385      -0.00360364      -4.68821958
Ni       8.54528004       2.84523991       5.65075940       0.00003450      -0.00084549      -0.00561075      -6.33952114
Al       9.97337442       4.28864230       7.03764803       0.00134773       0.00362340       0.00250505      -4.69776951
Ni       8.60727051       2.90336199       8.51181400      -0.00221699       0.00496720      -0.00572132      -6.28481772
Al       9.98868039       4.25540711       9.98271094       0.00248139       0.00178348       0.00183056      -4.66309528
Ni       8.48555383       5.72500231       0.06801460      -0.00439404      -0.00408030       0.00182409      -6.27189231
Al       9.98013352       7.12593465       1.43122057      -0.00406707       0.00195752       0.00458917      -4.71467832
Ni       8.50826936       5.71379112       2.90020706      -0.00139054      -0.00097497      -0.00212170      -6.14664736
Al       9.97424833       7.11511262       4.27463469       0.00422969      -0.00197452      -0.00275472      -4.61539142
Ni       8.53816489       5.76748021       5.63276767      -0.00021617      -0.00001517      -0.00292428      -5.99798501
Al      10.00563699       7.10136018       7.10378024       0.00155644       0.00213527       0.00857012      -4.66624524
Ni       8.57930033       5.69190998       8.51488657       0.00395645       0.00126033       0.00228574      -6.10050507
Al       9.99029940       7.15313964       9.92844005      -0.00020522      -0.00303305      -0.00686423      -4.68415189
Ni       8.42068016       8.53628273       0.01160708       0.00210552       0.00139756       0.00613894      -6.10777048
Al       9.97183131       9.96577617       1.42478354       0.00521391      -0.00353684       0.00112003      -4.65498536
Ni       8.53948643       8.49011717       2.88389230       0.00302923      -0.00481742      -0.00418951      -6.17597458
Al       9.95167423       9.94607209       4.28769741       0.00290426       0.00063649       0.00038165      -4.73835623
Ni       8.53957441       8.47597970       5.74935011      -0.00449922       0.00253084      -0.00123511      -5.94165830
Al      10.00521596       9.94709098       7.10456755      -0.00847603       0.00545052       0.00194255      -4.69752208
Ni       8.59243857       8.55310218       8.44980754       0.00034246       0.00375465      -0.00036364      -5.65770541
Al      10.00068253       9.94314870       9.91584152       0.00465731       0.00626094       0.00210426      -4.49931814
