123
Lattice="11.459561000796347 0.0002774557921072408 4.972712164702617e-17 0.00027745883649194923 11.459711240273728 3.049964412066775e-16 4.9728691738001735e-17 -1.548853358004424e-17 11.45797448598904" Properties=species:S:1:pos:R:3:forces:R:3:energies:R:1 energy=-666.2996272113728 stress="7.602517355148937e-05 -3.547270726690733e-05 -7.030469976930364e-17 -3.547270726690733e-05 3.934730787400077e-06 9.766159137885526e-18 -7.030469976930364e-17 9.766159137885526e-18 0.00046196868572251864" free_energy=-666.2996272113728 pbc="T T T"
Ni      -0.04696494      -0.03251855       0.02361657       0.00211103       0.00633511      -0.00079057      -6.09363412
Al       1.40454733       1.40744735       1.43224681      -0.00049493       0.00203426       0.00000000      -4.64126556
Ni      -0.04696494      -0.03251855       2.84087705       0.00211103       0.00633511       0.00079057      -6.09363412
Al       1.37494026       1.38590150       4.31011901      -0.00319792      -0.00173905       0.00348789      -4.67172323
Ni      -0.05228229      -0.02064471       5.81013895      -0.00957966       0.00398279      -0.00491503      -5.84576337
Al       1.38742680       1.42819227       7.16123405       0.00263885       0.00631311      -0.00000000      -4.57469579
Ni      -0.05228229      -0.02064471       8.51232915      -0.00957966       0.00398279       0.00491503      -5.84576337
Al       1.37494026       1.38590150      10.01234910      -0.00319792      -0.00173905      -0.00348789      -4.67172323
Ni      -0.01314230       2.85633309      -0.01072338       0.00692681       0.00165323       0.00214114      -6.26971317
Al       1.42982257       4.30079206       1.43224681       0.00547580      -0.00018652      -0.00000000      -4.63238056
Ni      -0.01314230       2.85633309       2.87521700       0.00692681       0.00165323      -0.00214114      -6.26971317
Al       1.43217352       4.30014011       4.28800433      -0.00383847      -0.00010879       0.00303068      -4.64381256
Ni      -0.00975842       2.86717425       5.72955932      -0.00283084      -0.00190907      -0.00071285      -6.06265600
Al       1.42914465       4.29656910       7.16123405      -0.00302314      -0.00634759      -0.00000000      -4.63501690
Ni      -0.00975842       2.86717425       8.59290879      -0.00283084      -0.00190907       0.00071285      -6.06265600
Al       1.43217352       4.30014011      10.03446378      -0.00383847      -0.00010879      -0.00303068      -4.64381256
Ni      -0.02064197       5.73511799      -0.00515054      -0.00148830      -0.00490857      -0.00113091      -6.27032610
Al       1.43721563       7.18588484       1.43224681       0.00686053       0.00244621       0.00000000      -4.58362412
Ni      -0.02064197       5.73511799       2.86964416      -0.00148830      -0.00490857       0.00113091      -6.27032610
Al       1.40868432       7.19325713       4.27654510      -0.00440739       0.00468179       0.00483946      -4.66994021
Ni      -0.00128152       5.74277238       5.71479246      -0.00101297       0.00128010      -0.00273684      -6.27858506
Al       1.43334731       7.16163955       7.16123405      -0.00807528       0.00768095      -0.00000000      -4.64529117
Ni      -0.00128152       5.74277238       8.60767565      -0.00101297       0.00128010       0.00273684      -6.27858506
Al       1.40868432       7.19325713      10.04592301      -0.00440739       0.00468179      -0.00483946      -4.66994021
Ni      -0.03942416       8.63074917       0.01427456       0.00049524      -0.00244901      -0.00411161      -6.09176962
Al       1.41135199      10.02697503       1.43224681       0.00247723      -0.00696126       0.00000000      -4.58507197
Ni      -0.03942416       8.63074917       2.85021907       0.00049524      -0.00244901       0.00411161      -6.09176962
Al       1.39749774      10.03926550       4.30454400       0.00374050      -0.00150915      -0.00058056      -4.69927330
Ni       0.00008927       8.59843940       5.75884306       0.00235179       0.00000578       0.00508652      -6.09058383
Al       1.41840520      10.03175746       7.16123405       0.00050191      -0.00627612      -0.00000000      -4.59541980
Ni       0.00008927       8.59843940       8.56362504       0.00235179       0.00000578      -0.00508652      -6.09058383
Al       1.39749774      10.03926550      10.01792411       0.00374050      -0.00150915       0.00058056      -4.69927330
Ni       2.86299858       0.00218823      -0.01335128       0.00497908      -0.00010184       0.00152279      -6.27272820
Al       4.30374681       1.42255768       1.43224681       0.00236580      -0.00471439      -0.00000000      -4.64390931
Ni       2.86299858       0.00218823       2.87784490       0.00497908      -0.00010184      -0.00152279      -6.27272820
Al       4.31352047       1.41767784       4.30853788       0.00355074      -0.00730999       0.00284933      -4.63842498
Ni       2.86607015       0.00163085       5.72545798       0.00496167      -0.00152989      -0.00191145      -6.28636461
Al       4.30455866       1.43101070       7.16123405       0.00333934      -0.00337092      -0.00000000      -4.65357026
Ni       2.86607015       0.00163085       8.59701013       0.00496167      -0.00152989       0.00191145      -6.28636461
Al       4.31352047       1.41767784      10.01393023       0.00355074      -0.00730999      -0.00284933      -4.63842498
Ni       2.84772379       2.83529070      -0.00481079       0.00255840       0.00102820      -0.00554342      -6.25700306
Al       4.30993019       4.30936909       1.43224681      -0.00369959       0.01451584       0.00000000      -4.56802710
Ni       2.84772379       2.83529070       2.86930441       0.00255840       0.00102820       0.00554342      -6.25700306
Al       4.30421969       4.29966490       4.27760014      -0.00124157       0.00417908      -0.00436101      -4.62839821
Ni       2.85987753       2.85324453       5.71527565      -0.00064787       0.00074506       0.00170302      -6.26281660
Al       4.29959046       4.29337403       7.16123405      -0.00209840       0.00009454      -0.00000000      -4.63678296
Ni       2.85987753       2.85324453       8.60719246      -0.00064787       0.00074506      -0.00170302      -6.26281660
Al       4.30421969       4.29966490      10.04486797      -0.00124157       0.00417908       0.00436101      -4.62839821
Ni       2.86851091       5.74867032       0.01426461       0.00103224       0.00022533      -0.00543778      -6.05229462
Ni       2.86851091       5.74867032       2.85022901       0.00103224       0.00022533       0.00543778      -6.05229462
Al       4.31108110       7.18022206       4.26511006       0.00328369       0.00305617       0.00540211      -4.57788590
Ni       2.86673328       5.73857273       5.71811151      -0.00115967      -0.00295941       0.00774768      -6.26309669
Al       4.30226239       7.17290952       7.16123405       0.00678789       0.00144188      -0.00000000      -4.65605532
Ni       2.86673328       5.73857273       8.60435660      -0.00115967      -0.00295941      -0.00774768      -6.26309669
Al       4.31108110       7.18022206      10.05735805       0.00328369       0.00305617      -0.00540211      -4.57788590
Ni       2.86390734       8.60613354      -0.00474324       0.00434258      -0.00611253       0.00601430      -6.06538680
Al       4.30100024       9.99345058       1.43224681      -0.00378156       0.01091228       0.00000000      -4.59782734
Ni       2.86390734       8.60613354       2.86923686       0.00434258      -0.00611253      -0.00601430      -6.06538680
Al       4.30529117      10.02353351       4.29999988       0.00185032       0.00108823      -0.00278518      -4.65339648
Ni       2.85525007       8.59565624       5.71964154      -0.00456366       0.00437768       0.00399836      -6.28745345
Al       4.30922234      10.02070774       7.16123405      -0.01325675       0.00517134       0.00000000      -4.59042303
Ni       2.85525007       8.59565624       8.60282657      -0.00456366       0.00437768      -0.00399836      -6.28745345
Al       4.30529117      10.02353351      10.02246823       0.00185032       0.00108823       0.00278518      -4.65339648
Ni       5.74233172      -0.00387892      -0.01038466      -0.00034055       0.00393671      -0.00069555      -6.28169605
Al       7.18936884       1.40425886       1.43224681      -0.00147029       0.00466009       0.00000000      -4.64727092
Ni       5.74233172      -0.00387892       2.87487828      -0.00034055       0.00393671       0.00069555      -6.28169605
Al       7.22456999       1.36419973       4.33321363      -0.00286262       0.00245053      -0.00266325      -4.69020832
Ni       5.73065941      -0.01795019       5.74857555      -0.00389735       0.00146245      -0.00175686      -6.07506664
Al       7.21048738       1.38933596       7.16123405       0.00300761      -0.00002830      -0.00000000      -4.53021991
Ni       5.73065941      -0.01795019       8.57389256      -0.00389735       0.00146245       0.00175686      -6.07506664
Al       7.22456999       1.36419973       9.98925448      -0.00286262       0.00245053       0.00266325      -4.69020832
Ni       5.76118575       2.82816273      -0.01231363      -0.00662189       0.00176855      -0.00431625      -6.25886312
Al       7.16160224       4.30109429       1.43224681       0.00300931      -0.00221475       0.00000000      -4.63737915
Ni       5.76118575       2.82816273       2.87680725      -0.00662189       0.00176855       0.00431625      -6.25886312
Al       7.16191428       4.30012712       4.29299270       0.00427628      -0.00051724       0.00114995      -4.65008536
Ni       5.74441172       2.85689277       5.72073208       0.00365024      -0.00204107       0.00042344      -6.26849663
Al       7.16155246       4.29743660       7.16123405       0.00391883      -0.00777762      -0.00000000      -4.65208251
Ni       5.74441172       2.85689277       8.60173603       0.00365024      -0.00204107      -0.00042344      -6.26849663
Al       7.16191428       4.30012712      10.02947541       0.00427628      -0.00051724      -0.00114995      -4.65008536
Ni       5.74277848       5.75694966       0.00555953      -0.00702436      -0.00374010      -0.00494070      -6.05212676
Al       7.15204471       7.19148637       1.43224681      -0.00146427       0.00011477      -0.00000000      -4.58855638
Ni       5.74277848       5.75694966       2.85893409      -0.00702436      -0.00374010       0.00494070      -6.05212676
Al       7.19535692       7.21804206       4.30255704      -0.00013497       0.00319896      -0.00091056      -4.68971374
Ni       5.73821210       5.73890253       5.72434256       0.00219895      -0.00235317       0.00251433      -6.27194946
Al       7.16444942       7.20655935       7.16123405       0.00058289      -0.00530022      -0.00000000      -4.58094187
Ni       5.73821210       5.73890253       8.59812555       0.00219895      -0.00235317      -0.00251433      -6.27194946
Al       7.19535692       7.21804206      10.01991107      -0.00013497       0.00319896       0.00091056      -4.68971374
Ni       5.74477557       8.61444818      -0.00794859       0.00075466      -0.01120496       0.00186378      -6.07765992
Al       7.17959971      10.02818445       1.43224681      -0.00230222      -0.00625113       0.00000000      -4.59615666
Ni       5.74477557       8.61444818       2.87244221       0.00075466      -0.01120496      -0.00186378      -6.07765992
Al       7.19842775      10.03988160       4.35247557       0.00146812      -0.00222580      -0.00668049      -4.64453498
Ni       5.73414781       8.61004885       5.73751462       0.00092270       0.00262393       0.00002369      -6.08183666
Ni       5.73414781       8.61004885       8.58495349       0.00092270       0.00262393      -0.00002369      -6.08183666
Al       7.19842775      10.03988160       9.96999254       0.00146812      -0.00222580       0.00668049      -4.64453498
Ni       8.62965703      -0.03882480       0.03043594      -0.00263637       0.00317326       0.00649189      -6.11183115
Al      10.02082681       1.41228756       1.43224681      -0.00017358      -0.00195744       0.00000000      -4.58216080
Ni       8.62965703      -0.03882480       2.83405768      -0.00263637       0.00317326      -0.00649189      -6.11183115
Al      10.00412002       1.38743479       4.36799296       0.00513182      -0.00889959       0.00226955      -4.62207345
Ni       8.64902744      -0.06900344       5.85225855       0.00144831      -0.00023962      -0.00130686      -5.54613745
Ni       8.64902744      -0.06900344       8.47020955       0.00144831      -0.00023962       0.00130686      -5.54613745
Al      10.00412002       1.38743479       9.95447515       0.00513182      -0.00889959      -0.00226955      -4.62207345
Ni       8.59329231       2.85132793      -0.01646989      -0.00081051       0.00309191       0.00233386      -6.27238823
Al      10.01733328       4.29238390       1.43224681      -0.00573840       0.00002135       0.00000000      -4.65278748
Ni       8.59329231       2.85132793       2.88096351      -0.00081051       0.00309191      -0.00233386      -6.27238823
Al      10.02157387       4.29270855       4.30513898      -0.00213383       0.00086041       0.00151216      -4.63607610
Ni       8.59622873       2.87518059       5.73865275       0.00130728       0.00711589       0.00439121      -6.06775691
Al      10.03007454       4.28523331       7.16123405      -0.00209175       0.00364000      -0.00000000      -4.58607841
Ni       8.59622873       2.87518059       8.58381536       0.00130728       0.00711589      -0.00439121      -6.06775691
Al      10.02157387       4.29270855      10.01732913      -0.00213383       0.00086041      -0.00151216      -4.63607610
Ni       8.59858778       5.74133234      -0.01085066       0.00671746      -0.00783842       0.00028517      -6.27309362
Al      10.02007911       7.19789248       1.43224681       0.00270646      -0.00165012       0.00000000      -4.58722011
Ni       8.59858778       5.74133234       2.87534428       0.00671746      -0.00783842      -0.00028517      -6.27309362
Al      10.00428309       7.20949283       4.31482613       0.00093702      -0.00188024       0.00499862      -4.68799125
Ni       8.58589546       5.73225864       5.72440092       0.00105122      -0.01003023      -0.00210347      -6.28707674
Al      10.01945251       7.18273899       7.16123405       0.00484233      -0.00427156       0.00000000      -4.59616755
Ni       8.58589546       5.73225864       8.59806718       0.00105122      -0.01003023       0.00210347      -6.28707674
Al      10.00428309       7.20949283      10.00764198       0.00093702      -0.00188024      -0.00499862      -4.68799125
Ni       8.62232198       8.63925601       0.02317777      -0.00496320      -0.00273708       0.00676282      -6.10330878
Ni       8.62232198       8.63925601       2.84131585      -0.00496320      -0.00273708      -0.00676282      -6.10330878
Al      10.02001137      10.02977643       4.34850704      -0.00439073       0.01483386       0.01046708      -4.47816487
Ni       8.60148835       8.64991465       5.81011420      -0.00268571       0.00632047      -0.00220019      -5.85045577
Ni       8.60148835       8.64991465       8.51235390      -0.00268571       0.00632047       0.00220019      -5.85045577
Al      10.02001137      10.02977643       9.97396106      -0.00439073       0.01483386      -0.01046708      -4.47816487
