128
Lattice="12.240248709573734 -0.004787207373110721 -0.05343048518968747 -0.004122132198304878 11.609384151407019 0.013135675810951394 -0.05420178123878608 0.01306754544792681 11.534464742764298" Properties=species:S:1:pos:R:3:forces:R:3:energies:R:1 energy=-647.5515548589092 stress="-0.00015824854096992732 0.0002557699659092847 -0.00035185687411982356 0.0002557699659092847 -1.6483917268600144e-05 0.0003383365859926895 -0.00035185687411982356 0.0003383365859926895 0.00029377398648847185" free_energy=-647.5515548589092 pbc="T T T"
Al      -0.09163339       0.23469625      -0.06066107       0.01455391      -0.00327623      -0.00050372      -3.74556054
Al       1.95706536       1.36390814       1.14886963      -0.01165844      -0.00805262       0.00157737      -4.00183742
Ni       0.24546688       0.21789129       2.56420823       0.00055512      -0.00334151       0.00228221      -6.34584083
Al       1.25497731       1.43615762       4.57572283      -0.00052362      -0.00294470       0.00535527      -4.16196938
Ni      -0.29239757       0.21635379       6.03262191       0.00069966       0.00144458       0.00776290      -6.08402441
Al       1.62454289       1.28461970       7.25986233      -0.00044801      -0.00520153       0.00030748      -4.33474857
Ni      -0.16716832       0.28171155       8.78183869      -0.00233821       0.00024114      -0.00255538      -6.33441019
Al       1.88847957       1.37407635       9.92716226      -0.00006469      -0.00267198       0.00204488      -4.29889690
Al       0.18527604       2.95398069      -0.13572429       0.00270991      -0.00047068       0.00744020      -3.74571891
Al       1.89672034       4.52479830       1.31149111       0.00955757       0.00419657       0.00221426      -4.33192732
Al       0.22914676       2.84848555       2.61910981       0.00110982      -0.00461351      -0.00380773      -3.71338048
Al       1.47409231       4.42799361       4.47014210      -0.00105438       0.00148243      -0.00245189      -4.26073408
Ni      -0.07196002       2.92495986       6.04077694      -0.00000358       0.00151952       0.00171580      -6.22584688
Al       1.67492422       4.49710533       7.22896572      -0.00140315       0.00127493      -0.00433604      -4.38420217
Al      -0.00777469       2.91649435       8.63441416       0.00131921       0.00361991      -0.00015745      -3.92623302
Al       1.82232557       4.48060547       9.93489402      -0.00048711       0.00624523       0.00565494      -4.38736005
Ni       0.05639861       5.51594700      -0.06616781       0.00702221       0.00286453       0.00437387      -6.21975629
Al       1.49497035       7.18897130       1.24345945      -0.00046537       0.01017980      -0.00282751      -4.33664145
Ni       0.10495319       5.55263832       2.67837060      -0.00129972       0.00388921       0.00154931      -6.16828307
Al       1.14690529       7.10027679       4.46480740      -0.00119591      -0.00198729       0.00076846      -4.31801883
Ni      -0.14894069       5.60686725       5.98699775       0.00042099       0.00058503      -0.00439040      -6.09782053
Al       1.16734356       7.18314713       7.31230277      -0.00265504       0.00479348       0.00378558      -4.40472066
Ni      -0.16154737       5.55626748       8.72945644       0.00173407       0.00599525       0.00152491      -6.23515778
Al       1.22311971       7.21570744      10.09601668       0.00030609       0.00280245      -0.00043802      -4.45506116
Ni      -0.15992055       8.77246390       0.05827290       0.00099912      -0.00108874       0.00399857      -6.24418731
Al       1.61976022      10.13784722       1.20121964      -0.00250774       0.00106273      -0.00093290      -4.14419428
Al      -0.10222281       8.77470577       2.77299812      -0.00525929      -0.00192274      -0.00316502      -3.68692290
Al       1.04208338      10.33755040       4.56697265       0.00984024       0.00508458       0.00217449      -4.19606821
Ni      -0.21465226       8.71097591       5.91174996      -0.00415558      -0.00745648      -0.00242892      -6.24214872
Al       1.12884594      10.25565097       7.33378811      -0.00093753      -0.00540449       0.00698059      -4.35767156
Ni      -0.24051744       8.69469670       8.70790202      -0.00440272      -0.00155240      -0.00527381      -6.15275944
Al       1.30321720      10.16102158      10.03975617      -0.00010544      -0.00087759       0.00475248      -4.27453865
Ni       3.22951514      -0.25490180      -0.25353576      -0.00366653      -0.00347595      -0.00297371      -6.14385776
Al       4.68049994       1.30709091       1.30252572       0.00505710      -0.00081954       0.00139851      -4.36610804
Al       2.91160771      -0.10618103       3.13709237      -0.00229815      -0.00804350       0.00500969      -3.82127666
Al       4.83444081       1.20189503       4.40475500       0.00495419      -0.00955075       0.00155161      -4.28416625
Ni       3.03450693      -0.18697726       5.73528648       0.00190904      -0.00072817       0.00224005      -6.35031434
Al       4.70888257       1.20648378       7.25824060       0.00019295      -0.00509350       0.00675884      -4.45264890
Ni       3.11330661      -0.32059139       8.54744676       0.00241020       0.00206194       0.00155246      -6.20591917
Al       4.65074061       1.34890570       9.98396482      -0.00364043       0.00424846      -0.00087668      -4.52124938
Ni       3.25558878       2.96315144      -0.19347694      -0.00480841       0.00522835       0.00499864      -6.22026610
Al       4.58574807       4.44242891       1.27595860      -0.00749616       0.00074863      -0.00435716      -4.34473820
Al       3.16293997       2.82994422       3.01071612      -0.00003957      -0.00637701       0.00370623      -3.65975729
Al       4.57787145       4.62458310       4.38902894       0.00452531       0.00650154       0.00054534      -4.25251450
Al       3.22100078       2.80050330       5.81286967      -0.00731612      -0.00100559      -0.00152679      -3.70507123
Al       4.64229566       4.60232860       7.22272714       0.00070762       0.00712594       0.00105424      -4.45933226
Ni       3.22079674       2.90403831       8.48878645      -0.00276083       0.00172580       0.00263670      -6.23557105
Al       4.64546654       4.48280263       9.99167398       0.00179807      -0.00114899       0.00413810      -4.51519492
Ni       3.13802367       6.00345082      -0.24690349      -0.00722798       0.00214005       0.00510837      -6.09432931
Al       4.43974933       7.32659472       1.33524810      -0.00352893      -0.00495485      -0.00347298      -4.41607921
Ni       2.91599956       6.05988262       3.08974697      -0.00602264      -0.00007327       0.00246210      -6.16083592
Al       4.70349150       7.34070121       4.41782190       0.00943472      -0.00744335      -0.00259972      -4.25498728
Ni       2.98170929       6.10995136       5.81733840      -0.00365588      -0.00599306      -0.00446992      -6.23992955
Al       4.82484056       7.28603176       7.16190313       0.00168632      -0.01193117      -0.00045670      -4.41500700
Ni       3.11821946       6.12489671       8.55976974       0.00504677      -0.00129047       0.00521864      -6.21801313
Al       4.82237238       7.26110722      10.08132536       0.00249556      -0.00231726       0.00254895      -4.50569490
Ni       3.08768972       8.68876614      -0.25405895       0.00482607       0.00228408      -0.00656821      -6.22405951
Al       4.64782203      10.11361603       1.37134177       0.00166009       0.00070417      -0.00378231      -4.41953395
Al       2.83572091       8.69068613       3.07819325       0.00093220       0.00365600       0.00172876      -3.63423098
Al       4.87013613      10.09887202       4.36641592      -0.00090231       0.00653807      -0.00489959      -4.29390727
Al       2.83874113       8.78268828       5.81208991      -0.00152953       0.00536041       0.00344401      -3.79503928
Al       4.82467249      10.12991953       7.17489558       0.00380984       0.00412025       0.00045584      -4.40753606
Al       3.01163146       8.68048134       8.66277613       0.00291804       0.00662689      -0.00120217      -3.89904903
Al       4.82180853      10.11209320      10.04909953      -0.00510125       0.00477873       0.00539387      -4.49474824
Ni       6.19819556      -0.07023359      -0.01390424      -0.00373074       0.00414639       0.00399620      -6.19363454
Al       7.53802325       1.46599962       1.44727596      -0.00102296       0.00500204       0.00140219      -4.52186959
Ni       6.20433262      -0.08912625       2.80580327      -0.00380730      -0.00411833      -0.00079336      -6.18044416
Al       7.56100255       1.47507931       4.28813027       0.00526590       0.00339392      -0.00106319      -4.50963199
Ni       6.34149202      -0.11992738       5.78463762       0.00061687      -0.00478964      -0.00054220      -6.17195714
Al       7.55821774       1.52903908       7.14145053       0.00194121       0.00099056      -0.00220925      -4.59911443
Ni       6.27814740      -0.09568829       8.59853583      -0.00161726      -0.00201877       0.00129466      -6.18774909
Al       7.46274895       1.49753494      10.06063202      -0.00430401       0.00417546       0.00060400      -4.57379214
Ni       5.98594422       2.85700246      -0.05634721      -0.00056146       0.00126858       0.00405149      -6.15364036
Al       7.49640803       4.13840363       1.37638188       0.00796657      -0.01053343      -0.01076447      -4.39158549
Ni       5.79567193       2.89401983       2.89987069       0.00071561       0.00330038       0.00281986      -6.26985110
Al       7.41744365       4.15860699       4.36999065      -0.00149504      -0.00077042      -0.00448132      -4.41045986
Ni       5.82771843       2.93675828       5.78090252       0.00239564       0.00320598      -0.00545317      -6.24680929
Al       7.55198313       4.35023716       7.13801947       0.00044233      -0.00266079       0.00038493      -4.56763265
Ni       5.99895908       2.95194894       8.55394831       0.00103500      -0.00207985       0.00312053      -6.17027566
Al       7.44986926       4.36033429      10.09527704       0.00084734      -0.00292295      -0.00185569      -4.57278216
Ni       6.23636880       5.91499793       0.14801487       0.00008885      -0.00133541      -0.00202141      -6.26174290
Al       7.84701082       7.46304244       1.36634565      -0.00094434       0.01338486      -0.00335433      -4.38460589
Al       6.21446906       5.96661930       2.76409697      -0.00503008       0.00108509       0.00544746      -3.73211103
Al       7.75257082       7.45098232       4.34474071      -0.00689288      -0.00515343      -0.00202526      -4.39639052
Ni       6.28393438       5.90776643       5.68780990      -0.00604979       0.00337863      -0.00135432      -6.24031575
Al       7.77172436       7.25994483       7.15589578      -0.00169585      -0.00048882      -0.00870050      -4.57447890
Ni       6.24325222       5.88726659       8.58981494      -0.00671525      -0.00342533      -0.00119608      -6.17659715
Al       7.67711413       7.29759557      10.13151937      -0.00320749       0.00016828       0.01042467      -4.57833808
Ni       6.18270759       8.68382301       0.08420169       0.00253109      -0.00361419       0.00072997      -6.15844448
Al       7.72033034      10.14119834       1.44094777      -0.00004232      -0.00290305      -0.00313809      -4.52833729
Ni       6.10899917       8.64375677       2.77024090       0.00130304       0.00093626       0.00341901      -6.27251090
Al       7.73001438      10.11924800       4.26466665       0.00190760      -0.00326420      -0.00596786      -4.53324451
Ni       6.29252919       8.71555562       5.77766104       0.00094746      -0.00120542       0.00212369      -6.20298707
Al       7.78027575      10.09681356       7.19989548      -0.00303102       0.00325569      -0.00191508      -4.57935198
Ni       6.28411684       8.67837868       8.60864622       0.00374122       0.00327101      -0.00925998      -6.24502277
Al       7.67508236      10.08828357      10.13529032      -0.00070991       0.00312605       0.00290689      -4.60554241
Ni       9.06099419       0.07649305      -0.04106219      -0.00522810      -0.00527267       0.00011020      -6.24722296
Al      10.40231296       1.49711083       1.46789630       0.00320560       0.00473174       0.00348534      -4.29066845
Ni       9.02485803       0.07009484       2.90205251      -0.00192406      -0.00225862      -0.00021663      -6.13131445
Al      10.62458957       1.46524766       4.30424589       0.00110346      -0.00456018      -0.00094764      -4.41677479
Ni       9.08820667       0.07311398       5.71214572       0.00384386      -0.00114570       0.00216965      -6.20287124
Al      10.37621965       1.51493684       7.21518740      -0.00255053       0.00094832      -0.00671401      -4.47060133
Ni       8.97992212       0.04872382       8.66422710      -0.00154690      -0.00578899      -0.00604252      -6.18868919
Al      10.31563114       1.55001738      10.01678093      -0.00206180       0.00644382      -0.00599518      -4.33736687
Ni       8.99100207       2.89600966      -0.02771699       0.00035297       0.00171704      -0.00054845      -6.20107629
Al      10.57914903       4.27684386       1.31087533       0.00776229       0.00963471       0.00042554      -4.25921802
Ni       9.12016601       2.97079056       2.95292467      -0.00074046       0.00217622      -0.00157239      -6.26178613
Al      10.82766146       4.25221919       4.34779434       0.00088314       0.00229070       0.00514918      -4.41707948
Ni       9.10148274       2.93868369       5.63485839      -0.00093465      -0.00037404      -0.00275355      -6.14110257
Al      10.39421457       4.36850813       7.18356054      -0.00127678       0.00339567       0.00456106      -4.50243697
Ni       8.90680019       2.97414736       8.63784409       0.00097570      -0.00148851       0.00454239      -6.22672361
Al      10.37645313       4.38508964      10.08611138       0.00180015       0.00315220      -0.00671512      -4.41719629
Ni       8.98973498       5.70826970       0.06308199       0.00014919       0.00230574      -0.00609945      -6.23981245
Al      10.73667280       7.04822367       1.27371933       0.00350045       0.00250867      -0.00241008      -4.40602195
Al       9.06564045       5.66174064       2.92213190       0.00474346       0.00051870      -0.00429622      -3.76895688
Al      10.70615141       7.15115974       4.42003660       0.00803962      -0.00627248      -0.00075822      -4.35808881
Ni       9.05708499       5.69301522       5.55809785      -0.00207882      -0.00101027      -0.00580536      -6.26297002
Al      10.57682550       7.14842329       7.23780587       0.00442530      -0.00991587      -0.00467317      -4.53945281
Ni       8.99831199       5.78698187       8.69064462       0.00194815      -0.00955206       0.00209029      -6.17648786
Al      10.62619796       7.14526520      10.08524353       0.00223066       0.00716509       0.00183082      -4.51874401
Ni       9.38188125       8.72707639       0.00537031      -0.00327835      -0.00888169      -0.00784357      -6.13616817
Al      10.53488989      10.36492414       1.42278210       0.00228342      -0.00616497       0.01008749      -4.36960744
Ni       9.45834170       8.70552357       2.86603180      -0.00324306      -0.00047602      -0.00010170      -6.27761261
Al      10.59251396      10.32239788       4.37313096      -0.00996661       0.00673703      -0.00324059      -4.37928257
Ni       9.28839341       8.72148239       5.73242780      -0.00340974      -0.00199369      -0.00684522      -6.16600829
Al      10.55647460      10.23729392       7.26845685       0.00287079       0.00894024       0.00199919      -4.54402471
Ni       9.20074083       8.64216967       8.67219008       0.00195565       0.00484628       0.00292256      -6.19686448
Al      10.54189521      10.20815513      10.01158601       0.00104624      -0.00518339      -0.00018446      -4.48046326
