164
Lattice="13.719124318712165 -0.10444196460628166 0.008448154222767502 -0.10438134856188533 13.738858139585066 -0.04402981732824383 0.008545915784880067 -0.04396652317518401 13.732589861494757" Properties=species:S:1:pos:R:3:forces:R:3:energies:R:1 rep=5 n_sites=250 energy=-745.5795732333602 stress="-6.982911859104955e-05 0.0006233195147645393 -0.0005410700487773111 0.0006233195147645393 0.0003809069573715779 7.757728771658098e-05 -0.0005410700487773111 7.757728771658098e-05 -0.0001357524859272434" free_energy=-745.5795732333602 pbc="T T T"
Al       1.80413464       1.43949039       0.97845166       0.00208081       0.00100419       0.00060814      -3.97672205
Ni       0.28257874       0.20462243       2.56101147      -0.00824925       0.00077687      -0.00114771      -6.06458740
Al       1.67512941       1.27610529       4.21418938      -0.00595385      -0.00112320       0.00295576      -3.91226107
Al       1.15018044       1.43411637       6.82213744       0.00722207       0.00791267       0.00801565      -3.75338156
Al       1.88930349       0.48978363       9.24063391      -0.00678261       0.00128893       0.00226219      -4.15951834
Ni       0.17469631      -0.33543333      10.68253766      -0.00783352      -0.00608930       0.00247571      -5.78286257
Al       1.46234685       1.26685925      11.99871617      -0.00302510       0.00498428       0.00863258      -3.75153368
Al       1.15360111       3.96669630       1.52662706       0.00017516       0.00484129       0.00447067      -4.02794677
Al       1.20995259       3.90451237       4.37159024      -0.00580679      -0.00187931      -0.00159138      -3.98510620
Al       1.27759738       4.13179418       7.07239478       0.00227973       0.00003490       0.00808142      -3.99935477
Al       0.95801191       3.35184119       9.70838505      -0.00295341      -0.00033192      -0.00993684      -4.07699764
Al       0.47547995       3.75816135      12.42179310      -0.00641242      -0.00275353       0.00593363      -4.14380053
Ni      -0.45256478       5.33627386       0.32831319      -0.00005624       0.00209878       0.00350543      -5.90405842
Al       1.15447636       6.69180808       1.62140851      -0.00635667      -0.01000069      -0.00003660      -4.40334247
Al       1.07075207       6.72574581       4.30410565      -0.00514751      -0.00188485      -0.00383430      -4.36556795
Al       1.31017053       6.86938061       7.33022424      -0.00085293      -0.00026397       0.00307670      -4.09293033
Al       0.40170296       6.19300228       9.87988281      -0.00200216       0.00242350      -0.00110232      -3.93556316
Al       1.13619056       6.47266152      12.55708477      -0.00131549       0.01116717       0.01359652      -4.39486812
Ni      -0.23039045       8.03738360       0.06508683      -0.00203138      -0.00404596      -0.00048403      -6.15012413
Al       1.38979282       9.52598461       1.47145310      -0.00144274       0.00631228      -0.00371127      -4.40108727
Ni      -0.27084730       8.22221162       2.78621744       0.00494825       0.00068328       0.00729099      -5.87108060
Al       0.98530688       9.46779590       4.27132277      -0.00508385      -0.00779542      -0.00946662      -4.34288182
Al       0.97776784       9.65563541       7.10494868      -0.00030278      -0.00066901       0.00117230      -4.24448505
Al       1.75918135       8.80050942       9.58744428       0.00320673       0.00290867      -0.00376557      -3.78750213
Al       1.16759697       9.35489772      12.24985955       0.00413420      -0.00106101       0.00180593      -4.38089858
Al       1.37461303      12.26829415       0.96239859      -0.00104381      -0.00070471      -0.00143035      -4.15656756
Al       1.25149868      12.14962963       3.78766920      -0.01280173      -0.00143698       0.00685174      -4.47814133
Ni      -0.18341894      11.25540353       5.58705949       0.00551548       0.00276208       0.00582615      -5.88570448
Al       1.33562877      12.51816116       6.93482311      -0.00171512       0.00159701      -0.00061648      -3.99415499
Al       1.19676371      11.49902680       9.49258051       0.00746875      -0.00188510       0.00193550      -4.05225479
Al       1.78156748      12.29849259      12.04174059      -0.00332674      -0.00133655       0.00300881      -4.24514669
Al       4.55449539       0.75490255       1.21551689      -0.00552932      -0.00568245       0.00454507      -4.10318230
Ni       2.79139241      -0.09099547       2.54774152       0.00109716       0.00040180      -0.01207499      -5.90218641
Al       4.34542741       1.35726724       3.89437777       0.00637717      -0.00146111       0.00064257      -3.92880860
Al       4.08669454       1.34657227       6.69960935       0.00536257      -0.00215663      -0.00581706      -4.27586011
Al       4.47852495       1.44744124       9.50004488       0.01861069      -0.00030581       0.00079182      -4.28442664
Al       4.10020531       0.90025737      12.26958169      -0.00504924      -0.00118897      -0.01034465      -3.94437275
Al       3.99697718       3.58396425       1.77386796      -0.00565536      -0.00032694       0.00082939      -4.29340981
Al       4.05968331       3.92663401       4.49018491       0.00571007       0.00886756       0.00490892      -4.25699257
Al       4.18178010       4.15899422       7.23786594       0.00326578       0.00948104      -0.00344559      -4.22685385
Ni       2.73240685       2.55625415       8.29165345      -0.01550859       0.00251453      -0.00112231      -5.77365251
Al       4.00489840       3.99902298       9.94655582      -0.00652145       0.00425370       0.00376258      -3.91754442
Al       3.28163252       3.47605961      12.73359254       0.00316403      -0.00111715       0.00234703      -4.15922226
Al       3.81367731       6.42697534       1.30217615       0.00957436      -0.00345252       0.00435952      -4.23005188
Ni       2.63594714       5.24298030       3.00589617      -0.00445345       0.00221854       0.00306666      -5.99622429
Al       3.95213881       6.95351309       4.20777499      -0.00296491      -0.00265677      -0.00152168      -4.45050537
Ni       2.66193161       5.56702020       5.71512584       0.00883733       0.00041376       0.00368729      -6.06421833
Al       4.15918240       6.95063025       7.13106067      -0.00180231      -0.00157214      -0.00618237      -4.13019527
Al       3.19963646       6.58820144       9.61635116       0.00507412       0.00141131      -0.00304093      -3.79087521
Ni       2.15952789       4.94228567      11.10897662       0.00844455      -0.00046915      -0.00467935      -5.78117060
Al       3.85550322       6.23128368      12.29501936       0.00440936      -0.00402027       0.00029559      -3.96504546
Ni       2.59082010       8.01959301       0.00607572       0.00065639       0.00122060      -0.00790886      -6.00717308
Al       4.30454764       9.17583028       1.32270131       0.00017439      -0.00006237      -0.00018210      -3.96993344
Al       3.78033675       9.58879217       3.94940087      -0.00390638       0.00394104       0.00074806      -4.12686647
Ni       2.48129764       8.18368155       5.69756961       0.00244847      -0.00120105      -0.00306032      -6.04753324
Al       3.98619537       9.56581090       6.80136160       0.00088408       0.00357259      -0.00134240      -4.32903028
Al       4.52541047       9.25038562       9.49780771       0.00423773       0.00705670       0.00296725      -4.10712084
Al       4.17381516       8.91713698      12.20419398      -0.00447145      -0.00198207       0.00177413      -4.22328573
Ni       2.84164767      10.60718986      -0.23100839      -0.00143131      -0.00327193      -0.00086211      -6.01321042
Al       4.08260755      11.86259442       1.39112241      -0.00304562       0.00349838      -0.00557444      -3.93286019
Al       3.91426094      12.40229616       4.07265675       0.00655392      -0.00702489       0.01280681      -4.37684434
Ni       2.43539605      10.89261720       5.50268855       0.00122299       0.00334994       0.00312203      -6.10986514
Al       4.00825343      12.30643004       6.78442162      -0.00230195       0.00909577      -0.00010499      -4.40558959
Al       4.02496577      12.09960216       9.50614807      -0.00387174       0.00505265      -0.00717688      -4.42097541
Ni       2.90738850      10.49062163      10.91974951       0.00096549       0.00152899       0.00368788      -5.89969953
Al       4.57654577      11.79630553      12.24876420      -0.00427853      -0.00145029       0.00264960      -4.33399372
Al       7.07198039       1.43876382       1.39867311       0.00553475       0.01066165      -0.00357764      -4.18660765
Al       7.05082503       1.36180981       4.01726950       0.00185969      -0.00125893       0.00169171      -4.30521950
Ni       5.65920914      -0.07273244       5.44692541      -0.01286004       0.00676774      -0.01085892      -6.07379719
Al       6.96395674       1.37882254       6.84999050      -0.00673025      -0.00539224      -0.00285001      -4.52435188
Ni       5.64989927      -0.17993401       8.18122179      -0.00328014      -0.00110564       0.00268208      -6.11833645
Al       7.38555228       1.10365167       9.52414807       0.00348899      -0.00243108       0.00334887      -4.27633271
Ni       5.64902283      -0.15285475      10.78013510      -0.00277139       0.00390303      -0.00164860      -5.88762535
Al       6.84338067       1.42652313      12.18726826       0.00135168      -0.00966290      -0.00125144      -4.36602466
Ni       5.33038808       2.64614153      -0.03065866      -0.00476966       0.00517884      -0.00311400      -5.88042155
Al       6.64026794       4.18555305       1.35974616       0.00511121      -0.00345304      -0.00476077      -4.56430335
Al       6.88371817       4.13542336       4.23512914      -0.00460665       0.00157431       0.00310708      -4.48805467
Al       7.17449026       4.26405204       6.86874865      -0.00183597       0.00029226      -0.00342758      -4.20742798
Al       6.76881861       3.87596429       9.56804601       0.00296000       0.00609985      -0.00377171      -3.94723721
Al       6.26489213       4.27827750      12.26405777       0.00342202      -0.00532846       0.00381237      -4.37908190
Al       6.41704240       7.05310061       1.44164640      -0.00182208      -0.00058502       0.00183466      -4.14222682
Ni       5.31994950       5.45844469       2.95965636      -0.00442948      -0.00117452      -0.00245049      -6.13940788
Al       6.72958203       7.05181991       4.29223845       0.00116578      -0.00273503       0.00764137      -4.10418893
Ni       5.45850472       5.50402290       5.69539021      -0.00250973      -0.00227948      -0.00466179      -5.97236410
Al       6.96854589       6.94175782       7.07943147       0.00621857      -0.00278223       0.00452795      -3.79988240
Al       5.92953134       6.75543161       9.68249832       0.00480581       0.00313735       0.00110758      -3.87067967
Al       6.46895106       7.18511602      12.40006398       0.00142006       0.00276237       0.00693960      -4.02478975
Al       6.95184688       9.65987245       0.70060414      -0.00408059      -0.00221573      -0.00722542      -3.54543113
Al       6.48753454       9.63377228       3.39587973       0.00148273       0.00506033      -0.00424034      -3.81919924
Al       6.86292828       9.44098939       6.21201203       0.00402138       0.00071987       0.00110074      -4.03375508
Al       7.28738403       9.44200434       9.04920155      -0.00417508      -0.00111923      -0.00288887      -4.05041037
Al       6.66158280       9.77016315      11.72084462       0.00195572      -0.00413677      -0.00434361      -3.85774623
Al       6.77620890      12.44931827       1.11868926       0.00090430      -0.00780476       0.00349411      -3.75497631
Al       6.94430821      12.28057112       3.84397146       0.00347439       0.00402036      -0.00104722      -4.13901133
Ni       5.38134993      10.97495261       5.22065049      -0.00287909       0.00689805      -0.00526191      -6.04019769
Al       7.01861521      12.23454409       6.67873363      -0.00502779      -0.00263260       0.00533324      -4.46638180
Ni       5.60428546      10.78924367       7.91610552      -0.00506353       0.00526197       0.00064044      -5.95636667
Al       6.92601037      12.09460889       9.43525827      -0.00066454      -0.00382928      -0.00423695      -4.37961514
Al       7.18783615      12.42957680      12.12408447       0.00519243      -0.00374410      -0.00437647      -4.16172154
Ni       8.49141705       0.23798953      -0.15514971       0.00533554       0.00213774       0.00177969      -5.98838075
Al       9.92868289       1.72553811       1.29987435      -0.00843700      -0.00117773      -0.00583894      -4.58080201
Al      10.00067670       1.49315831       4.08782303      -0.00694182      -0.00061911       0.00309262      -4.39341045
Ni       8.44869698      -0.05916571       5.35512707       0.00330758       0.00801774      -0.00098704      -5.98998889
Al       9.81825616       0.97660503       6.99831948       0.00280771      -0.00477261      -0.00061421      -4.19926509
Al      10.16825901       1.74343591       9.58084983      -0.00124940      -0.00161217       0.00426261      -3.79165491
Al       9.78867512       1.58689220      12.20285632      -0.00352975      -0.00811713       0.00070440      -4.20060655
Ni       8.15542155       2.90643392      -0.09542168      -0.00297303      -0.00162506       0.00773050      -6.16005309
Al       9.55716195       4.49245257       1.23261184      -0.00011956      -0.00295244      -0.00174025      -4.31764656
Ni       8.43143039       2.99386778       2.80113173      -0.00361077      -0.00389111      -0.00364103      -6.11190315
Al       9.78848064       4.48398440       4.14492050      -0.00202130      -0.00391083      -0.00024664      -4.18236062
Ni       8.50368703       2.69497266       5.47411505       0.00463243      -0.00173123      -0.00378459      -6.11881212
Al      10.22650114       3.74686480       6.78816085       0.00600632       0.00105481       0.00232126      -4.08514767
Ni       8.48484843       2.74356509       8.12642041       0.00125986       0.01068082      -0.00036369      -5.88253318
Al       9.48571937       4.57706065       9.35173120       0.00032790       0.00178372       0.00060382      -4.08178669
Al       9.35062229       4.26858001      12.05425292      -0.00274238       0.00626132      -0.00058883      -4.16020958
Ni       7.90667821       5.66412146      -0.20530395       0.00685560      -0.00115072       0.00765823      -6.10584665
Al       9.09151300       7.31411217       1.12479491      -0.00371792      -0.00858922      -0.00170197      -4.26659967
Ni       8.04136769       5.70877178       2.68069533      -0.00016357      -0.00137275      -0.00145958      -6.04874859
Al       9.42221102       7.25600960       3.90785833      -0.00107509      -0.00221940      -0.00198773      -4.07752878
Al       9.78636024       6.39218633       6.83450348      -0.00014903      -0.00156160       0.00314645      -3.84731312
Al       8.73463454       7.18049552       9.28465477       0.00241617      -0.00464571       0.00260750      -3.86932144
Ni       7.77102854       5.68316130      10.92898174       0.00309087       0.00487574       0.00311976      -5.89195800
Al       9.44224320       7.06162912      12.04483552      -0.00441150      -0.00130211       0.00630589      -4.22148658
Al       9.54900342       9.90856942       1.77216378      -0.00064961       0.00289470       0.00042814      -3.93236831
Al       9.20662773       9.87627190       4.56438531      -0.00316199      -0.00217374      -0.00408759      -3.77067151
Al       9.29285876       9.11367484       7.27222164       0.00529575      -0.00018336      -0.00669913      -3.92666850
Al      10.23915105       9.54717975       9.78672567      -0.00186523      -0.00534282      -0.00532033      -3.89495824
Al       9.19880958       9.75181440      12.63219856       0.00875881      -0.00030405       0.00210361      -4.31521017
Al       9.58197892      12.53450623       1.23652536      -0.00001757      -0.00571255       0.00315317      -4.19735544
Al       9.81489325      12.42784871       3.83533473      -0.00565695      -0.00053241      -0.00429076      -3.94512329
Al       9.67960832      11.95637594       6.55315960       0.00341036      -0.00328471      -0.00021116      -3.75959401
Al       9.67216948      12.62406916       9.22550765       0.00149302       0.00109593      -0.00180450      -3.79007258
Ni       8.53219588      10.94002711      10.68218223       0.00153859      -0.00537512      -0.00710542      -5.75877422
Al       9.86745658      12.41320971      12.02244993      -0.00067377       0.00323925      -0.00215582      -4.37837115
Ni      11.15140733       0.05681347      -0.11119786      -0.00329336      -0.00232829      -0.00840738      -6.09112919
Al      12.80292462       1.51060720       0.95451901       0.00656835      -0.00256900      -0.00159936      -4.22808045
Ni      11.40092267       0.27045770       2.59201299       0.00418162       0.00010908       0.00432919      -5.98322240
Al      12.78576039       1.94056495       3.76133283       0.00978885      -0.00624132      -0.00227244      -4.07124306
Al      12.31106040       1.93364141       6.50868905       0.00061912       0.00240165      -0.00236596      -3.59620662
Al      12.76429347       1.02685838       9.09949777      -0.00179967      -0.00361285      -0.00675115      -3.85774206
Al      12.46156466       1.19300846      11.88627093       0.00641587      -0.00183885       0.00071720      -4.08344283
Al      12.16982228       4.22329372       2.36129810      -0.00164566       0.00556759      -0.00106516      -3.83083005
Al      12.45588429       4.35742237       5.24885816       0.00065113       0.00049058       0.00218104      -3.64174842
Al      12.52188444       4.61903375       8.07958135       0.00269214       0.00299578       0.00367782      -3.71152303
Al      11.88260212       3.65587155      10.56333184      -0.00176287       0.00358538       0.00009347      -3.72244458
Al      11.64224120       3.62374651      13.32472846      -0.00437706       0.00115914      -0.00141803      -3.94565858
Al      11.80996000       6.81436054       1.52662802       0.00075112       0.00077119       0.00499233      -4.30950153
Al      12.08308056       6.81626328       4.29225239      -0.00085309       0.00026204      -0.00401002      -4.00752982
Al      12.37868146       7.30887418       7.21191115       0.00078596      -0.00524310      -0.00277782      -3.86284393
Al      11.41972411       6.65785232       9.72898370       0.00237338       0.00309876      -0.00086682      -3.67885268
Al      12.05257171       6.47661553      12.38669884       0.00618012       0.00164031       0.00191892      -4.16663187
Ni      10.83089475       8.38087480      -0.09671558      -0.00042973       0.00412303       0.00401285      -5.97377287
Al      12.31406470       9.64582146       1.39591899       0.00027705       0.00297128      -0.00142987      -4.34392807
Al      12.02415742       9.77507742       4.15535602       0.00233369      -0.00077143       0.00070919      -4.11632710
Ni      10.76007544       8.28212626       5.64909894       0.00441838      -0.00471857       0.00819805      -5.76244989
Al      11.88197201      10.05905857       6.99591060      -0.00261066      -0.00207570       0.00276219      -4.10409684
Al      12.85024031       9.04413409       9.40105586       0.00660908      -0.00452236      -0.00223309      -3.66417621
Al      12.23222017       9.43948321      12.09466031       0.00081570      -0.00078826      -0.00773707      -4.12865372
Ni      10.99897863      10.99470585      -0.06375442       0.00274625       0.00067113      -0.00332541      -6.05062808
Al      12.42677576      12.29314357       1.40540973       0.00028146       0.00110774       0.00232391      -4.33228690
Al      12.46930139      12.85256483       4.29332883       0.00205234       0.00130756      -0.00272373      -4.27111443
Al      12.24815560      12.86198827       7.00808929      -0.00687425      -0.00379292       0.00091989      -3.79380149
Al      12.20393749      11.76543792       9.58380576       0.00105302       0.00286686       0.00892915      -3.79003094
Al      12.68395063      12.19417132      12.41149483      -0.00099518       0.00081374       0.00062807      -4.25475738
