174
Lattice="13.948500852335734 -0.04590610249596537 -0.02427246663679622 -0.04568599220320529 13.958534789306599 0.06828035633083078 -0.024256296897697427 0.06852026085742441 13.926180838709056" Properties=species:S:1:pos:R:3:forces:R:3:energies:R:1 rep=5 n_sites=250 energy=-817.7041073271197 stress="-0.00038491858871502496 0.00023350085319593899 0.0001501048363406023 0.00023350085319593899 0.0003393680249498266 2.6700001942200383e-05 0.0001501048363406023 2.6700001942200383e-05 0.00013659238288702585" free_energy=-817.7041073271197 pbc="T T T"
Ni       0.10488532      -0.09661964      -0.15300135      -0.00196604       0.00010222       0.00180831      -6.23743729
Al       1.42308889       1.34806713       1.45122433       0.00501837      -0.00311665      -0.00175743      -4.62002847
Ni      -0.03845082      -0.01349626       2.87956840       0.00368486      -0.00364242       0.00481964      -6.03856178
Al       1.41048782       1.19253466       4.42860500       0.00254744      -0.00114141       0.00096516      -4.13881915
Al       0.88736473       1.27356338       7.19770565      -0.00337269       0.01179398       0.00512460      -3.76608025
Al       1.60990088       1.36199461       9.72604527       0.00287010      -0.00516051      -0.00073647      -3.94030697
Ni      -0.07179350       0.09129883      10.95029455      -0.00257757      -0.00509167      -0.00551942      -5.89895082
Al       1.34909877       1.49379249      12.40287941      -0.00226781      -0.00103363       0.00400478      -4.55942432
Ni      -0.02595371       2.82390232       0.03720608      -0.00173569       0.00513814      -0.00150551      -6.17050662
Al       1.45156425       4.15418563       1.49305656      -0.00026140      -0.00036531       0.00002109      -4.35472130
Ni       0.02191298       2.66713170       2.93211036      -0.00309219      -0.00273059       0.00033503      -6.14682792
Al       1.37518456       4.16580706       4.22965254      -0.00301347      -0.00205558      -0.00000656      -4.49493408
Ni      -0.08143675       2.74247039       5.59634996      -0.00130398       0.00431316      -0.00276039      -5.97461296
Al       1.46677563       4.10210773       6.97272997      -0.00231477       0.00096151       0.00120214      -4.44069679
Al       1.34882726       4.13730251       9.69065371       0.00102638      -0.00484175      -0.00312477      -4.46870443
Al       1.37764941       4.31450810      12.50024575       0.00038804       0.00193333      -0.00168040      -4.54212829
Al       1.46680144       7.01129781       1.38575522       0.00138322      -0.00159737       0.00473506      -4.09222614
Al       1.25033852       7.06038106       4.12431646       0.00006478      -0.00261636       0.00001721      -4.07409196
Ni      -0.07948095       5.60377059       5.68310962       0.00612917      -0.00149053       0.00718335      -6.19436497
Al       1.29663307       7.33044265       6.89524184       0.00649608       0.00162581      -0.00439232      -4.31015813
Ni       0.06513518       5.71676957       8.37673254       0.00576502      -0.00468904      -0.00278168      -6.14556180
Al       1.49073191       7.30737410       9.67014936       0.00275477      -0.00118150      -0.00672701      -4.48628334
Ni       0.08920735       5.79178751      11.03299281       0.00041915      -0.00012684       0.00203289      -6.09207350
Al       1.56403368       7.13416223      12.53880187       0.00321991      -0.00227329      -0.00277896      -4.39046573
Ni       0.12951379       8.47960099       0.08391465      -0.00053784       0.00403675      -0.00056217      -5.98669196
Al       1.39681721       9.82227692       1.84101958      -0.00470194       0.00285123      -0.00745833      -3.92252637
Al       1.43316515       9.63074815       4.84155062      -0.00705862       0.00252547      -0.00031395      -3.53114984
Al       0.88776398      10.28874278       7.44616109       0.00650801       0.00593696      -0.00687132      -3.57608872
Al       1.59524705      10.05654627      10.02288114       0.00469127       0.00372442       0.00051896      -3.79413695
Ni       0.05502974       8.53475949      11.20659396       0.00078839       0.00280292       0.00287759      -6.07727452
Al       1.52702330       9.91991382      12.71315498       0.00246015       0.00702875      -0.00519141      -4.06279772
Ni      -0.00076082      11.14573919       0.07674894      -0.00576470      -0.00659582       0.00643386      -6.09840865
Al       1.39769644      12.54531881       1.45620894       0.00076611       0.00240355      -0.00039033      -4.19658037
Al       1.29000030      12.24214478       4.11387818      -0.00359817       0.00928700       0.00320165      -3.74694376
Al       1.86330620      12.79980450       6.69716598      -0.00151433      -0.00064786       0.00441713      -3.63530451
Al       0.90291040      12.61787760       9.30922875      -0.00618507      -0.00191019      -0.00231391      -3.89827830
Al       1.38314730      12.59557262      12.30872804      -0.00107624       0.00108909       0.00167470      -4.25921461
Ni       2.81333007      -0.01687856      -0.04870722       0.00672250       0.00616971       0.00264119      -6.14360687
Al       4.17549835       1.46310157       1.38191464      -0.00606246       0.00491375       0.00110554      -4.55081902
Al       4.06979892       1.34497841       4.23227655       0.00103516       0.00146553       0.00115356      -4.10165671
Al       3.66297453       1.50189373       6.95647296       0.00612752       0.00414657       0.00254464      -3.96780587
Al       4.29177122       1.16068599       9.64537607      -0.00209832      -0.00324057       0.00722304      -4.12103542
Al       4.24167928       1.40027740      12.48177087      -0.00323212       0.00158220      -0.00116701      -4.52066894
Ni       2.73297761       2.76426600      -0.07842541      -0.00237677      -0.00611714       0.00237085      -6.06529033
Al       4.19944211       4.18524045       1.39296238      -0.00385090      -0.00518228       0.00288927      -4.25319328
Al       4.15202710       4.20837366       4.19149658      -0.00330521      -0.00534057       0.00104050      -4.44480492
Al       4.37876137       4.53401220       6.91506917       0.00465270      -0.00578385      -0.00167500      -4.41048561
Al       4.14666856       4.21354454       9.56098034      -0.00398876      -0.01094134       0.00160255      -4.49297471
Ni       2.91850708       2.86426365      11.10658108      -0.00199379       0.00464611       0.00267087      -6.05907885
Al       4.25355807       4.26647106      12.50952598      -0.00064759       0.00325716       0.00420431      -4.46775831
Al       4.23765778       6.92128070       1.37063064       0.00437893      -0.00056114      -0.00252723      -4.18908063
Ni       2.75912707       5.64749307       2.87241894      -0.00029066       0.00470154      -0.00655971      -5.90121968
Al       4.15465165       7.09946548       4.21533024       0.00312554       0.00521047      -0.00565477      -4.28208911
Ni       2.71461709       5.74873769       5.58703375      -0.00518407       0.00129278      -0.00382992      -6.14136181
Al       4.12074698       7.41082627       6.95139378      -0.00363855       0.00596443       0.00021198      -3.92341212
Ni       2.74646376       5.78679094       8.23495755      -0.00144389       0.00181007      -0.00168998      -6.12355829
Al       4.31278875       7.03019819       9.64900717       0.00912066      -0.00747037       0.00083060      -3.88023017
Ni       2.79014305       5.66255679      10.99042575      -0.00247459      -0.00207072      -0.00070686      -6.08255179
Al       4.34479365       6.99171281      12.38875120       0.00385189      -0.00291717       0.00691624      -3.99514312
Al       4.07929111       9.66981264       1.33649531      -0.00155723      -0.00308483       0.00355005      -3.98533414
Al       4.09395001       9.88289865       4.12420717       0.00134607      -0.00235780      -0.00015942      -3.98545148
Al       3.56350733      10.14791125       6.85793619       0.00196460      -0.00004648       0.00879388      -3.84124559
Al       4.23456075       9.70474699       9.50274722       0.00049144      -0.00372479       0.01054257      -3.66307761
Al       4.13111618       9.63788462      12.47526058      -0.00072251      -0.00065836      -0.00098251      -3.94015207
Al       4.04652257      12.40814798       1.57699736      -0.00598271       0.00019822       0.00290960      -4.28280847
Al       3.99641609      12.61058274       4.44106669      -0.00152118      -0.00624269      -0.00529247      -3.98550663
Al       4.48549900      12.79911675       7.33537844      -0.00000285       0.00066618      -0.00271309      -3.80406187
Al       3.67359735      12.37941254       9.89353505      -0.00281298      -0.00888917      -0.00658999      -3.78058007
Al       4.04855928      12.52900079      12.55809382      -0.00737565       0.00913135      -0.00214159      -4.35788707
Ni       5.50498496      -0.16055475       0.09870523      -0.00599715       0.00094295      -0.00202625      -6.11041773
Al       7.05096468       1.28823517       1.37780567       0.00047186       0.00104084      -0.00082269      -4.42429092
Ni       5.49032395      -0.01834995       2.77864220      -0.00459224       0.00087792      -0.00120870      -6.03017490
Al       7.01011133       1.34881330       4.27501885       0.00145281       0.00382118      -0.00730381      -4.44173993
Al       6.50811320       0.95584850       6.90925093      -0.00241300       0.00849116       0.00892407      -4.33509284
Al       7.13869734       1.43908639       9.49006438      -0.00388500      -0.00603488      -0.00044459      -4.38068084
Al       6.87785424       1.36833011      12.54780719       0.00236784      -0.00097433      -0.00217064      -4.29098109
Al       6.91582411       4.14154171       1.37263228       0.00668251      -0.00217801       0.00671398      -4.43503958
Ni       5.60641424       2.69377932       2.91513573      -0.00129847      -0.00162601       0.00303997      -6.08308785
Al       6.93197084       4.18723225       4.31248547      -0.00510545      -0.00656297      -0.00043941      -4.52348696
Ni       5.44037863       2.76290042       5.67278646      -0.00020928       0.00852548      -0.00490827      -6.05119655
Al       7.24717608       3.86823061       6.95640694      -0.00768321      -0.00740579       0.00141925      -4.45525963
Ni       5.50982903       2.74183313       8.20524078       0.00080823       0.00708581      -0.00808580      -6.05340461
Al       6.96425226       4.23541451       9.60746132      -0.00484252       0.00340745       0.00134702      -4.33501211
Ni       5.59948754       2.78498894      10.92940485      -0.00128877      -0.00011664       0.00511736      -6.15744700
Al       6.98258239       4.23511594      12.44934393       0.00081658       0.00060348      -0.00566924      -4.30619539
Ni       5.69907613       5.59158000      -0.06040465      -0.00296895       0.00694545      -0.00691370      -5.76751171
Al       6.98667537       6.91661708       1.51556001      -0.00419013      -0.00077987       0.00130051      -4.18295641
Al       6.99392889       7.00851747       4.23889917       0.00163173       0.00222094       0.00037197      -4.24484478
Al       6.77685264       6.79944487       6.97431699      -0.00435384      -0.00124933       0.00258697      -4.09484563
Al       6.96672205       6.93310920       9.97168325      -0.00006764       0.00059686       0.00709907      -3.94166347
Al       7.24530355       7.07927674      12.68018220       0.00689015       0.00004651      -0.00295593      -3.77564868
Al       6.93975092       9.68180897       1.35517624       0.00360679       0.00063619      -0.00066206      -3.98137134
Ni       5.54196656       8.39363923       2.83215804       0.00233323      -0.00190575      -0.00134840      -5.76761390
Al       6.88312116       9.80848789       4.18415293       0.00064950       0.00486240      -0.00191488      -4.25857209
Al       6.64510482       9.51030912       7.00610563      -0.00121951      -0.00116680      -0.00253950      -4.22320928
Al       6.93609460       9.79667339       9.71708333      -0.00149764       0.00652875      -0.00474132      -4.25659265
Al       6.94034402       9.74374145      12.55845056      -0.00171013      -0.00786148      -0.00046924      -4.11919399
Ni       5.50412528      11.09188886      -0.03114632      -0.00271305       0.00318344      -0.00002249      -6.02197099
Al       6.91417707      12.40278188       1.57510501      -0.00206335      -0.00182974      -0.00267938      -4.14650396
Al       6.75652034      12.63851022       4.33740516       0.00100064      -0.00256752      -0.00270158      -4.39072718
Ni       5.47281578      11.14690173       5.75851543      -0.00080077      -0.00127417      -0.00299634      -5.88947402
Al       7.14861753      12.32288908       7.30536582       0.00222155      -0.00192076       0.00273736      -4.14624550
Al       6.60062161      12.74752523       9.82753773      -0.00194854       0.00533613       0.00306138      -4.14597364
Ni       5.49015649      11.10626816      11.16166814       0.00697977       0.00055530      -0.00928713      -5.99211797
Al       6.89300584      12.64369937      12.61380581       0.00446334       0.00427478       0.00373662      -4.51408656
Al       9.83999946       1.43352935       1.43902562       0.00226374      -0.00028281       0.00403187      -4.11039453
Al       9.70415974       1.28223713       4.21141895       0.00456089       0.00150053      -0.00395685      -4.13524577
Ni       8.34384660      -0.11033441       5.69565074       0.00752796      -0.00614084       0.00512991      -5.90459731
Al       9.33286643       1.55772740       7.10722457       0.00261139       0.00163730      -0.00260986      -3.80252285
Al      10.01686021       1.38187234       9.73824510       0.00135347      -0.00135899      -0.00024996      -3.94166980
Ni       8.36317500       0.08722681      11.07496881       0.00662584       0.00112325       0.00520931      -6.07159289
Al       9.75393847       1.43306999      12.61866311      -0.00249154      -0.00948360       0.00044872      -4.19582854
Al       9.83236561       4.18881351       1.35475577      -0.01034207       0.00254491       0.00824239      -4.26154281
Ni       8.33238855       2.82094086       2.77423649      -0.00126958       0.00606937       0.00376189      -6.00767625
Al       9.80054850       4.00237156       4.28169748      -0.00210856      -0.00426890       0.00261861      -4.38882549
Al       9.92919440       4.17857088       7.11437257       0.00260075       0.00212179       0.00350553      -4.10255852
Al       9.71744866       4.18176270       9.77250444       0.00272231      -0.00095969       0.00479209      -3.91949381
Ni       8.32859068       2.71439817      11.12453041      -0.00307377       0.00583979      -0.00458178      -6.00157539
Al       9.75579015       4.22863782      12.48679070      -0.00654651       0.00790515       0.00034770      -3.89934995
Al       9.73457922       6.96064739       1.38579422      -0.00075454      -0.00337020      -0.00019954      -3.95625191
Ni       8.40559219       5.45673633       2.85267201       0.00000939      -0.00262591       0.00284736      -6.01710477
Al       9.81841622       6.92777830       4.13681692       0.00102203       0.00171163       0.00231565      -4.32837114
Ni       8.47532274       5.55823138       5.63570176      -0.00017311      -0.00185124       0.00400619      -6.14721116
Al       9.79014153       7.15014795       6.92168054       0.00278964      -0.00535092       0.00050247      -4.37205244
Ni       8.38785661       5.67723203       8.32517279      -0.00301215       0.00674500       0.00079062      -6.03606511
Al       9.85275618       6.94763061       9.79059523      -0.00560903       0.00410216      -0.00062409      -4.26304191
Al       9.95539170       6.95255234      12.59600607       0.01265226      -0.00131195       0.00093509      -3.70422064
Al       9.62204618       9.71299284       1.38949165       0.00302017      -0.00430079       0.00061242      -4.11545965
Al       9.64918611       9.65106651       4.28270157      -0.00177928       0.00255256      -0.00173669      -4.37332723
Al       9.47904339       9.89773851       7.12457958       0.00968735      -0.00207718       0.00294067      -4.22860215
Ni       8.22963195       8.25341995       8.40513071       0.00116381      -0.00005262      -0.00299605      -5.93093867
Al       9.64665630       9.69532806       9.76682839      -0.00467860      -0.00533142      -0.00429144      -4.33928118
Al       9.62051438       9.73222290      12.58588545      -0.00092170      -0.00602039       0.00260080      -4.27370350
Al       9.62105945      12.58377159       1.39082498       0.00246482      -0.00383923       0.00290023      -4.11264510
Al       9.62371002      12.51076554       4.19596394      -0.00517680      -0.00271809       0.00033670      -4.54737164
Ni       8.23158284      11.17680316       5.58560290      -0.00129190       0.00117430      -0.00279053      -6.01682635
Al      10.07773567      12.79222134       7.02231376       0.00113886       0.00194649      -0.00348088      -4.14891594
Al       9.48011402      12.56586540       9.59100081      -0.00599458      -0.00187362      -0.00041719      -4.13088614
Ni       8.22003541      11.28047410      11.13598612      -0.00124287      -0.00534935       0.00105796      -6.15848755
Al       9.68821133      12.65616236      12.57122798      -0.00227628       0.00048849      -0.00483247      -4.32430962
Al      12.54086601       1.28528078       1.31854258      -0.00534751       0.00089626       0.00009289      -4.59064827
Ni      11.17792442      -0.13366457       2.79302588      -0.00765103      -0.00182424       0.00653892      -6.00675509
Al      12.41013927       1.33141567       4.22974270      -0.00610692      -0.00787891      -0.00143662      -4.34337215
Al      12.07875690       1.26558210       6.93583667       0.00287965      -0.00415361       0.00465851      -3.68137725
Al      12.75900029       1.68568876       9.52900345       0.00420678      -0.00036954       0.00592534      -3.73452962
Al      12.50434159       1.44232279      12.38033237       0.00645954       0.00032887       0.00565820      -4.36463895
Ni      11.27258298       2.83495375      -0.06576434       0.00573540       0.00136719       0.00008892      -5.91391575
Al      12.58990597       4.20719323       1.47573772       0.00472827       0.00728331       0.00220735      -4.08641289
Al      12.49493342       4.14620374       4.15182243       0.00237150      -0.00600572      -0.00017909      -4.33138487
Al      12.58818831       4.05685075       7.08646358       0.00124903       0.00015786      -0.00070459      -4.25245893
Al      12.41920483       4.37132219       9.75269762      -0.00349557      -0.00001891      -0.00154257      -3.92018709
Al      12.59863899       4.34870372      12.47702640      -0.00422137       0.00295727       0.00312042      -4.21721081
Al      12.54420692       6.96308926       1.36134707       0.00166475      -0.00197553      -0.00320879      -3.91368179
Al      12.53961564       6.96914637       4.14491063      -0.00027778       0.00624625      -0.00381383      -4.19774869
Ni      11.17888976       5.53864968       5.60739249      -0.00476208      -0.00254349       0.00074090      -6.07570995
Al      12.47710146       6.97995405       7.00964614       0.00366870       0.00346262      -0.00347759      -4.06890912
Al      12.61528707       7.22311459       9.63992200       0.00025165      -0.00218748      -0.00127815      -4.38390395
Al      12.65754644       7.03865577      12.57495603       0.00213511       0.00033596      -0.00256518      -4.23365389
Al      12.55055648       9.71564572       1.44144783       0.01176498       0.00563547      -0.01284948      -4.50988247
Ni      11.13745448       8.41604555       2.81165191      -0.00614553      -0.00355838       0.00383339      -5.91703857
Al      12.62459354       9.71249258       4.30764424      -0.00480042       0.00351623       0.00313274      -4.09568365
Al      12.22757285       9.58386133       7.12360721       0.00692735      -0.00009355      -0.00249127      -3.72672803
Al      12.68742119      10.06334340       9.75422562       0.00526265      -0.00182442      -0.00796193      -4.18592602
Ni      11.21686945       8.46764973      11.11513765      -0.00209482       0.00119622      -0.00635587      -5.99919954
Al      12.50328466       9.81668164      12.57816362       0.00726074       0.00202793       0.00664045      -4.63047557
Ni      11.08062497      11.14342786       0.02472278       0.00286834      -0.00175804      -0.00135344      -6.11950968
Al      12.52524754      12.51123849       1.41091140       0.00563728      -0.00809575      -0.00994699      -4.62473548
Ni      11.08273986      11.06987092       2.83879216       0.00275550      -0.00079725       0.00214068      -6.27732115
Al      12.51435954      12.47993647       4.32648541      -0.00327227       0.01038925       0.00719944      -4.33902288
Ni      11.08748824      11.10222161       5.66164539      -0.00826545      -0.00284243       0.00050028      -5.96617202
Al      12.89374672      12.34984998       7.05258419      -0.00062413      -0.00126873      -0.00278721      -3.78811487
Al      12.12509614      12.85082368       9.68047826       0.00057515      -0.00370320      -0.00213106      -3.99266706
Ni      10.95711876      11.15584608      11.12589620       0.00108244       0.00393545      -0.00276996      -6.06696140
Al      12.49613564      12.55571321      12.44095741       0.00368746       0.00196631      -0.00394834      -4.49829661
