128
Lattice="13.45546872032061 -0.23620689571013725 0.583867164316271 -0.24207233333906292 11.790669486026271 -0.7046926294883225 0.5540029845791703 -0.6906303831312217 12.128037430076139" Properties=species:S:1:pos:R:3:forces:R:3:energies:R:1 energy=-587.0836783332034 stress="0.00042560740569698007 0.00020087014646641982 -0.00029314775659215194 0.00020087014646641982 -0.0015955604539101918 -0.0012944427763489268 -0.00029314775659215194 -0.0012944427763489268 0.0019142503135082649" free_energy=-587.0836783332034 pbc="T T T"
Al      -0.42563899      -0.13541337       0.64131381      -0.01063256      -0.00104685       0.00952693      -4.05280594
Al       1.57050491       1.17934474       2.34576595       0.00716712       0.00537944       0.00299223      -4.19436368
Ni       0.01721595      -0.66814352       3.16706618      -0.00729901      -0.01717900      -0.01737051      -6.06224165
Al       3.02999806       1.42744576       4.87829130      -0.02257723       0.00455919       0.01693140      -3.99739306
Al       0.11635976      -0.26292813       5.97752739      -0.00609327       0.02488811       0.02475339      -3.75576817
Al       2.26711917       1.00720894       9.31445862       0.00629872      -0.00413190       0.00258928      -4.25215927
Ni       0.42813386      -0.04096784      10.41030540       0.00874115      -0.00767041      -0.00824319      -5.94739057
Al       1.17521489       1.81292992      12.12440089       0.00930316       0.00534780       0.01782164      -4.21969642
Ni      -1.10253447       4.28117901       0.40326343       0.00917457       0.01763784       0.01093995      -5.91933378
Al       2.51703338       3.67229958       1.73016557      -0.00287739      -0.00782900       0.02444160      -3.99124832
Ni       0.22607323       3.31990918       2.47151135       0.00527876       0.00063553       0.01567210      -5.99590430
Al       1.70215695       3.85267785       4.35005816      -0.00039378      -0.02663090      -0.02089111      -4.26275466
Al       1.21936784       2.33460783       6.74659473      -0.00215612       0.00085483       0.01837518      -3.98085426
Al       2.03906974       4.52426998       8.46278602      -0.00286667       0.00407594       0.01897574      -4.28897806
Ni       0.64081711       2.82967297       9.92099836       0.00760559      -0.00805662      -0.00556640      -6.13955635
Al       3.13430132       3.24550802      10.74965837      -0.01198108       0.00648958       0.00577422      -4.12935739
Al       0.35668689       5.68494624      -1.00116707       0.01156963      -0.00599401       0.00262059      -4.24310554
Al       1.74856559       7.30866585       0.72409069       0.00575693       0.01054360      -0.02624891      -3.78373319
Al      -0.04044603       5.73698540       1.97087985       0.00546612      -0.02660867      -0.00672117      -3.96800878
Al       0.79745145       6.52363234       4.43885470       0.01116561      -0.00222621      -0.00058351      -3.82450917
Ni       0.76544909       4.86521757       6.32248091       0.00607671       0.00772763       0.00767043      -6.03768424
Al       0.99442795       7.09310308       7.26061210       0.04182432       0.00723739       0.00061723      -4.10289708
Al      -0.73191528       3.81268010       7.93809722       0.01084180       0.01700412      -0.00709337      -4.13718401
Al       1.87398181       7.43302715       9.76468705      -0.01014755       0.00079395      -0.00461556      -3.80827129
Al      -0.36740715       8.72635848      -0.42316821      -0.02594784      -0.00125868       0.00616773      -3.49800283
Al       1.57703898      10.17432844       0.70006104       0.01868016       0.00110569      -0.02521531      -3.91059074
Al       0.33337427       8.58179913       2.67224970      -0.01043876      -0.00452448       0.00235303      -3.92365786
Al       1.84736347      10.71899068       3.51606090       0.01664033      -0.00930575       0.00901546      -3.76087371
Al      -0.28432208       8.75627362       5.40672402      -0.00215337       0.00485573       0.00086409      -4.02012395
Al       0.68837818      10.11030366       7.76537396      -0.01719668      -0.00258740      -0.00016663      -4.00913798
Ni      -1.01576222       8.31101096       7.63682756      -0.01684306       0.00838712      -0.00449306      -5.88578948
Al       1.93054792      10.15611992      10.20255198       0.01753253      -0.02550121       0.00944194      -4.02906930
Ni       3.81736406      -0.85091105      -0.23241395      -0.02676045       0.00766361      -0.02145727      -5.90128222
Al       6.22682878       1.16265050       1.98351685      -0.01873803       0.01002610      -0.01105314      -4.30613986
Al       3.96190086      -0.39053290       2.30293368      -0.01827269       0.02839447       0.02514842      -3.93872965
Al       5.64322393       0.93535386       4.51624016       0.01548872      -0.02752654       0.00257988      -3.87027992
Al       2.69410271      -0.70024671       6.78038906      -0.00055679      -0.00576582       0.00360582      -3.63617804
Al       4.19660280       1.42618437       7.30719899       0.01489486       0.01300599       0.01533655      -3.96374127
Al       4.59076000      -0.73724653       9.52153987       0.01416160      -0.00914355       0.00680241      -4.14956666
Al       6.64730029       0.07254522      11.22387847       0.00704960       0.00506441      -0.02599036      -4.17383957
Al       3.53562758       1.56688557       0.06908268      -0.00491349      -0.00693165      -0.01192776      -4.10991846
Al       3.84395630       5.58385592       0.51504719       0.01524000       0.01365497      -0.00054549      -3.91722385
Ni       4.01719009       1.92317359       2.70745732       0.00186707      -0.00304855      -0.02410453      -6.01361630
Al       4.50281594       3.75813905       4.20607060      -0.00274477       0.02458769      -0.00580394      -4.11383183
Ni       3.28833209       3.57071307       6.35768197      -0.00485892      -0.00063385       0.02557722      -6.05257347
Al       4.91890618       3.74745024       8.41364581      -0.00469891      -0.01118613      -0.03036163      -4.19634304
Ni       4.63563358       1.64558022       9.73088166       0.00014201       0.00637403       0.01955177      -5.90824145
Al       6.34585981       2.87140614      10.82461999       0.01307615      -0.00557476       0.01563028      -4.23332831
Ni       2.67122958       6.40516306      -1.46405660       0.00398849      -0.00810197       0.00002553      -6.03123819
Al       5.54967344       7.65928430       1.34301790      -0.00577266      -0.03316379       0.00482157      -4.15943077
Al       3.15783189       6.20266482       3.06455926       0.00057514       0.00848643       0.00770180      -3.66895251
Al       5.16357917       7.69864903       4.50604540      -0.01146536      -0.00657938      -0.00391059      -4.07662175
Al       3.04886761       5.92534158       5.86642029       0.02498632       0.01528488       0.00254273      -4.04334671
Al       6.13072711       7.81972901       7.12889181      -0.01114340       0.00034084       0.00299120      -4.36489680
Al       4.14507033       6.41864026       8.45945965      -0.01163556       0.01779687      -0.01961533      -3.96446301
Al       5.70835641       5.67086225      10.49505490       0.00456140      -0.00067480       0.01738957      -4.33597569
Al       3.70985618       8.51208426      -0.61470655      -0.01178930      -0.03263690       0.00849478      -4.19018789
Al       5.64780240      10.36018413       0.14843428       0.05372192      -0.00335289       0.01209806      -4.20849524
Al       3.34203971       8.81641642       2.38817732       0.01184589      -0.00371956      -0.01052820      -3.68108300
Al       5.84862834      10.06395051       3.19071127      -0.01031020       0.00921016      -0.00102416      -4.23257368
Al       2.54503469       8.51917490       4.96627240       0.01997684       0.00719778       0.00513721      -3.73314828
Al       4.98400138      10.36951993       6.11083785      -0.00446186      -0.02396732      -0.01883301      -4.02904353
Al       3.16608015       8.80719919       7.64595024       0.00424523      -0.00632593      -0.00548758      -3.61143347
Al       5.76962986       8.96523261       9.64891823      -0.00920449       0.00127697      -0.03253657      -4.33089676
Ni       7.84153135      -0.00141894       0.70831283      -0.03051663      -0.04979460       0.02382048      -5.89971959
Al       9.00400243       1.58994526       2.06828915      -0.01264473       0.02418846      -0.02513708      -4.29034536
Ni       7.79324181       0.03415289       3.48214233      -0.00387358      -0.01373253      -0.02125883      -5.99403562
Al       8.68611929       1.84794636       4.79486138      -0.02213550       0.00247752       0.01436646      -4.13840104
Al       7.68074058      -0.25310511       6.15844303      -0.00321509      -0.02112263       0.01903516      -4.35912318
Al       9.16088834      -0.26135573       8.66040990      -0.01875704       0.00813328       0.00879924      -4.16224638
Ni       7.01130056      -1.56550888       8.51897741       0.00890073      -0.00679609      -0.01495999      -6.13474357
Al       9.49463089       0.87746357      11.31020092       0.02073654      -0.01626483      -0.01978219      -4.33873333
Ni       7.27231618       2.62688882       0.37254779      -0.01930460       0.01025959       0.00491040      -6.02624828
Al       8.05716509       4.19521563       1.89397534      -0.01242259      -0.00010516      -0.00673065      -4.29609154
Al       5.31911103       3.59528650       1.59813263      -0.00901536      -0.00355106       0.01551555      -4.21320685
Al       8.08020825       4.54587725       4.83087190       0.00737080      -0.02550818      -0.00652639      -3.96088293
Al       6.62769629       2.69473688       6.31455071      -0.00852258       0.00584327      -0.00553564      -3.76841685
Al       8.01163740       3.63342535       8.56041098      -0.00499219      -0.00908909      -0.00474166      -4.16331533
Al       6.65413367       0.95093486       8.53700994       0.01148505      -0.01435367      -0.00719992      -4.25706579
Al       9.06766325       3.70136001      11.20196530       0.01094885       0.00185173       0.00141089      -4.42448766
Ni       6.31052385       5.33322305       0.31098201      -0.00373291      -0.00787685       0.00292248      -6.18719087
Al       8.16912080       6.90444089       0.78176588      -0.03362843      -0.01883004      -0.02209017      -4.56635087
Al       6.32747856       5.72858107       3.10104982      -0.00999310       0.00282605       0.00425137      -4.01664508
Al       8.69329804       7.45320511       4.86953511      -0.02028228      -0.00762173      -0.01750634      -4.54375574
Al       5.66671673       5.23590117       6.06078573      -0.01995320       0.00986055       0.00062413      -3.82984291
Al       8.84726502       6.05885982       7.30861661       0.01326945      -0.02172075      -0.00669970      -4.43273033
Ni       6.54663778       5.63136858       8.22711194       0.00669602       0.00297152       0.00335773      -5.93823156
Al       8.30874822       5.94404884      10.07553628      -0.02247424       0.01854013       0.00019694      -4.46119928
Ni       6.41539499       8.27294311      -0.76417095      -0.00112061       0.00502072       0.00833711      -5.94036646
Al       7.99026313       9.64282513       1.13107220      -0.02038212       0.05566357      -0.05314680      -4.47118246
Ni       7.20940557       8.02136495       3.05108833       0.01759607       0.00491282       0.00525478      -6.03908081
Al       8.71328311       9.89748382       3.71517337      -0.00773195      -0.01280293       0.01095966      -4.26751503
Ni       6.90974612       9.18324614       5.30883602      -0.00853656      -0.01446772      -0.01649683      -5.98973257
Al       8.72740182       9.05985109       6.93621340       0.02859675       0.02178759       0.01424965      -4.25560431
Ni       7.81959730       7.90572654       8.86590686      -0.00133010      -0.02393936      -0.00449267      -5.77199953
Al       8.57451683       9.77728261      10.10818914      -0.00615174      -0.00264616      -0.00152705      -4.34671669
Al      10.27443820      -0.45873685       0.53245031       0.00974413       0.00769560       0.01019065      -3.90202169
Al      11.70012017       2.00216708       2.17155491      -0.00706261      -0.00386417       0.02092996      -4.23136778
Al      10.67757053       0.07157699       3.70424142      -0.01949589       0.00525597      -0.00467911      -3.93435734
Al      13.17384538       1.36596807       4.76826678      -0.01231140       0.01144515      -0.00559434      -4.12356866
Al      10.84217054       0.73834438       6.47155253      -0.00465479       0.00112903       0.01073165      -3.95160936
Al      12.97335956       0.76672332       8.94368534      -0.01182035       0.01077379       0.00957955      -4.17843697
Ni      11.13835052      -0.33011476      10.14370021      -0.00515727       0.02147235       0.00058000      -5.99116394
Al      12.17755437       1.31898442      11.56789266      -0.00492994      -0.00205311       0.02635597      -4.47348525
Ni       9.99317398       3.32057778       0.72385993      -0.00879809      -0.01085335       0.00832489      -6.17534643
Al      10.57727873       4.21009955       3.11440412       0.01996201       0.01670988       0.01121256      -4.49355439
Ni      11.06190758       2.33597253       4.57565931      -0.00353138       0.02948241      -0.00286806      -5.91144619
Al      12.49529116       4.17271423       5.16468765      -0.00640987       0.00746574      -0.00225334      -4.33478998
Ni       8.64837156       1.65788673       7.28494797       0.00058043       0.00526592       0.00157304      -6.02180066
Al      10.17308286       3.51702336       6.65794604      -0.01356990      -0.01056735      -0.01063058      -4.37567156
Al      10.45331193       2.03421401       8.99027440      -0.00378021      -0.00074918      -0.00528339      -4.10127795
Al      11.83886756       3.90715669      10.99635846      -0.02759188       0.00856355       0.01016963      -4.40681380
Ni       9.89677558       6.53033079      -1.05348465       0.03988140      -0.00125619      -0.00369509      -5.75251620
Al      10.78507788       6.06162587       1.18452465       0.01059168      -0.00855322      -0.00166303      -4.42043731
Ni       8.98329545       5.96856883       3.07769618       0.00801016       0.01385772      -0.01408891      -5.96081580
Al      11.27807496       7.12207021       3.86895184       0.01504375       0.00638266       0.00462406      -4.27160280
Ni      10.25038585       5.52658890       5.32969385       0.01584853      -0.02350128      -0.00259516      -5.99431670
Al      11.84198726       5.87708143       7.23542138       0.00343813      -0.01202344      -0.02561999      -4.39581605
Ni      10.41899370       4.49399812       8.96256630      -0.00145476       0.00697989       0.01378434      -6.19399326
Al      12.58099558       6.54687707      10.12246107       0.00805879       0.00551658       0.00054599      -4.13250601
Al      10.35819169       8.61581766      -0.09951313       0.01471243       0.01131616      -0.00576643      -3.91331528
Al      11.52922188       9.50243258       2.08963383      -0.00149270       0.03342506      -0.01202079      -4.03265570
Ni       9.63156182       8.17226190       2.23605809       0.03427132      -0.01717352       0.01296709      -5.89895640
Al      11.21469513       9.89164546       4.75324186       0.01157766       0.01871000       0.01635198      -3.83347498
Ni      10.75218960       7.89214149       6.30344872       0.01788701       0.00500064       0.00094188      -6.09252090
Al      11.26322755      10.06556173       7.48225052      -0.00610196      -0.00054638       0.00185855      -4.26947319
Al      10.26015877       7.55470103       9.10191639       0.01868786      -0.00039007      -0.00727586      -4.34738170
Al      12.25563443       9.48800597      10.19758795      -0.01302870       0.00396554       0.00654150      -4.20291010
