184
Lattice="14.080508069091653 0.0004699058456205606 0.004803633697301692 0.0004685407952865347 14.060779642942206 0.003435663713608261 0.004804148398309639 0.003435304787095475 14.078512687381954" Properties=species:S:1:pos:R:3:forces:R:3:energies:R:1 rep=5 n_sites=250 energy=-891.1542309166335 stress="-0.0006032833784086275 0.00014135877443036116 -0.0008362736730300734 0.00014135877443036116 0.0006624820797544098 -0.00044194632222491453 -0.0008362736730300734 -0.00044194632222491453 -0.00039691996648498414" free_energy=-891.1542309166335 pbc="T T T"
Al       1.41046174       1.34641977       1.49465762       0.00043786       0.00804768      -0.00291650      -3.96921468
Al       1.47795621       1.44254787       4.27808539      -0.00260446       0.00402775      -0.00110049      -4.12335765
Al       1.39120079       1.29101426       7.05217286       0.01129662       0.00756783      -0.00185700      -4.20279744
Al       1.40990402       1.38043514       9.74149580       0.00101396      -0.00542385       0.00155548      -4.43749835
Ni       0.03384897       0.05167096      11.25143286      -0.00631736       0.00562004       0.00136948      -6.01837202
Al       1.38464149       1.40347541      12.81731675       0.00384018      -0.00204273       0.00184246      -4.46969500
Al       1.37761121       4.13035396       1.36042754       0.00269727      -0.00050229      -0.00264988      -4.29704753
Al       1.37128519       4.17276003       4.23375816      -0.01302455      -0.00636522       0.00626328      -4.46526880
Ni      -0.01410468       2.77037979       5.71469238       0.00424427       0.00652604      -0.00084662      -6.01106710
Al       1.43188159       4.23004011       7.03383706      -0.00359410       0.01217462       0.00133295      -4.20768288
Ni      -0.02669788       2.80946144       8.39837708      -0.00155364       0.00032257       0.00116543      -6.14776380
Al       1.39109369       4.27174238       9.80788401       0.00623277      -0.00432064       0.00383464      -4.06509238
Ni       0.04609876       2.78437589      11.27289830       0.00863398      -0.00452129       0.00178754      -6.06910932
Al       1.34468975       4.23725899      12.70819828      -0.00013809       0.00164550       0.00607266      -4.21489321
Al       1.34962199       7.14997163       1.37588223       0.00335449      -0.00506381      -0.00014832      -4.30210616
Ni       0.00348744       5.64608122       2.71832922       0.00086658       0.00278131       0.00140384      -5.89387643
Al       1.33210035       7.03924922       4.21003833      -0.00625563      -0.00320482      -0.00316291      -4.60822573
Al       1.34674224       6.98969720       7.09532288      -0.00480086       0.00374645       0.00203507      -4.23395798
Al       1.42306173       7.00498862       9.83352709       0.00388005      -0.00179621      -0.00099869      -3.91585713
Al       1.32761176       7.00591346      12.67843832      -0.00495035       0.00220193       0.00001378      -4.09675717
Al       1.41709600       9.86950262       1.43965181      -0.00200709      -0.00280662      -0.00044879      -3.93774667
Al       1.41232447       9.96181201       4.23937210      -0.00112498      -0.00248520      -0.00344070      -4.15499070
Ni      -0.00791350       8.51133333       5.66321742      -0.00552844      -0.00500363      -0.00141248      -6.08612366
Al       1.38523531       9.87824167       7.14674419      -0.00316935       0.00962785      -0.00047913      -4.13500218
Al       1.44075362       9.77238002       9.91162791      -0.00054278       0.00131635       0.00059653      -4.10826776
Ni      -0.02014229       8.35579409      11.29077835      -0.01107999       0.00418291       0.00131142      -5.77309405
Al       1.36228680       9.80511783      12.70068259      -0.00111588      -0.00454521      -0.00382302      -4.26071986
Al       1.40509269      12.60767578       1.51711950      -0.00362010      -0.00073349       0.01004983      -3.90746710
Al       1.35550487      12.68819575       4.23391486       0.00041463      -0.00764419       0.00469631      -3.67731628
Al       1.43487871      12.56142219       7.05174388      -0.00246171       0.00647044       0.00890146      -3.65446968
Al       1.34384284      12.56596947       9.80610507       0.00005195      -0.00439523      -0.00214237      -4.11164861
Al       1.29708771      12.63362396      12.73831360      -0.00081065       0.00005963      -0.00001204      -4.49352650
Ni       2.80895109      -0.08432095       0.05983945       0.00797782      -0.00297158      -0.00528906      -6.04503300
Al       4.26665830       1.38861519       1.38470578       0.00372811       0.00692418      -0.00374488      -4.42589362
Al       4.25267026       1.41422409       4.24770325      -0.00072712       0.00183666       0.00105484      -4.40924071
Ni       2.84544355      -0.04621809       5.64991051       0.00089472       0.00487940       0.00149797      -5.92633169
Al       4.17284493       1.41280516       7.07388290       0.00269295      -0.00498261      -0.00252647      -4.31758704
Al       4.14627808       1.41207361       9.83301182      -0.00025742      -0.00180374       0.00002471      -4.56442971
Ni       2.70384214      -0.03742051      11.27043912       0.00772713       0.00131161      -0.00234899      -6.25342860
Al       4.17351708       1.43366786      12.70444368       0.00053470      -0.00224581      -0.00026045      -4.60987137
Al       4.22661703       4.26157007       1.29892518       0.00162482       0.00101056      -0.00567316      -4.46667003
Ni       2.89438462       2.81086434       2.79862618      -0.00120900      -0.00497497      -0.00693493      -6.00536663
Al       4.24074389       4.27662819       4.23547605      -0.00463622      -0.00062879      -0.00006222      -4.43257949
Al       4.21764470       4.21651549       6.98022603      -0.00201372       0.00035645      -0.00129747      -4.15917113
Al       4.07526150       4.23968842       9.83371667      -0.00228493      -0.00219720       0.00547741      -4.41627624
Ni       2.71198348       2.78924766      11.27548638       0.00335173       0.00105196      -0.00726250      -6.13632686
Al       4.11462810       4.24689727      12.68699500       0.00001404       0.00105166       0.00142607      -4.33270584
Ni       2.72099672       5.67321796      -0.00621601       0.00466701      -0.00331448       0.00123979      -5.90398718
Al       4.17826648       7.06024128       1.33311949      -0.00373421       0.00145772      -0.00416291      -4.48552718
Ni       2.71470574       5.62417483       2.75532183      -0.00424048       0.00594353      -0.00295618      -6.32120936
Al       4.24447438       7.00952987       4.25814946      -0.00004438       0.00163334       0.00033367      -4.62185025
Ni       2.79500455       5.64052056       5.62248321       0.00014263       0.00299288       0.00124850      -5.98145822
Al       4.22940097       6.96704526       7.03118734      -0.00002731       0.00063584      -0.00485593      -4.49322699
Al       4.16592532       7.00552123       9.92079965      -0.00175522       0.00528364      -0.00407167      -4.34983616
Al       4.18961715       7.05472283      12.66715781       0.00689170      -0.00279723      -0.00317054      -3.92479338
Al       4.23329242       9.84539460       1.41249887      -0.00268242       0.00207391       0.00316840      -4.46213659
Ni       2.85604387       8.49321864       2.87439762       0.00098534      -0.00284720      -0.00201132      -6.05046826
Al       4.28956952       9.79701841       4.28514977       0.00860807       0.00533923       0.00711265      -4.36688230
Ni       2.69150481       8.42178287       5.65934790      -0.00685033      -0.00338088       0.00118248      -6.19431105
Al       4.22627648       9.86497962       6.98680828       0.00494270       0.00479165      -0.00577890      -4.35626956
Ni       2.88566632       8.44712167       8.42470346       0.00141235      -0.00671441       0.00639452      -6.02500330
Al       4.20773141       9.88821200       9.89734901       0.00325473       0.00326144       0.01360908      -4.20858042
Al       4.24488044       9.79438919      12.65567094       0.00773113       0.00499701      -0.00220604      -4.09679604
Ni       2.82174709      11.25622070      -0.03056108      -0.00246846       0.00057239       0.00286574      -6.06653665
Al       4.23085191      12.62953930       1.51108613       0.00585906       0.00442070      -0.00403229      -4.25711880
Al       4.12640334      12.57221081       4.16741262       0.00496394       0.00191389       0.01187998      -4.13929516
Al       4.20509872      12.59365422       7.14690757      -0.00418087       0.00243834       0.00204628      -4.23379535
Al       4.20761852      12.65925998       9.84193863       0.00252982      -0.00456002       0.00057108      -4.34066766
Ni       2.78240122      11.26231791      11.30531311       0.00260855      -0.00175127       0.00243299      -6.00487503
Al       4.25032153      12.63082323      12.60857877      -0.00208916       0.00524567       0.00653956      -4.69284922
Ni       5.61120548      -0.08323700      -0.04966975       0.00084107       0.00176210      -0.00226516      -6.06381988
Al       7.02091662       1.38072701       1.34346473      -0.00757019       0.00021332      -0.00652741      -4.41152134
Al       6.95169862       1.41638443       4.18771589       0.00558289       0.00061768       0.00192730      -4.54884291
Ni       5.53377922      -0.10489851       5.65584075       0.00193812       0.00122239      -0.00290828      -6.19227966
Al       6.99261053       1.48922858       6.97597984       0.00393570       0.00771702       0.00318610      -4.54093282
Ni       5.69193928       0.04078400       8.49656849       0.00592620       0.00578167       0.00309141      -6.19113959
Al       7.11058598       1.49054196       9.86588387       0.00548349       0.00074915       0.00548120      -4.42671876
Ni       5.64105166       0.08823652      11.26464251       0.00234477       0.00285842       0.00296741      -6.18066048
Al       7.05354396       1.47291242      12.70906253       0.00094162       0.00049632       0.00665324      -4.34464014
Al       7.08873381       4.28849548       1.33219318      -0.00145819      -0.00030214      -0.00291444      -4.34555054
Ni       5.60679464       2.91518697       2.77156543       0.00004765      -0.00787176      -0.00000241      -6.13869507
Al       7.08729824       4.29456072       4.16513732      -0.00223010       0.00262900      -0.00351204      -4.44966078
Al       7.09057927       4.19404621       7.03748143       0.00294669      -0.00721696      -0.00202649      -4.45385494
Ni       5.57926177       2.86807443       8.45942691       0.00054169       0.00079686      -0.00266859      -6.12519304
Al       7.12871830       4.20353487       9.88303387       0.00052347       0.00830198      -0.00154156      -4.41509215
Ni       5.56196304       2.87648748      11.24625704       0.00131308       0.00274615      -0.00148158      -6.17222482
Al       7.06859041       4.23796316      12.67889314       0.00242027      -0.00631875       0.00387266      -4.22493890
Al       7.08029300       7.06429937       1.24350863       0.00341279       0.00313940      -0.00302690      -3.88781304
Ni       5.67319076       5.69039590       2.72574702       0.00339846      -0.00548466       0.00353873      -6.13150131
Al       7.11719054       7.04358502       4.16635508       0.00127850       0.00172614       0.00712733      -4.42131016
Al       6.98317753       7.00423322       6.99601474       0.00156784      -0.00339184       0.00207714      -4.58512370
Ni       5.65817356       5.56853067       8.51463872      -0.00564398       0.00173068       0.00610467      -6.17818127
Al       7.01046243       7.03135059       9.93380303      -0.00196473      -0.00320862       0.00396205      -4.55757653
Ni       5.60585624       5.56009113      11.27197800       0.00687973      -0.00060905       0.00514552      -5.99619996
Al       6.98713077       7.04712586      12.64002887      -0.00092501      -0.00191947       0.00033060      -3.91987753
Al       7.06384735       9.84443959       1.44151642      -0.00612213       0.00136381      -0.00090706      -3.92000858
Ni       5.63692956       8.34894484       2.75907434       0.00394502      -0.00053546      -0.00044444      -5.99918896
Al       7.04890693       9.81262023       4.22197894      -0.00081524       0.00179392       0.00553629      -4.08766450
Al       6.99146568       9.83558396       6.98509583      -0.00489168       0.00678095       0.00006464      -4.33413490
Ni       5.56070571       8.41771476       8.47932705       0.00030694      -0.00121036       0.00071946      -6.13762011
Al       6.95394365       9.91057295       9.85624593      -0.00138555       0.00059380       0.00202263      -4.34074569
Al       6.99922075       9.84782486      12.74032511      -0.00816095      -0.00008643       0.00297083      -4.24560161
Ni       5.61943151      11.26614947       0.04941558      -0.00526214       0.00002174      -0.00262797      -5.99597746
Al       7.07896013      12.65188644       1.40985046       0.00429018       0.00221527       0.00250685      -4.24229176
Al       7.01169295      12.62284651       4.18220263      -0.00542117      -0.00544162       0.00668836      -4.37104468
Ni       5.61887865      11.29466574       5.60462240      -0.00115764      -0.00242122       0.00117739      -5.93344389
Al       7.06189135      12.58915823       7.05559255      -0.00298791      -0.00885317       0.00121639      -4.47987839
Al       7.07564503      12.64692190       9.91182667       0.00285162      -0.00226530       0.01087844      -4.29722026
Al       7.08181157      12.62627492      12.62625382       0.00088288      -0.00631978       0.00074883      -4.34405987
Al       9.91146766       1.33731553       1.34449806       0.00405092      -0.00655879      -0.00393378      -4.45033567
Ni       8.44849319      -0.04969637       2.83965712       0.01048955      -0.00271574      -0.00463308      -5.97120120
Al       9.93038242       1.35919371       4.16111808       0.00188050      -0.00209829      -0.00627313      -4.69843682
Ni       8.44440646       0.04259385       5.61529578       0.00281007      -0.00366926      -0.00297782      -6.24975226
Al       9.87742335       1.43466003       7.05662414       0.00205616       0.00183097      -0.00388803      -4.56563135
Ni       8.39790499       0.01052621       8.40107388      -0.00053825       0.00111808       0.00339640      -6.00493441
Al       9.86268469       1.39285007       9.85284170      -0.00138760       0.00273119      -0.00319613      -3.91031698
Al       9.90557676       1.41171079      12.66920536       0.00339558      -0.00406466       0.00331635      -3.91833043
Ni       8.51373181       2.88929295      -0.02536879      -0.00529288      -0.00410432      -0.00147107      -5.89754890
Al       9.96515618       4.27967147       1.33782042       0.00196257      -0.00033071       0.00046555      -4.12901934
Ni       8.49301545       2.77083951       2.69342646       0.00574379      -0.00006775       0.00721335      -6.24926409
Al       9.91266365       4.29011229       4.12516739      -0.00477295      -0.00226123       0.00253322      -4.61993131
Ni       8.48679887       2.84731595       5.52326501       0.00462174       0.00106633       0.00105223      -6.15415550
Al       9.86915526       4.18344583       7.04486830       0.00211706      -0.00500887      -0.00221223      -4.66773666
Al       9.82028671       4.16067890       9.94776353      -0.00760555       0.00042071      -0.00120087      -4.07582624
Al       9.92288009       4.34556475      12.65285220      -0.00157508       0.00055641       0.00098075      -3.65841184
Al       9.79211176       7.02704996       1.47524672       0.00493705      -0.00256035      -0.00129946      -3.67544286
Al       9.93907343       7.09418478       4.14516084       0.00129931       0.00150874       0.00247112      -4.22622387
Ni       8.52630672       5.67100636       5.62187438       0.00000057      -0.00002566      -0.00050289      -6.15230159
Al       9.93874928       7.11681313       7.13442172      -0.00233586      -0.00422789      -0.00321105      -4.66183882
Ni       8.49763267       5.67047153       8.47666285       0.00380642       0.01027365       0.00105771      -6.17335789
Al       9.85371053       7.01588483      10.00214855      -0.00071098      -0.00198793      -0.00513655      -4.36823861
Al       9.77251260       7.09948915      12.78388577      -0.00151308      -0.00625020      -0.00080751      -3.93669602
Al       9.81071269       9.87447642       1.50266773       0.00107629      -0.00299769       0.00283343      -3.90708884
Al       9.87148197       9.89297846       4.22115170      -0.00596893       0.00283402       0.00060265      -4.06686392
Ni       8.52749750       8.41114208       5.64360009      -0.00469997      -0.00056691      -0.00317578      -6.06211273
Al       9.88279195       9.86390678       7.09615547      -0.00053200       0.00138229       0.00226514      -4.46068455
Ni       8.34501968       8.42962117       8.47082149       0.00306388      -0.00112217      -0.00139345      -6.16644170
Al       9.87984024       9.78942105       9.77996390       0.00317859       0.00922394      -0.00440632      -4.48583704
Ni       8.41837072       8.52060515      11.28841730       0.00148152      -0.00682326      -0.00594938      -6.01059638
Al       9.87956982       9.82430739      12.70957350      -0.00087193      -0.00336560      -0.00480719      -4.53803410
Al       9.88389793      12.63702284       1.45555239      -0.00769369      -0.00024852       0.00527055      -4.22698600
Al       9.84224269      12.58352198       4.22106899      -0.00164273       0.00051530      -0.00116793      -4.31898331
Al       9.87461987      12.66075663       7.09915150      -0.00175597       0.00682584       0.00062804      -4.46679269
Al       9.79588922      12.68106258       9.81716777      -0.00704053       0.00351943      -0.00898484      -4.29930155
Ni       8.49515450      11.17313142      11.29310913      -0.00339929      -0.00072210      -0.00069691      -6.01878596
Al       9.82571956      12.67864707      12.67566809      -0.00390102      -0.00658804       0.00149951      -4.37648519
Ni      11.32376758      -0.11331042       0.00474700      -0.00054495      -0.00689369      -0.00347153      -5.91667878
Al      12.71498724       1.34074851       1.41811121       0.00042120      -0.00121090       0.00627134      -3.96267794
Al      12.78332702       1.34522914       4.17215524       0.00316476       0.00139122      -0.00108105      -4.31162288
Ni      11.31778852      -0.09952482       5.59644256      -0.00066761      -0.00207771       0.00199921      -6.11440368
Al      12.63696669       1.31986393       7.08209726      -0.00217088      -0.00044631       0.00458087      -4.45194053
Al      12.63719216       1.40389889       9.88467663       0.00785408       0.00030425      -0.00110620      -4.34007694
Al      12.66756550       1.40221319      12.71930816      -0.00674434      -0.00373928      -0.00279241      -4.22529168
Al      12.72182686       4.16735417       1.33620614       0.00145217       0.00432517      -0.00126069      -3.94593254
Ni      11.30630640       2.81206992       2.77843816      -0.00674961      -0.00592351       0.00193150      -5.97658555
Al      12.74466864       4.26300156       4.19255454       0.00536944       0.00843212      -0.00234226      -4.44732052
Ni      11.34795074       2.78996961       5.55863400      -0.00102469      -0.00318233      -0.00031947      -6.30192855
Al      12.69976067       4.30121919       7.03289115      -0.00164821       0.00157055       0.00348036      -4.60832072
Ni      11.32956239       2.86467658       8.50359012       0.00570061       0.00238796      -0.00426920      -6.04933311
Al      12.70981378       4.25497900       9.93026974      -0.00703344      -0.00323622       0.00015906      -4.32744629
Al      12.64575267       4.22800231      12.68331195       0.00139712       0.00117328       0.00145723      -3.65799461
Al      12.63026275       7.00256293       1.39846064       0.00377096      -0.00066513      -0.00746433      -4.10576501
Al      12.74509589       7.01632943       4.21023770      -0.00601163       0.00921802      -0.00299584      -4.33955842
Ni      11.26170195       5.69587344       5.65434970      -0.00282097       0.00284796      -0.00800737      -6.15371451
Al      12.71175479       7.05483998       7.12931291      -0.00603741       0.00449130      -0.00640378      -4.30744051
Ni      11.22858969       5.58720170       8.55001428      -0.00319702       0.00174180      -0.00079130      -6.04011043
Al      12.64526803       7.00635810       9.90734833       0.00430363       0.00251311      -0.00499725      -4.04943936
Al      12.56136658       7.01018630      12.70589465      -0.00070444       0.00775508       0.00100863      -3.91111592
Ni      11.24758215       8.48820452       0.11648970      -0.00205344      -0.01031204      -0.00139760      -5.90709882
Al      12.75775705       9.84172633       1.46684348      -0.00070787      -0.00260156       0.00182172      -3.92631734
Al      12.75539965       9.92917158       4.17117677      -0.00769590       0.00022081      -0.00890602      -4.09345676
Ni      11.38207608       8.50663093       5.59253625      -0.00031354      -0.00517028      -0.00438833      -6.26074911
Al      12.74335599       9.87870076       7.12267881      -0.00262924       0.00066756      -0.00107449      -4.31438096
Al      12.76427070       9.83464772       9.88509804      -0.00666075      -0.00553154       0.00373783      -4.24465045
Al      12.66148294       9.80141988      12.63785965       0.00860296      -0.00621865      -0.01106968      -4.36597741
Ni      11.30882435      11.23570149       0.02133315       0.00291978       0.00130140      -0.00192871      -6.14737373
Al      12.79686985      12.60757399       1.42374446       0.00699400      -0.00236377       0.00644878      -3.91566965
Al      12.74557032      12.65026877       4.14049478       0.00171374      -0.00451323       0.00212690      -3.88822281
Ni      11.33232007      11.30383163       5.68127966      -0.00122797       0.00221366      -0.00389470      -6.15783799
Al      12.80458727      12.68906521       7.08472460       0.00227383       0.00190568       0.00110333      -4.06575873
Ni      11.36536672      11.26461157       8.51154489      -0.00285155      -0.00110598      -0.00226410      -6.05489132
Al      12.67943986      12.75805697       9.85587840       0.00018373       0.00631790      -0.00075611      -4.20369873
Ni      11.21555977      11.26139379      11.17764378       0.00019647       0.00098585      -0.00355774      -6.13464488
Al      12.69703066      12.63890710      12.58979101      -0.00536677      -0.00553256      -0.00124143      -4.34824725
