128
Lattice="11.520843680160958 1.659596770081896e-20 1.6912349283793046e-19 1.5547176043118918e-18 11.52084368016113 -9.152251886953744e-14 2.4636934783055377e-18 -1.6411572521991038e-13 11.520843680161278" Properties=species:S:1:pos:R:3:forces:R:3:energies:R:1 energy=-695.4814794602623 stress="-0.0008265624099056068 1.567207117069294e-18 -4.275016722372342e-19 1.567207117069294e-18 -0.0008265624099008456 -1.3114232242288697e-14 -4.275016722372342e-19 -1.3114232242288697e-14 -0.0008265624098968145" free_energy=-695.4814794602623 pbc="T T T"
Ni       0.00084301      -0.00084301      -0.00084301      -0.00495489       0.00495489       0.00495489      -6.24814582
Al       1.44010546       1.44785486       1.44785486       0.00000000      -0.00517290      -0.00517290      -4.60425718
Ni       0.00550656      -0.00550656       2.88120277       0.00142709      -0.00142709       0.00055027      -6.24828536
Al       1.44010546       1.44619435       4.32031638       0.00000000      -0.00050807       0.00000000      -4.60534303
Ni       0.00550656      -0.00550656       5.75942999       0.00142709      -0.00142709      -0.00055027      -6.24828536
Al       1.44010546       1.44785486       7.19277790       0.00000000      -0.00517290       0.00517290      -4.60425718
Ni       0.00084301      -0.00084301       8.64147577      -0.00495489       0.00495489      -0.00495489      -6.24814582
Al       1.44010546       1.43822481      10.08073822       0.00000000      -0.01270831      -0.00000000      -4.59414366
Ni       0.00550656       2.88120277      -0.00550656       0.00142709       0.00055027      -0.00142709      -6.24828536
Al       1.44010546       4.32031638       1.44619435       0.00000000       0.00000000      -0.00050807      -4.60534303
Ni      -0.00943000       2.89048418       2.89048418      -0.00265900      -0.00089270      -0.00089270      -6.25789850
Al       1.44010546       4.32031638       4.32031638       0.00000000       0.00000000       0.00000000      -4.59990018
Ni      -0.00943000       2.89048418       5.75014858      -0.00265900      -0.00089270       0.00089270      -6.25789850
Al       1.44010546       4.32031638       7.19443841       0.00000000       0.00000000       0.00050807      -4.60534303
Ni       0.00550656       2.88120277       8.64613932       0.00142709       0.00055027       0.00142709      -6.24828536
Al       1.44010546       4.32031638      10.08073822       0.00000000       0.00000000      -0.00000000      -4.59332785
Ni       0.00550656       5.75942999      -0.00550656       0.00142709      -0.00055027      -0.00142709      -6.24828536
Al       1.44010546       7.19277790       1.44785486       0.00000000       0.00517290      -0.00517290      -4.60425718
Ni      -0.00943000       5.75014858       2.89048418      -0.00265900       0.00089270      -0.00089270      -6.25789850
Al       1.44010546       7.19443841       4.32031638       0.00000000       0.00050807       0.00000000      -4.60534303
Ni      -0.00943000       5.75014858       5.75014858      -0.00265900       0.00089270       0.00089270      -6.25789850
Al       1.44010546       7.19277790       7.19277790       0.00000000       0.00517290       0.00517290      -4.60425718
Ni       0.00550656       5.75942999       8.64613932       0.00142709      -0.00055027       0.00142709      -6.24828536
Al       1.44010546       7.20240795      10.08073822       0.00000000       0.01270831      -0.00000000      -4.59414366
Ni       0.00084301       8.64147577      -0.00084301      -0.00495489      -0.00495489       0.00495489      -6.24814582
Al       1.44010546      10.08073822       1.43822481       0.00000000      -0.00000000      -0.01270831      -4.59414366
Ni       0.00550656       8.64613932       2.88120277       0.00142709       0.00142709       0.00055027      -6.24828536
Al       1.44010546      10.08073822       4.32031638       0.00000000      -0.00000000       0.00000000      -4.59332785
Ni       0.00550656       8.64613932       5.75942999       0.00142709       0.00142709      -0.00055027      -6.24828536
Al       1.44010546      10.08073822       7.20240795       0.00000000      -0.00000000       0.01270831      -4.59414366
Ni       0.00084301       8.64147577       8.64147577      -0.00495489      -0.00495489      -0.00495489      -6.24814582
Al       1.44010546      10.08073822      10.08073822       0.00000000      -0.00000000      -0.00000000      -4.59705650
Ni       2.87936791      -0.00084301      -0.00084301       0.00495489       0.00495489       0.00495489      -6.24814582
Al       4.31071586       1.43050494       1.43050494      -0.00001772      -0.00001772      -0.00001772      -4.61322461
Ni       2.87470436      -0.00550656       2.88120277      -0.00142709      -0.00142709       0.00055027      -6.24828536
Al       4.31579398       1.43558306       4.32031638      -0.00174901      -0.00174901       0.00000000      -4.61452202
Ni       2.87470436      -0.00550656       5.75942999      -0.00142709      -0.00142709      -0.00055027      -6.24828536
Al       4.31071586       1.43050494       7.21012782      -0.00001772      -0.00001772       0.00001772      -4.61322461
Ni       2.87936791      -0.00084301       8.64147577       0.00495489       0.00495489      -0.00495489      -6.24814582
Al       4.32806578       1.44785486      10.08073822      -0.00517290      -0.00517290      -0.00000000      -4.60425718
Ni       2.87470436       2.88120277      -0.00550656      -0.00142709       0.00055027      -0.00142709      -6.24828536
Al       4.31579398       4.32031638       1.43558306      -0.00174901       0.00000000      -0.00174901      -4.61452202
Ni       2.88964092       2.89048418       2.89048418       0.00265900      -0.00089270      -0.00089270      -6.25789850
Al       4.42798101       4.32031638       4.32031638       0.01740161       0.00000000       0.00000000      -4.70920070
Ni       2.88964092       2.89048418       5.75014858       0.00265900      -0.00089270       0.00089270      -6.25789850
Al       4.31579398       4.32031638       7.20504970      -0.00174901       0.00000000       0.00174901      -4.61452202
Ni       2.87470436       2.88120277       8.64613932      -0.00142709       0.00055027       0.00142709      -6.24828536
Al       4.32640527       4.32031638      10.08073822      -0.00050807       0.00000000      -0.00000000      -4.60534303
Ni       2.87470436       5.75942999      -0.00550656      -0.00142709      -0.00055027      -0.00142709      -6.24828536
Al       4.31071586       7.21012782       1.43050494      -0.00001772       0.00001772      -0.00001772      -4.61322461
Ni       2.88964092       5.75014858       2.89048418       0.00265900       0.00089270      -0.00089270      -6.25789850
Al       4.31579398       7.20504970       4.32031638      -0.00174901       0.00174901       0.00000000      -4.61452202
Ni       2.88964092       5.75014858       5.75014858       0.00265900       0.00089270       0.00089270      -6.25789850
Al       4.31071586       7.21012782       7.21012782      -0.00001772       0.00001772       0.00001772      -4.61322461
Ni       2.87470436       5.75942999       8.64613932      -0.00142709      -0.00055027       0.00142709      -6.24828536
Al       4.32806578       7.19277790      10.08073822      -0.00517290       0.00517290      -0.00000000      -4.60425718
Ni       2.87936791       8.64147577      -0.00084301       0.00495489      -0.00495489       0.00495489      -6.24814582
Al       4.32806578      10.08073822       1.44785486      -0.00517290      -0.00000000      -0.00517290      -4.60425718
Ni       2.87470436       8.64613932       2.88120277      -0.00142709       0.00142709       0.00055027      -6.24828536
Al       4.32640527      10.08073822       4.32031638      -0.00050807      -0.00000000      -0.00000000      -4.60534303
Ni       2.87470436       8.64613932       5.75942999      -0.00142709       0.00142709      -0.00055027      -6.24828536
Al       4.32806578      10.08073822       7.19277790      -0.00517290      -0.00000000       0.00517290      -4.60425718
Ni       2.87936791       8.64147577       8.64147577       0.00495489      -0.00495489      -0.00495489      -6.24814582
Al       4.31843573      10.08073822      10.08073822      -0.01270831      -0.00000000      -0.00000000      -4.59414366
Ni       5.76141369      -0.00550656      -0.00550656       0.00055027      -0.00142709      -0.00142709      -6.24828536
Al       7.20052730       1.43558306       1.43558306       0.00000000      -0.00174901      -0.00174901      -4.61452202
Ni       5.77069510       0.00943000       2.89048418      -0.00089270       0.00265900      -0.00089270      -6.25789850
Al       7.20052730       1.54777009       4.32031638       0.00000000       0.01740161       0.00000000      -4.70920070
Ni       5.77069510       0.00943000       5.75014858      -0.00089270       0.00265900       0.00089270      -6.25789850
Al       7.20052730       1.43558306       7.20504970      -0.00000000      -0.00174901       0.00174901      -4.61452202
Ni       5.76141369      -0.00550656       8.64613932       0.00055027      -0.00142709       0.00142709      -6.24828536
Al       7.20052730       1.44619435      10.08073822      -0.00000000      -0.00050807      -0.00000000      -4.60534303
Ni       5.77069510       2.89048418       0.00943000      -0.00089270      -0.00089270       0.00265900      -6.25789850
Al       7.20052730       4.32031638       1.54777009       0.00000000       0.00000000       0.01740161      -4.70920070
Ni       5.71789909       2.83768817       2.83768817       0.00604438       0.00604438       0.00604438      -6.09160264
Ni       7.20052730       4.32031638       4.32031638      -0.00000000       0.00000000       0.00000000      -5.82300871
Ni       5.71789909       2.83768817       5.80294459       0.00604438       0.00604438      -0.00604438      -6.09160264
Al       7.20052730       4.32031638       7.09286267       0.00000000      -0.00000000      -0.01740161      -4.70920070
Ni       5.77069510       2.89048418       8.63120276      -0.00089270      -0.00089270      -0.00265900      -6.25789850
Al       7.20052730       4.32031638      10.08073822       0.00000000      -0.00000000      -0.00000000      -4.59990018
Ni       5.77069510       5.75014858       0.00943000      -0.00089270       0.00089270       0.00265900      -6.25789850
Al       7.20052730       7.20504970       1.43558306      -0.00000000       0.00174901      -0.00174901      -4.61452202
Ni       5.71789909       5.80294459       2.83768817       0.00604438      -0.00604438       0.00604438      -6.09160264
Al       7.20052730       7.09286267       4.32031638       0.00000000      -0.01740161      -0.00000000      -4.70920070
Ni       5.71789909       5.80294459       5.80294459       0.00604438      -0.00604438      -0.00604438      -6.09160264
Al       7.20052730       7.20504970       7.20504970       0.00000000       0.00174901       0.00174901      -4.61452202
Ni       5.77069510       5.75014858       8.63120276      -0.00089270       0.00089270      -0.00265900      -6.25789850
Al       7.20052730       7.19443841      10.08073822       0.00000000       0.00050807      -0.00000000      -4.60534303
Ni       5.76141369       8.64613932      -0.00550656       0.00055027       0.00142709      -0.00142709      -6.24828536
Al       7.20052730      10.08073822       1.44619435      -0.00000000      -0.00000000      -0.00050807      -4.60534303
Ni       5.77069510       8.63120276       2.89048418      -0.00089270      -0.00265900      -0.00089270      -6.25789850
Al       7.20052730      10.08073822       4.32031638       0.00000000      -0.00000000       0.00000000      -4.59990018
Ni       5.77069510       8.63120276       5.75014858      -0.00089270      -0.00265900       0.00089270      -6.25789850
Al       7.20052730      10.08073822       7.19443841      -0.00000000      -0.00000000       0.00050807      -4.60534303
Ni       5.76141369       8.64613932       8.64613932       0.00055027       0.00142709       0.00142709      -6.24828536
Al       7.20052730      10.08073822      10.08073822      -0.00000000      -0.00000000      -0.00000000      -4.59332785
Ni       8.63964091      -0.00550656      -0.00550656      -0.00055027      -0.00142709      -0.00142709      -6.24828536
Al      10.09033874       1.43050494       1.43050494       0.00001772      -0.00001772      -0.00001772      -4.61322461
Ni       8.63035950       0.00943000       2.89048418       0.00089270       0.00265900      -0.00089270      -6.25789850
Al      10.08526062       1.43558306       4.32031638       0.00174901      -0.00174901       0.00000000      -4.61452202
Ni       8.63035950       0.00943000       5.75014858       0.00089270       0.00265900       0.00089270      -6.25789850
Al      10.09033874       1.43050494       7.21012782       0.00001772      -0.00001772       0.00001772      -4.61322461
Ni       8.63964091      -0.00550656       8.64613932      -0.00055027      -0.00142709       0.00142709      -6.24828536
Al      10.07298882       1.44785486      10.08073822       0.00517290      -0.00517290      -0.00000000      -4.60425718
Ni       8.63035950       2.89048418       0.00943000       0.00089270      -0.00089270       0.00265900      -6.25789850
Al      10.08526062       4.32031638       1.43558306       0.00174901      -0.00000000      -0.00174901      -4.61452202
Ni       8.68315551       2.83768817       2.83768817      -0.00604438       0.00604438       0.00604438      -6.09160264
Al       9.97307359       4.32031638       4.32031638      -0.01740161      -0.00000000       0.00000000      -4.70920070
Ni       8.68315551       2.83768817       5.80294459      -0.00604438       0.00604438      -0.00604438      -6.09160264
Al      10.08526062       4.32031638       7.20504970       0.00174901       0.00000000       0.00174901      -4.61452202
Ni       8.63035950       2.89048418       8.63120276       0.00089270      -0.00089270      -0.00265900      -6.25789850
Al      10.07464933       4.32031638      10.08073822       0.00050807       0.00000000      -0.00000000      -4.60534303
Ni       8.63035950       5.75014858       0.00943000       0.00089270       0.00089270       0.00265900      -6.25789850
Al      10.09033874       7.21012782       1.43050494       0.00001772       0.00001772      -0.00001772      -4.61322461
Ni       8.68315551       5.80294459       2.83768817      -0.00604438      -0.00604438       0.00604438      -6.09160264
Al      10.08526062       7.20504970       4.32031638       0.00174901       0.00174901       0.00000000      -4.61452202
Ni       8.68315551       5.80294459       5.80294459      -0.00604438      -0.00604438      -0.00604438      -6.09160264
Al      10.09033874       7.21012782       7.21012782       0.00001772       0.00001772       0.00001772      -4.61322461
Ni       8.63035950       5.75014858       8.63120276       0.00089270       0.00089270      -0.00265900      -6.25789850
Al      10.07298882       7.19277790      10.08073822       0.00517290       0.00517290      -0.00000000      -4.60425718
Ni       8.63964091       8.64613932      -0.00550656      -0.00055027       0.00142709      -0.00142709      -6.24828536
Al      10.07298882      10.08073822       1.44785486       0.00517290      -0.00000000      -0.00517290      -4.60425718
Ni       8.63035950       8.63120276       2.89048418       0.00089270      -0.00265900      -0.00089270      -6.25789850
Al      10.07464933      10.08073822       4.32031638       0.00050807      -0.00000000      -0.00000000      -4.60534303
Ni       8.63035950       8.63120276       5.75014858       0.00089270      -0.00265900       0.00089270      -6.25789850
Al      10.07298882      10.08073822       7.19277790       0.00517290      -0.00000000       0.00517290      -4.60425718
Ni       8.63964091       8.64613932       8.64613932      -0.00055027       0.00142709       0.00142709      -6.24828536
Al      10.08261887      10.08073822      10.08073822       0.01270831      -0.00000000      -0.00000000      -4.59414366
