152
Lattice="13.434204414624464 -0.3997347482506698 -0.5750683712134361 -0.4011890294294843 13.38294374180588 -0.273578041024708 -0.5890077640606161 -0.2805909676973326 13.551992867476352" Properties=species:S:1:pos:R:3:forces:R:3:energies:R:1 rep=5 n_sites=250 energy=-659.449462890625 stress="0.0005079824477434158 -0.00020235554256942123 0.0003625901590567082 -0.00020235554256942123 -0.0004797462606802583 -0.0005480230320245028 0.0003625901590567082 -0.0005480230320245028 -0.00011555748642422259" free_energy=-659.449462890625 pbc="T T T"
Al       0.97041305       1.03180824       1.09770580      -0.00126033      -0.00031504      -0.00336328      -4.02244961
Ni      -0.19606288      -0.55362831       2.57423556       0.00268470      -0.00443178       0.00151448      -5.92065465
Al       0.53993751       1.22580095       3.99971487       0.00383802       0.00212836      -0.00135264      -3.94787812
Al       0.39454862       0.96318465       6.61554740      -0.00454839      -0.00977288       0.00163302      -3.75994051
Ni      -0.77020151      -0.40055443       8.17909749      -0.00457928       0.00616745       0.00314728      -5.73313642
Al       0.90661771       1.01186156       9.30132915      -0.00505301       0.00025126      -0.00551943      -4.04530275
Al       1.19976511       2.01774376      11.92569615       0.00203799       0.00889972       0.00584736      -3.97285014
Al       0.65590291       3.64794735       0.34343561      -0.00305799       0.00536039      -0.00075468      -4.03928131
Al       1.46584670       3.50194820       2.89353057       0.00144939       0.00486496       0.00425436      -3.86598879
Al       1.60002391       3.32413281       5.72684077      -0.00063373       0.00029586      -0.00246615      -3.83718586
Al       1.41308834       3.69904652       8.63244090      -0.00028810       0.00637604       0.00372291      -3.74399185
Al       0.46553926       4.75070959      11.50747994       0.00669777      -0.00309472      -0.00182983      -3.95494109
Ni      -0.65111765       5.59815314      -0.33288605       0.00665548      -0.00120846       0.00444481      -5.88938093
Al       1.22389869       6.32342269       0.96338394       0.00232747       0.00212963       0.00598976      -4.38758457
Ni      -0.36770572       4.93682373       2.15503691       0.00853669       0.00576596      -0.00344763      -5.96350092
Al       1.27842238       6.06604822       3.82846959      -0.00728441      -0.00922817      -0.00543359      -4.27462631
Al       0.78451917       5.88473943       6.55865387       0.00670096       0.00202298       0.00346635      -3.97956353
Al       1.31431931       6.49897806       9.52979151      -0.00064513       0.00314383       0.00506958      -3.88444376
Al      -0.18532294       7.33774036      12.09295504       0.00447509       0.00357787       0.00261725      -3.82524395
Al       0.66399450       9.08784215       1.03252998       0.00055458       0.00041893       0.00432763      -4.00178742
Ni      -0.36763077       7.48339645       2.62844484       0.00168924      -0.00990734       0.00836048      -6.00691885
Al       0.76189067       9.02197321       4.02925191      -0.00725523       0.00101393       0.00278998      -4.30994600
Al       0.95133531       8.59987253       6.79974101       0.00358760      -0.00600849      -0.00491792      -4.38790756
Ni      -0.53224651       7.25704944       8.08728012       0.00099006       0.00581079      -0.00405554      -5.76925063
Al       0.23544181       9.12564488       9.44322474       0.00012029       0.00353014       0.00198182      -4.13414448
Al       1.10897241       9.75067029      12.17536118      -0.00153065      -0.00536269       0.00895565      -3.65113437
Al       1.37235084      11.69424370       1.01854727       0.00042569      -0.00739726      -0.00081968      -3.96022540
Al       0.73083449      11.85933681       4.07401730       0.00198208       0.00063528      -0.00438866      -4.25256896
Al       0.01457624      11.29600370       6.69259113       0.01082683      -0.00247280      -0.00492772      -4.32875943
Al       0.43135724      11.82048846       9.50009989       0.00176796       0.00002034       0.00450388      -4.10066229
Al      -0.02190766      12.47188790      12.11370372      -0.00157687       0.00186326      -0.00173280      -3.91546988
Al       3.55226345       1.90985826       1.87023919      -0.00747815       0.00445417      -0.00560127      -3.80816054
Ni       2.35574480      -0.01071639       2.87529512       0.00353202       0.00839242       0.00168937      -5.91409421
Al       3.14176308       1.22547219       4.74704867       0.00308784       0.00114250       0.00380760      -4.26586282
Al       2.87084321       1.58414279       7.46753243      -0.00352354       0.00032842      -0.00319055      -3.84261560
Al       3.42883183       1.85066052      10.11372642      -0.00044898       0.00042441      -0.00938332      -4.05542183
Ni       2.23987441       0.02858012      11.13411052       0.00046140      -0.00494480      -0.00626868      -5.87636888
Al       3.73080166       1.39938143      12.89303539       0.00473774       0.00264484      -0.00456044      -3.95875406
Al       3.27657409       4.25888305      -0.22162185      -0.00282270      -0.00477780      -0.00211764      -3.76742864
Al       4.01675023       3.78607515       3.68429973       0.00413477      -0.00099683       0.01070687      -3.95482236
Al       3.41740822       5.29135876       5.96912953      -0.00115857       0.00525338      -0.00128199      -4.33992374
Al       4.57811469       3.47265441       8.42851060       0.00037343       0.00770009      -0.00337607      -4.06216401
Al       3.16695543       4.55988598      10.65444553      -0.00033082      -0.00453763      -0.00314081      -3.93280113
Al       3.92905506       6.75534346       0.93255796      -0.00509162      -0.00095493       0.00748140      -4.14061779
Al       4.05360826       6.61782035       3.53107875       0.00248821       0.00448477      -0.00694960      -4.20823646
Al       5.15407893       7.32932505       6.06235173      -0.00322750       0.00130475       0.00126110      -4.32288218
Al       3.88101881       6.16217755       8.54826647      -0.00178304      -0.00188538       0.00730991      -3.96705335
Al       2.54058651       7.26018207      11.88857518      -0.00107139      -0.00506130       0.00182155      -4.06793755
Al       3.38262103       9.54445330       1.10878284      -0.00148949      -0.00472395      -0.00340677      -4.34172344
Ni       2.26059463       7.84393696       2.48421027      -0.00021081      -0.00720933      -0.00695680      -5.98104763
Al       3.56978320       9.36230358       3.93504520       0.00281894       0.00798263      -0.00297121      -4.34160787
Ni       2.58727491       7.59348499       5.26481621       0.00180746       0.00392126       0.00968952      -6.10401499
Al       3.70191493       9.36067153       6.88585441       0.00360647      -0.00334554      -0.00164350      -4.33870584
Al       3.00580305       8.79415188       9.45187164       0.00059342      -0.00047265       0.00255799      -4.06198579
Al       4.03749696       9.82036074      11.64503009      -0.00471717      -0.00639032       0.00560945      -4.05014259
Al       4.09055987      12.66596044       1.61528079       0.00361720       0.00071844      -0.00222361      -4.30968189
Al       3.48411131      12.01907777       4.22554747      -0.00418407       0.00547440       0.00336614      -4.11854863
Ni       1.97396234      10.42808432       5.52848285       0.00058775      -0.00116180       0.00399037      -5.97462648
Al       2.78479029      12.30441547       6.85249482      -0.00351730      -0.00290293       0.00079209      -4.02178144
Ni       1.85364705      10.44105413       8.11137952      -0.00099459       0.00596351      -0.00350711      -5.88514036
Al       3.17971440      11.73824385       9.68089562      -0.00360490      -0.00091816       0.00064404      -4.22070020
Al       2.81117774      11.99121043      12.55439528       0.00026732       0.00383052       0.00245254      -4.15877980
Al       6.30510394       1.52694920       1.31305268      -0.00310584      -0.00014650      -0.00000964      -3.68619514
Al       5.76564761       1.50188071       3.89532645      -0.00521950       0.00295193      -0.01082372      -3.69154358
Al       5.40060699       0.78516726       6.56441721       0.00177450       0.00639578       0.00287248      -4.15307814
Al       6.12679739       1.40155475       9.43440493      -0.00728619       0.00472263      -0.00016272      -3.98797202
Ni       4.79205290       0.15675408      11.14348879      -0.00996181       0.00958773       0.00234187      -5.83593971
Al       6.46967918       1.60859781      12.18607826      -0.00224793      -0.00464089      -0.00407365      -3.90250194
Al       6.03905940       4.09962956       0.10680353       0.00112426      -0.00308949      -0.00739846      -3.85602981
Al       6.69873443       4.04039188       2.80994903      -0.00802611      -0.00277954      -0.00425185      -3.81907976
Ni       4.22742752       2.97322094       5.99526738       0.00212589       0.00109962      -0.01260746      -6.10703528
Al       6.59118310       3.31937008       5.66188037       0.00092167       0.00311959      -0.00840301      -4.15126646
Al       7.44113381       3.80840643       8.25395888       0.00249559       0.00108471      -0.00072866      -3.93621475
Al       6.12323644       4.64230895      10.98821439      -0.00601569      -0.00228392      -0.00309961      -3.82321584
Ni       4.94650764       5.89685948      -1.08571859       0.01145598       0.00652647      -0.00454733      -5.87886959
Al       6.94262238       6.88363696      -0.10043073       0.00165096       0.00402444       0.00726308      -4.32378191
Al       6.93194976       7.04970108       3.58024866       0.00209931      -0.00570698      -0.00381617      -3.84973222
Ni       5.64424848       5.31171265       4.63884671       0.00303513      -0.00501134       0.00003314      -5.88069326
Al       7.64839809       5.83383922       5.98825099       0.01148498       0.00088701      -0.00531782      -4.11520100
Ni       5.61197578       5.05536774       7.09450073      -0.00950848      -0.00958603       0.00282475      -5.96690625
Al       6.81728322       6.47537461       8.66081417      -0.00043032      -0.00289878       0.00156085      -4.11639923
Al       5.14090461       7.31510068      10.87021479       0.00228462      -0.00500914       0.00937547      -4.31473726
Ni       5.12437815       8.36585112      -0.37364986       0.00454706       0.00203440       0.00199197      -6.01667404
Al       6.06587900       8.94936227       1.79941724      -0.00057265       0.00129917      -0.00692387      -4.17059159
Al       6.37226683       9.66558448       4.55246807       0.00431424      -0.00289361       0.00194205      -3.93437189
Al       7.01592093       9.12153446       7.22549405       0.00145750       0.00435640       0.00305450      -4.13814187
Ni       5.18008461       8.17824683       8.49703796      -0.00431745       0.00495957       0.00125990      -5.78791332
Al       6.58167889       9.49786378      10.00979289      -0.00073166       0.00336854       0.00347853      -3.82618225
Al       6.61567685       9.45764516      12.92291874      -0.00096247       0.00098065      -0.00236089      -4.14020032
Ni       5.17557249      10.86382621       0.30113265      -0.00275683      -0.00022961       0.00855608      -5.98242140
Al       6.94467246      11.86662017       1.54665231      -0.00360075      -0.00078402       0.00210464      -4.10507727
Ni       5.12809661      10.87622897       2.86027698      -0.00195955       0.00564048      -0.00546104      -5.86880958
Al       6.44273861      12.45342257       4.19899898       0.00226702      -0.00717078      -0.00087400      -4.05841601
Al       5.39023839      11.44849432       6.67816502       0.00025386       0.00620520      -0.00037236      -3.78371751
Al       5.89944172      12.10549161       9.65527193       0.01166138       0.00376260      -0.00128912      -3.95944381
Al       5.59095024      12.30348261      12.52378339       0.00489101       0.00012310       0.00869835      -4.16631991
Al       8.79434915       0.36014005       0.43637625       0.00375897      -0.00089239       0.00098464      -3.91963667
Al       8.44666170       0.94208250       3.23404513      -0.00225812       0.00113828      -0.00309928      -4.27218860
Al       8.20089102       1.16046928       6.12275816       0.00068170       0.00254121      -0.00127888      -4.24599469
Ni       7.18327275      -0.25895258       7.91735491       0.00307827      -0.00547641      -0.00268205      -5.76900017
Al       8.86934859       1.01983071       8.86738690      -0.00365180      -0.00052929      -0.00287227      -3.84433448
Al       9.37085975       0.63166518      11.55412436      -0.00139561      -0.00342662       0.00319706      -3.66062248
Al       8.53883614       3.09398514       0.69783785       0.00539452      -0.00320491       0.00106397      -3.90359432
Al       9.49135130       3.72756820       3.17824024      -0.00315779      -0.00189960       0.00385757      -4.02717620
Al       9.38786500       3.70679445       5.91513235       0.00075150       0.00515510       0.00262766      -3.80746090
Al      10.26593411       3.19306702       8.41239411       0.00154159       0.00171212       0.00210588      -3.62703633
Al       8.26946159       2.94719892      10.65204534      -0.00211237       0.00312892      -0.00402721      -3.63507235
Al       8.58506619       5.76167704       1.66220790       0.00002943      -0.00154603       0.00021158      -3.82263649
Al       9.51441398       6.30675579       4.13341464      -0.00198968      -0.00038510       0.00531824      -3.63142371
Al       9.22548044       7.33173838       7.50039500      -0.00434203      -0.00047940      -0.00026001      -3.79194140
Al       9.20799388       5.46413412       9.61347217      -0.00142167      -0.00113375       0.00089914      -3.69922256
Al       8.51518520       4.82863396      12.53013267       0.00455914       0.00414956       0.00344285      -3.90167326
Ni       9.44879868       7.34205747      -0.06458892       0.00530016      -0.00810811       0.00367893      -6.11509919
Al      10.04410083       9.48604205      -1.18727694       0.00136475       0.00328249       0.00646449      -3.91484338
Al       8.84474330       8.55143390       2.09947289      -0.00014665      -0.00322434       0.00323305      -3.86887252
Al       8.98089000       8.81785438       5.03889738      -0.00122372       0.00218253      -0.00366136      -3.96503049
Al       9.32376930       9.10401961       9.66058722       0.00114477       0.00666887      -0.00667724      -3.97261167
Al       7.90866666       7.27005776      11.19456245      -0.00033250      -0.00554892       0.00089547      -3.91840875
Al       9.47432045      11.19923947       0.75474382       0.00127687      -0.00511396      -0.00079968      -3.65247893
Al       8.85947558      11.01185980       3.38516893      -0.00133993      -0.00361851       0.00195524      -3.90693027
Al       8.05152323      11.52012247       6.21221745       0.00170152       0.00113887      -0.00597546      -4.23622286
Al       8.47440945      11.61050125       8.85703267      -0.00120120       0.00443464      -0.00234956      -4.03306627
Al       7.97227709      11.41063713      11.54516734       0.00274458      -0.00354675       0.00315521      -3.71965504
Al      11.57205047       0.19414473       0.58356904       0.00233714       0.00064651      -0.00075075      -4.06337744
Al      11.27721122      -0.00510484       3.30201370      -0.00400212       0.00728235      -0.00011842      -4.39775181
Ni       9.55876871      -0.42513606       4.95112582      -0.00331089      -0.00539748       0.01626355      -5.81970310
Al      11.02082535       0.72507449       6.57454466       0.00896148      -0.00052027      -0.00243485      -4.27798814
Al      11.31731023       0.09415132       9.35847090      -0.00183968      -0.00298059      -0.00288022      -3.92563438
Al      12.01898164       1.02046170      11.88540379       0.00056818      -0.00240692      -0.00050862      -3.66103101
Al      11.36158948       3.17867154       0.23689467      -0.00629227      -0.00245769       0.00756454      -4.21924239
Ni      10.21046469       1.77904099       1.86489430       0.00327622       0.00069271      -0.00971594      -5.88713455
Al      12.15458604       2.74512376       2.95321783      -0.00658488      -0.00547699       0.00521323      -4.21082109
Ni      10.36281246       1.93090909       4.51981170       0.00467250      -0.00583667      -0.00044246      -5.97695714
Al      12.25177532       3.10664784       5.77265901      -0.00301237      -0.00202247       0.00143176      -3.84137368
Al      12.64383636       2.40353604       9.54407607       0.00238298       0.00327789      -0.00176437      -3.55031145
Al      10.86537949       3.70437038      11.10215003      -0.00018981      -0.00487605       0.00136662      -3.90968329
Al      11.24756676       5.93093650       0.86737323       0.00213522      -0.00008503       0.00077008      -4.35077518
Al      12.02442565       5.41481900       3.60650689       0.00162953       0.00159265      -0.00303951      -4.00537878
Al      11.21577697       5.80646546       6.17627001       0.00003803       0.00008872       0.00074354      -3.82936287
Al      12.48323763       4.67025083       8.31069616      -0.00242344      -0.00767794       0.00542007      -3.83921611
Al      10.58550499       6.58276368      11.79461197       0.00015261      -0.00260848      -0.00553891      -4.07003337
Al      11.37545048       8.58387513       1.01752794      -0.00403111       0.00252873      -0.00199204      -3.94368351
Al      11.47191282       8.13050358       3.73223158      -0.00152072       0.00599369       0.00242773      -3.75690460
Al      11.49684012       8.62305637       6.50661654       0.00327886      -0.00187111      -0.00082541      -4.10230511
Al      11.36980545       7.17093009       9.27693926      -0.00444388      -0.00550007      -0.00107723      -3.85865587
Al      11.90771449       9.38128981      10.92370697      -0.00116084       0.00184541      -0.00259125      -3.72037983
Al      12.18503655      10.90777880      -0.06004665      -0.00229464      -0.00160283      -0.00102521      -3.94330388
Al      11.51753043      10.69987886       2.80618435      -0.00002496      -0.00106381      -0.00346841      -3.77635288
Al      10.74032910      11.34026891       5.74267925      -0.01398385       0.00178945      -0.00520587      -4.16128445
Ni       9.39730692       9.76781284       7.29396425      -0.00692617       0.00257278      -0.00413237      -6.02429020
Al      11.22347624      10.76145196       8.55183841      -0.00013599      -0.00048852       0.00008255      -4.13758159
Al      10.60909655      11.75131947      11.18653589       0.00475494      -0.00255059      -0.00223366      -3.73208928
