94
Lattice="11.24587963049118 0.014585610273155386 -0.007865266457203523 0.014587503204064952 11.230151976262123 0.005662034666372973 -0.007856335065592919 0.005638436715167374 11.275472074500872" Properties=species:S:1:pos:R:3:forces:R:3:energies:R:1 energy=-454.51328049653296 stress="0.00010811681719731487 -0.0006331173731062346 0.0003973502761842664 -0.0006331173731062346 0.0005151993981277878 -0.0007688559493089953 0.0003973502761842664 -0.0007688559493089953 -0.000598677647569842" free_energy=-454.51328049653296 pbc="T T T"
Ni      -0.05647195       0.02958154      -0.08599892      -0.00153632      -0.00264471      -0.00674425      -6.16960237
Al       1.45271906       1.31829884       1.38920956       0.00088971      -0.00689480       0.00232693      -4.48417390
Al       1.35297240       1.34719067       4.22236462      -0.00105919       0.00510159       0.00122709      -4.34079256
Al       1.40009227       1.34415504       7.07349511       0.00257486      -0.00252278      -0.00815027      -4.24148888
Ni      -0.00271771       0.02462541       8.49950628      -0.00625341      -0.00023923       0.00567662      -5.91482046
Al       1.49178226       1.40504347       9.81542088      -0.00217314       0.00016231      -0.00035397      -4.35498763
Ni       0.04246879       2.69419775       0.01074854       0.00282652      -0.00786118       0.00177639      -6.02614537
Al       1.32142715       4.22400844       1.45448664      -0.00153467       0.00225086      -0.00105945      -4.44806110
Al       1.35948936       4.24009720       4.22257594       0.00677902       0.00458848      -0.00507966      -4.45393404
Ni       0.03342859       2.78540866       5.63747704       0.00620468      -0.00475734       0.00546450      -5.91078999
Al       1.36334738       4.27187025       7.05865153       0.01077397      -0.01027988      -0.01048340      -4.37061700
Al       1.37118473       4.23473287       9.83840089       0.00437234      -0.00339791       0.00636424      -4.34614915
Al       1.35846810       7.04811723       1.41709112       0.01184064       0.00650444      -0.00942348      -4.42555418
Al       1.39451090       7.08523968       4.27104405       0.01341375       0.00113556      -0.00111690      -4.32821680
Al       1.37693697       7.04289382       7.01799474       0.00462142      -0.00257851       0.00652907      -4.11951068
Ni      -0.04715910       5.60624696       8.43280121      -0.01531809       0.00297397      -0.00418623      -5.89883326
Al       1.34707466       6.99195449       9.85175266       0.00017309       0.00788001       0.00421833      -4.35428394
Ni      -0.01356874       8.54172414       0.02688993      -0.00746212       0.00669316       0.00327608      -6.13869822
Al       1.42329690       9.89318760       1.38164790       0.00206455       0.00164616      -0.00777269      -4.47277309
Al       1.44164242       9.84395608       4.31588140       0.00129160       0.00934903       0.00019895      -4.20915096
Ni      -0.08283778       8.47026034       5.56952241      -0.00945902       0.00596260      -0.00154685      -5.92355689
Al       1.35612800       9.79013705       7.06904188      -0.00556704      -0.01181958      -0.00604658      -3.92274315
Al       1.44197336       9.81754092       9.80810067      -0.00696171      -0.00363137      -0.00091824      -4.34726376
Al       4.28418605       1.42984282       1.37276794      -0.00107442       0.00038491       0.00728207      -4.42268437
Ni       2.84647231      -0.02366316       2.87283178       0.00271065      -0.00233689       0.00821868      -6.12111542
Al       4.25693064       1.38043185       4.32906855      -0.00675360      -0.00444817      -0.00311304      -4.60635189
Al       4.14732066       1.33999189       7.14719816      -0.00362019      -0.01070781       0.00057352      -4.10484001
Al       4.22063415       1.38666027       9.92940997       0.01064716      -0.00507976       0.00148075      -3.89595847
Ni       2.77884690       2.88146914       0.01905789       0.00434039       0.00364427       0.00235014      -6.07213062
Al       4.29280419       4.21504100       1.44794293      -0.00709673       0.00483533       0.00230697      -4.58697405
Ni       2.82797442       2.74391728       2.82905926      -0.00184445       0.00317724      -0.00482939      -6.24213364
Al       4.24049628       4.15838161       4.25375087      -0.00073453      -0.00739236      -0.01061551      -4.77392876
Ni       2.73750503       2.79845694       5.68394324      -0.00784317       0.00358388       0.00810331      -6.14886891
Al       4.17405328       4.21361425       7.16443793       0.00078513      -0.00547259       0.00373860      -4.46068963
Al       4.29029107       4.18341950       9.86884124      -0.00273285       0.00152330       0.00810067      -4.18252391
Ni       2.83579887       5.58284098       0.00653557      -0.00098308      -0.00138537      -0.00492057      -6.12982420
Al       4.26700846       7.00237470       1.39378309      -0.01052625       0.00290000      -0.00502995      -4.65747938
Ni       2.78560308       5.66560469       2.85153229      -0.00353424       0.00370529       0.00334566      -6.20855252
Al       4.22761749       7.12117781       4.27547434       0.00243507       0.01220115       0.00186306      -4.59674920
Ni       2.87802806       5.63316970       5.65510780       0.00150974      -0.00456280       0.01202417      -6.04907695
Al       4.21878761       7.11383416       7.10229628       0.00352325       0.00252089       0.00277202      -3.92543888
Al       4.23612451       6.95073093       9.79394503      -0.00743562       0.00589909       0.00044524      -4.05430360
Ni       2.84917257       8.37145631      -0.07809604      -0.00473484      -0.00199334      -0.00651560      -6.16090786
Al       4.21793200       9.91648848       1.30214448      -0.00623256      -0.00022293       0.00181689      -4.57694885
Ni       2.84215967       8.51031008       2.80829907      -0.00183598      -0.00077505      -0.00304197      -6.15124037
Al       4.29386067       9.84297520       4.33727978       0.00260462      -0.00337652      -0.00500327      -4.22500471
Al       4.11887151       9.85165933       7.00779367       0.00245663       0.00117058      -0.01099530      -3.35913096
Al       4.17095420       9.87716208       9.73337175      -0.00625471       0.00649979      -0.00603190      -3.88529826
Al       7.09296840       1.38214285       1.37133713       0.01111580       0.00316259       0.00479653      -4.07918504
Ni       5.65069969      -0.01433818       2.83244427      -0.00075090      -0.00253146       0.01105672      -6.13775500
Al       7.08184988       1.35682622       4.36197017      -0.00397079      -0.00328800       0.00599606      -4.25148407
Al       7.10830318       1.28657669       7.12129575      -0.00245527       0.00551924       0.00337237      -3.93955469
Al       7.04917380       1.31832127       9.93717733       0.01115631      -0.00317705      -0.00315578      -3.67452405
Al       7.08719158       4.29310583       1.43561803      -0.00607318      -0.00710680       0.01480099      -4.32498814
Ni       5.76544175       2.76816691       2.87327949       0.00913061      -0.00393256      -0.00460277      -6.24651481
Al       7.11636223       4.21182497       4.36082465      -0.00248421       0.01063109      -0.00425808      -4.49621813
Ni       5.63221185       2.77184003       5.82814149       0.00327935       0.00299570       0.00789767      -6.14985491
Al       7.03882554       4.25697601       7.15245138      -0.00490236      -0.00930910      -0.00354985      -4.34196917
Ni       5.65959005       2.71813877       8.46441403       0.00989903      -0.00817042       0.00037606      -5.92559094
Al       7.07503287       4.11411558       9.89150305       0.00598380      -0.00434578       0.00844040      -4.23594725
Al       7.03818636       7.02497293       1.39256907      -0.00869040       0.00664342      -0.00729230      -4.49424502
Ni       5.67424984       5.66919592       2.92790431      -0.00007510       0.00408793       0.00110523      -6.14332241
Al       7.06641403       7.11015451       4.28874110      -0.00703863      -0.00489484      -0.00467295      -4.32037876
Ni       5.57932465       5.62046381       5.66343045      -0.00149437      -0.00009800      -0.00519959      -6.05558846
Al       7.06242818       6.95648083       6.98421160       0.00699947       0.00578176      -0.00019547      -4.34738397
Al       6.93301605       6.97952848       9.78841793      -0.00317765       0.00052436      -0.00684761      -4.46063200
Ni       5.59361533       8.47865834      -0.08353828       0.00380611       0.00315109       0.00052459      -6.13575816
Al       7.04288684       9.91703972       1.28433661      -0.00764190       0.00114680      -0.00774152      -4.32403808
Ni       5.64644935       8.50934786       2.77286542       0.01283618      -0.00487768      -0.00149602      -6.16081223
Al       7.15096285       9.85519160       4.19002204       0.00082594      -0.00065739      -0.00408137      -4.20807324
Al       6.88243732       9.82311733       6.93799179      -0.00295812       0.00346773       0.00247637      -3.91201752
Al       6.91675722       9.87472911       9.69805251       0.00456969      -0.00328513       0.00646384      -4.09599456
Al       9.82619930       1.39489676       1.44344183       0.01065190       0.00289956      -0.01012540      -4.23747681
Al       9.82759819       1.41100122       4.25096690       0.00353985      -0.00122178       0.01093533      -3.92066258
Al       9.83412984       1.41798819       7.03689579      -0.00393001      -0.00029903       0.00309806      -3.92806364
Al       9.75117527       1.49161833       9.79930880       0.00612287      -0.00197013       0.00583620      -4.12514684
Al       9.83014272       4.18143499       1.37874850       0.00157836      -0.00657793      -0.00260077      -4.09871587
Ni       8.41823415       2.79329632       2.84366609      -0.00875071       0.00297631       0.00155928      -5.92130840
Al       9.86274109       4.23386145       4.20381035       0.00014019      -0.00002100      -0.00569699      -3.92199813
Al       9.81148807       4.16635664       7.00490487      -0.00872230       0.01046858       0.00342399      -4.27653551
Al       9.91340466       4.19432275       9.92593649      -0.00914024       0.00903171      -0.00689774      -4.36368819
Ni       8.42934548       5.64814678      -0.05753339      -0.00063091      -0.00767846      -0.01294634      -6.01188542
Al       9.86399816       7.02296716       1.39605641      -0.00482698       0.00311206      -0.00232465      -4.09257600
Al       9.82691336       7.00590349       4.13269067       0.00034499       0.00104513       0.00212137      -3.89273512
Al       9.88931666       7.02501362       7.00230293      -0.00939295      -0.00624309       0.01235721      -4.56727202
Ni       8.52906728       5.61366093       8.50947645       0.01861879      -0.00226504       0.00526045      -6.07153820
Al       9.90721021       7.11467322       9.82778021      -0.00652956      -0.00486448      -0.00052041      -4.58649776
Ni       8.36133337       8.42723253      -0.11784007       0.00134688       0.00003109       0.00353698      -6.17946716
Al       9.75265959       9.88845706       1.40079900      -0.00168525      -0.00024137      -0.00461718      -4.07156063
Al       9.88000911       9.94061873       4.12936409       0.00379488       0.00862088       0.00185375      -3.89444603
Ni       8.53389600       8.50221894       5.65995533       0.00389215       0.00741901       0.00729710      -6.02707288
Al       9.83745200       9.92638368       7.06698478       0.00380808       0.00885169       0.00193420      -4.38776568
Ni       8.34521301       8.44827967       8.34965659      -0.00193029      -0.01538387      -0.00622394      -6.12644931
Al       9.75022584       9.88564274       9.78192564       0.00553399      -0.00104030       0.00002449      -4.54828490
