123
Lattice="11.494378148188229 0.00036509862307539315 -0.0005235262927717779 0.0003650986233824085 11.494378148190938 -0.0005235262942532304 -0.0005235187223020549 -0.0005235187234397952 11.496416885772078" Properties=species:S:1:pos:R:3:forces:R:3:energies:R:1 energy=-659.7428246645193 stress="0.000590875064690573 -4.388653177613182e-05 9.544625780750326e-05 -4.388653177613182e-05 0.0005908750647772575 9.544625768896052e-05 9.544625780750326e-05 9.544625768896052e-05 0.00023692217993941507" free_energy=-659.7428246645193 pbc="T T T"
Ni      -0.00297534      -0.00297534      -0.00360411       0.00274714       0.00274714      -0.01217156      -6.25037956
Al       1.44835758       1.44835758       1.42024760      -0.00193635      -0.00193635      -0.00344385      -4.61755254
Ni       0.03358260       0.03358260       2.87639214      -0.00174741      -0.00174741       0.01183622      -6.20402519
Al       1.43654326       1.43654326       4.37063500      -0.00629216      -0.00629216       0.01783389      -4.24716758
Al       1.43520584       1.43520584       7.13290127      -0.00532079      -0.00532079      -0.01483652      -4.25868141
Ni       0.01642885       0.01642885       8.62080585       0.00022721       0.00022721      -0.00551397      -6.21606617
Al       1.44692999       1.44692999      10.07182756      -0.00132407      -0.00132407       0.01492815      -4.62940028
Ni      -0.00567646       2.87547382       0.00322458       0.00495900      -0.00481077      -0.00425495      -6.24524021
Al       1.43768955       4.31113148       1.43550845       0.00117707      -0.00245701       0.00064141      -4.62058193
Ni      -0.00270185       2.84947975       2.85902880       0.00228753       0.00124384       0.00583392      -6.20751760
Al       1.40272309       4.28474104       4.34590848      -0.00517087      -0.00536580      -0.00256492      -4.53486748
Al       1.39376569       4.27606813       7.15808008       0.00645767       0.00175811      -0.00319526      -4.54262730
Ni       0.00290014       2.84175571       8.63673765       0.00050191      -0.00160586      -0.00910268      -6.20893476
Al       1.42653993       4.30497849      10.05498158       0.00573474       0.00232297       0.00095311      -4.62974800
Ni      -0.01308985       5.75996186      -0.00864417       0.00678789       0.00068909      -0.00060542      -6.24341725
Al       1.42832592       7.18558917       1.44508806       0.00069828       0.00015854      -0.00152565      -4.62603898
Ni      -0.00882103       5.71745914       2.89647160       0.00473862       0.00318924       0.00181284      -6.24807177
Al       1.43279035       7.17386807       4.31143092      -0.00077133       0.00370451       0.00046407      -4.62798569
Ni      -0.01276783       5.77850391       5.76023197      -0.00037648       0.00257148      -0.00306664      -6.21024751
Al       1.43493773       7.17580138       7.19061925       0.00130087       0.00053525      -0.00312355      -4.62766443
Ni      -0.02295766       5.73729865       8.59680412       0.00184630       0.00070667       0.00091311      -6.26372260
Al       1.42830139       7.18474129      10.04301354       0.00426336      -0.00375506       0.00592404      -4.62999982
Ni      -0.02664632       8.61295597      -0.02385230       0.00543616      -0.00025786       0.00099328      -6.24775788
Al       1.42963296      10.04490247       1.42555682       0.00491770       0.00407819      -0.00088134      -4.62103610
Ni       0.00052933       8.64902653       2.90286692       0.00304721      -0.00753364       0.00075220      -6.25494206
Al       1.43655113      10.09235853       4.35099366       0.00105135       0.00516677       0.00725802      -4.41280131
Ni       0.00586437       8.61111939       5.76822469      -0.00194067      -0.00012377       0.00198760      -6.21675512
Al       1.44718849      10.10338562       7.14309359      -0.00228998      -0.00387753      -0.00125614      -4.42288038
Ni       0.03895444       8.65705464       8.59065055      -0.00407507      -0.00156262       0.00101819      -6.21401098
Al       1.43843410      10.05178567      10.06514793       0.00033130       0.00189464       0.00153270      -4.62681147
Ni       2.87547382      -0.00567646       0.00322458      -0.00481077       0.00495900      -0.00425495      -6.24524021
Al       4.31113148       1.43768955       1.43550845      -0.00245701       0.00117707       0.00064141      -4.62058193
Ni       2.84947975      -0.00270185       2.85902880       0.00124384       0.00228753       0.00583392      -6.20751760
Al       4.28474104       1.40272309       4.34590848      -0.00536580      -0.00517087      -0.00256492      -4.53486748
Al       4.27606813       1.39376569       7.15808008       0.00175811       0.00645767      -0.00319526      -4.54262730
Ni       2.84175571       0.00290014       8.63673765      -0.00160586       0.00050191      -0.00910268      -6.20893476
Al       4.30497849       1.42653993      10.05498158       0.00232297       0.00573474       0.00095311      -4.62974800
Ni       2.89167143       2.89167143      -0.00441111      -0.00779550      -0.00779550      -0.01068758      -6.24772250
Al       4.31206641       4.31206641       1.44737394       0.00089481       0.00089481       0.00380219      -4.61692125
Ni       2.86271615       2.86271615       2.91930597      -0.00497133      -0.00497133       0.00340622      -6.26380174
Al       4.31781736       4.31781736       4.31499117      -0.00378140      -0.00378140      -0.00204917      -4.62512239
Ni       2.89784412       2.89784412       5.75249883      -0.00025954      -0.00025954       0.00991242      -6.14647663
Al       4.34267522       4.34267522       7.21040911       0.00196359       0.00196359       0.00375868      -4.53704939
Ni       2.87525964       2.87525964       8.58100079      -0.00493245      -0.00493245      -0.00605320      -6.27383241
Al       4.33477050       4.33477050      10.02375340       0.00603988       0.00603988      -0.00636814      -4.52619588
Ni       2.89000135       5.74967348      -0.02124910      -0.00320518       0.00265499       0.00071326      -6.24632062
Al       4.30783134       7.18923620       1.44513191       0.00394631       0.00085997      -0.00078502      -4.61720101
Ni       2.86038622       5.73522781       2.88533918       0.00338415       0.00412723      -0.00209494      -6.24537388
Al       4.30189904       7.18417523       4.32384056       0.00461118      -0.00218097      -0.00381210      -4.63004209
Ni       2.86315304       5.72170356       5.76865845       0.00318950       0.00530844       0.00052291      -6.26382054
Al       4.32395109       7.14895083       7.20580147       0.00304219       0.00172418       0.00457454      -4.54691800
Ni       2.82902311       5.72725468       8.61120579       0.00248816       0.00286009      -0.00011143      -6.20694150
Al       4.32711220       7.15393691      10.01536334       0.00921333      -0.00287665       0.00257818      -4.53359022
Ni       2.87771340       8.60190835      -0.00868933      -0.00074043      -0.00009567      -0.00154908      -6.24531981
Al       4.31668375      10.04316437       1.42621829      -0.00721800       0.00487814       0.00383218      -4.62060758
Ni       2.86886999       8.64251275       2.90103612      -0.00148018       0.00339025      -0.00174150      -6.25276086
Al       4.28316356      10.07594493       4.35378234      -0.00651647       0.00779696      -0.00587141      -4.52758593
Ni       2.84902075       8.59935508       5.75360965       0.00135497       0.00075054       0.00277495      -6.21119831
Al       4.26706496      10.09037544       7.14750814      -0.00294729       0.00046584       0.00617189      -4.53282760
Ni       2.88216068       8.62845668       8.59598360       0.00294868       0.00090153      -0.00188853      -6.26761976
Al       4.30123180      10.05947135      10.06105960       0.00665255      -0.00860055      -0.00927830      -4.62719644
Ni       5.75996186      -0.01308985      -0.00864417       0.00068909       0.00678789      -0.00060542      -6.24341725
Al       7.18558917       1.42832592       1.44508806       0.00015854       0.00069828      -0.00152565      -4.62603898
Ni       5.71745914      -0.00882103       2.89647160       0.00318924       0.00473862       0.00181284      -6.24807177
Al       7.17386807       1.43279035       4.31143092       0.00370451      -0.00077133       0.00046407      -4.62798569
Ni       5.77850391      -0.01276783       5.76023197       0.00257148      -0.00037648      -0.00306664      -6.21024751
Al       7.17580138       1.43493773       7.19061925       0.00053525       0.00130087      -0.00312355      -4.62766443
Ni       5.73729865      -0.02295766       8.59680412       0.00070667       0.00184630       0.00091311      -6.26372260
Al       7.18474129       1.42830139      10.04301354      -0.00375506       0.00426336       0.00592404      -4.62999982
Ni       5.74967348       2.89000135      -0.02124910       0.00265499      -0.00320518       0.00071326      -6.24632062
Al       7.18923620       4.30783134       1.44513191       0.00085997       0.00394631      -0.00078502      -4.61720101
Ni       5.73522781       2.86038622       2.88533918       0.00412723       0.00338415      -0.00209494      -6.24537388
Al       7.18417523       4.30189904       4.32384056      -0.00218097       0.00461118      -0.00381210      -4.63004209
Ni       5.72170356       2.86315304       5.76865845       0.00530844       0.00318950       0.00052291      -6.26382054
Al       7.14895083       4.32395109       7.20580147       0.00172418       0.00304219       0.00457454      -4.54691800
Ni       5.72725468       2.82902311       8.61120579       0.00286009       0.00248816      -0.00011143      -6.20694150
Al       7.15393691       4.32711220      10.01536334      -0.00287665       0.00921333       0.00257818      -4.53359022
Ni       5.76241098       5.76241098       0.02353784       0.00045552       0.00045552      -0.00583832      -6.20096281
Al       7.19487230       7.19487230       1.45822261      -0.00225164      -0.00225164      -0.01926370      -4.61747785
Ni       5.75727158       5.75727158       2.88342624      -0.00520961      -0.00520961       0.00340958      -6.24298010
Al       7.20072332       7.20072332       4.32059289      -0.00891606      -0.00891606       0.00307355      -4.63479641
Ni       5.76481922       5.76481922       5.72464582       0.00080332       0.00080332      -0.00069221      -6.20058758
Al       7.19822128       7.19822128       7.23770775      -0.00255364      -0.00255364       0.00638327      -4.41283640
Al       7.18357117       7.18357117       9.97055889       0.00169444       0.00169444      -0.00122205      -4.39603301
Ni       5.77379794       8.59034223      -0.05234480       0.00373090       0.00438402       0.00066607      -6.25332250
Al       7.17997444      10.05574331       1.44704076       0.00301489      -0.00061533       0.00096088      -4.62322129
Ni       5.73402692       8.62865657       2.89216081       0.00112097      -0.00085647       0.00384166      -6.24494885
Al       7.18288783      10.05692513       4.31736614       0.00172331       0.00076187      -0.00318595      -4.62789112
Ni       5.74740478       8.61674829       5.79575669       0.00557620      -0.00427135       0.00204600      -6.26530970
Al       7.22735270      10.02841599       7.21462062      -0.00427510       0.00014493       0.00338405      -4.54703090
Ni       5.70523070       8.66014741       8.60385795      -0.00374994       0.00283874      -0.00249327      -6.14374734
Al       7.21598015      10.03459062      10.01095908       0.00463753      -0.00442830       0.00241942      -4.53728986
Ni       8.61295597      -0.02664632      -0.02385230      -0.00025786       0.00543616       0.00099328      -6.24775788
Al      10.04490247       1.42963296       1.42555682       0.00407819       0.00491770      -0.00088134      -4.62103610
Ni       8.64902653       0.00052933       2.90286692      -0.00753364       0.00304721       0.00075220      -6.25494206
Al      10.09235853       1.43655113       4.35099366       0.00516677       0.00105135       0.00725802      -4.41280131
Ni       8.61111939       0.00586437       5.76822469      -0.00012377      -0.00194067       0.00198760      -6.21675512
Al      10.10338562       1.44718849       7.14309359      -0.00387753      -0.00228998      -0.00125614      -4.42288038
Ni       8.65705464       0.03895444       8.59065055      -0.00156262      -0.00407507       0.00101819      -6.21401098
Al      10.05178567       1.43843410      10.06514793       0.00189464       0.00033130       0.00153270      -4.62681147
Ni       8.60190835       2.87771340      -0.00868933      -0.00009567      -0.00074043      -0.00154908      -6.24531981
Al      10.04316437       4.31668375       1.42621829       0.00487814      -0.00721800       0.00383218      -4.62060758
Ni       8.64251275       2.86886999       2.90103612       0.00339025      -0.00148018      -0.00174150      -6.25276086
Al      10.07594493       4.28316356       4.35378234       0.00779696      -0.00651647      -0.00587141      -4.52758593
Ni       8.59935508       2.84902075       5.75360965       0.00075054       0.00135497       0.00277495      -6.21119831
Al      10.09037544       4.26706496       7.14750814       0.00046584      -0.00294729       0.00617189      -4.53282760
Ni       8.62845668       2.88216068       8.59598360       0.00090153       0.00294868      -0.00188853      -6.26761976
Al      10.05947135       4.30123180      10.06105960      -0.00860055       0.00665255      -0.00927830      -4.62719644
Ni       8.59034223       5.77379794      -0.05234480       0.00438402       0.00373090       0.00066607      -6.25332250
Al      10.05574331       7.17997444       1.44704076      -0.00061533       0.00301489       0.00096088      -4.62322129
Ni       8.62865657       5.73402692       2.89216081      -0.00085647       0.00112097       0.00384166      -6.24494885
Al      10.05692513       7.18288783       4.31736614       0.00076187       0.00172331      -0.00318595      -4.62789112
Ni       8.61674829       5.74740478       5.79575669      -0.00427135       0.00557620       0.00204600      -6.26530970
Al      10.02841599       7.22735270       7.21462062       0.00014493      -0.00427510       0.00338405      -4.54703090
Ni       8.66014741       5.70523070       8.60385795       0.00283874      -0.00374994      -0.00249327      -6.14374734
Al      10.03459062       7.21598015      10.01095908      -0.00442830       0.00463753       0.00241942      -4.53728986
Ni       8.61789519       8.61789519       0.01779845      -0.00457423      -0.00457423       0.00070494      -6.20044971
Al      10.06811838      10.06811838       1.43942896      -0.00642927      -0.00642927       0.00235847      -4.61950779
Ni       8.64528995       8.64528995       2.89148710      -0.00452849      -0.00452849      -0.00306704      -6.24646977
Al      10.10772304      10.10772304       4.34462632      -0.00412442      -0.00412442      -0.00231477      -4.52218084
Ni       8.65716595       8.65716595       5.71955304      -0.01160970      -0.01160970       0.00587905      -6.20662946
Al      10.07960131      10.07960131       7.17697342      -0.00906858      -0.00906858       0.00304500      -4.44546851
Al      10.03843596      10.03843596      10.01997588      -0.00520591      -0.00520591      -0.00117430      -4.53255677
