97
Lattice="10.594373169258814 0.2176287173234936 -0.3679559139926361 0.20993075000935624 10.421240339571112 0.07334162389225972 -0.3670123138764926 0.07770573114853764 10.498171158871019" Properties=species:S:1:pos:R:3:forces:R:3:energies:R:1 energy=-533.2678981711073 stress="0.0009303820528724957 -0.00025594603862868733 0.000873164190263666 -0.00025594603862868733 0.0006361418834295961 0.0003357374351217578 0.000873164190263666 0.0003357374351217578 -0.00088769991356668" free_energy=-533.2678981711073 pbc="T T T"
Ni      -0.92700929       0.07264640       0.77244467       0.00936151       0.01204438       0.00032700      -5.74701902
Al       1.14891390       1.07144569       1.57650800      -0.00607446      -0.00245457       0.00319605      -4.99060785
Ni      -0.43209178      -0.13006968       3.16626784      -0.00488381       0.01214547       0.00031628      -6.00542529
Al       0.85314498       1.45425058       4.62303035      -0.00926154      -0.01058119       0.00517571      -4.91773589
Ni      -0.37582899      -0.81211509       5.46951181      -0.00526187      -0.00083643      -0.00015074      -5.88096454
Al       0.85998758       2.15425049       7.34923827      -0.00007901       0.00972143       0.00204059      -4.89765558
Ni      -0.00143681       1.14261748       9.50471208       0.00213939       0.00136366       0.01331070      -5.72946149
Ni       0.06143876       2.89680787       0.57048285       0.00106366      -0.01167636      -0.00498550      -5.68279703
Al       2.43152872       3.50672838       1.43592222       0.00590652      -0.01119944       0.00374018      -4.68634554
Ni       0.63544316       3.25453076       3.04083231      -0.00515609      -0.00453727       0.00640452      -5.90565198
Ni      -0.71036929       3.25155256       5.96494119       0.01171294      -0.01432014      -0.00228504      -5.84125399
Ni      -0.26348969       3.72787190       8.65481307       0.00460964       0.00122028      -0.00519158      -5.63309133
Ni       1.06471757       4.96539242       0.18540252       0.01198354       0.00879804      -0.00044806      -5.75997973
Al       1.27320391       5.80635619       2.52458428       0.00298148       0.00626895       0.00087049      -5.02975440
Ni      -0.91456662       4.75717002       1.93986250      -0.00374951      -0.00541734      -0.00396246      -5.99179469
Ni      -0.16446091       5.29272783       4.36348643       0.01377074       0.01000260      -0.00960581      -5.70270334
Al       1.13884184       7.77127059       6.32135971       0.00015559      -0.00544548       0.00195217      -4.95626050
Ni       0.48898208       5.39566160       6.68435556       0.00454908      -0.00061966      -0.00003083      -5.76576913
Al       1.14560817       6.39136424       8.75866499       0.00304523      -0.01113172       0.00024166      -5.03182519
Ni       0.39743001       8.72479090      -0.54135935      -0.00868093       0.00366964      -0.00027377      -5.75742584
Al       1.07735971       8.80243758       1.76635543      -0.00784438       0.00082601      -0.01188483      -4.85653860
Ni       0.26072982       7.72975478       3.76277091      -0.00193547      -0.00662729       0.00571008      -5.88073740
Al       2.01497056       9.30747320       4.29321140      -0.00144915      -0.00399724       0.00930892      -4.89782259
Ni      -1.21489781       7.25974412       5.61332657      -0.00059703      -0.01439686      -0.01053899      -5.73428465
Ni      -0.74120950       8.01317350       7.82029452       0.01381933      -0.00264718       0.01121755      -5.81772505
Al       0.27676771      10.09617305       7.82683044      -0.00503295      -0.00557570      -0.01214825      -4.80947334
Ni       2.29088171      -0.56925362      -0.02716970      -0.00180404      -0.00277585      -0.00837102      -5.75852303
Al       3.71448584       1.25793064       0.74605191       0.01060238      -0.00963348      -0.00982125      -4.77176153
Ni       3.00290363      -0.33466263       2.38120917       0.00008286      -0.00169617      -0.01681600      -5.84940664
Ni       1.94454616       0.05712420       6.31907782      -0.00710936      -0.00860153      -0.00173343      -5.91837964
Al       3.19297758       2.16340532       6.03970640      -0.00193130      -0.00320061       0.00103466      -4.88981404
Ni       2.46967218       0.77105500       8.52093020      -0.00007387      -0.00109595       0.00301520      -5.77602988
Ni       2.13396338       2.63633803      -0.72490409       0.00163402      -0.00968743      -0.00410022      -5.80802118
Al       3.78173367       5.74906194       1.50579729      -0.01320065       0.00532155       0.00368252      -4.59947149
Ni       2.88414968       1.99678509       3.21382270       0.00215773       0.00153919       0.00457546      -5.86163740
Ni       1.62366822       3.71154148       5.24736455       0.00957969      -0.00277593       0.00552687      -5.75460861
Ni       2.34657861       3.99211777       7.65903650       0.00638605       0.00200682      -0.00272740      -5.77838902
Al       4.06197266       2.56308891       8.94484936       0.00350348      -0.00200680       0.00541475      -5.01654046
Ni       3.35266994       4.74209658      -0.60046068       0.01000333      -0.00695311      -0.00596288      -5.78526869
Ni       3.32716540       4.49516397       3.48515522       0.00276816      -0.00454583      -0.00507236      -5.87873008
Al       4.34685061       6.64708146       4.79951473      -0.00073730       0.00320211       0.00959685      -4.96140274
Ni       2.05291674       6.18020206       4.80611758       0.00777560       0.00607901      -0.00137350      -5.62959723
Ni       2.92004465       6.33062295       7.09991407       0.00092235       0.00488783       0.00714819      -5.81460835
Al       3.82478001       7.04321528       9.24981429      -0.00490611      -0.00143713      -0.00647978      -4.82656085
Ni       2.27134485       7.26569750       0.33741812      -0.00154830      -0.01890912       0.00023839      -5.98580133
Al       4.42716520       8.62988047       1.00392699       0.00162421       0.01098980      -0.00656518      -4.95907895
Ni       3.01481436       7.56272608       2.87431399       0.00441607      -0.00112541      -0.00141471      -6.09929942
Al       5.11055715       8.88184364       3.58221697      -0.00162524       0.00529463       0.00142881      -4.90624446
Ni       3.52897127       8.55826829       6.04777157      -0.00602968       0.00316334       0.00656089      -5.74221385
Ni       2.23563994       8.65296835       8.36596214      -0.00285629       0.01233128       0.00417108      -5.77301313
Ni       4.90578129      -0.11004524      -0.85434602       0.00043219       0.00214762       0.01528654      -5.78252871
Al       6.48269478       1.62307652       0.51453201      -0.00297273      -0.01718997      -0.01058111      -5.00583275
Ni       5.24902288       0.78204838       2.59844379      -0.00531352      -0.00979698      -0.00570357      -5.74103370
Ni       3.86437401       0.24811940       4.69607887       0.00145271      -0.01425234       0.00488311      -5.84591311
Al       6.21588109       0.80891876       5.01605606      -0.00203574      -0.00109270      -0.00013934      -4.94526199
Ni       4.50477084       0.46166328       7.08893145       0.00827798      -0.00308831       0.00760896      -5.86250494
Ni       6.61044462       3.54352425      -1.02160522       0.00329016       0.00274979      -0.00636559      -5.79464845
Al       7.31440212       4.28354231       1.19342423       0.01011771       0.00050094       0.00289077      -4.88992304
Ni       4.94050580       3.39965259       1.67454727      -0.01187572       0.01513485       0.00170951      -5.97220659
Al       5.98184895       4.67602177       3.75661016      -0.01563878      -0.00520956      -0.00740543      -4.94416728
Ni       4.92277188       2.65360600       4.39406312      -0.00923661       0.00785366      -0.00382507      -5.71078436
Al       5.66493981       2.86910450       6.91812261      -0.00280409      -0.00226928      -0.00141072      -4.85686966
Ni       6.41267189       1.31273976       8.54967912       0.01240229      -0.00151856       0.00001874      -5.63292127
Ni       5.60173112       5.49960995       0.10508611       0.01320877      -0.00456070      -0.01434924      -5.76502463
Ni       5.74067254       6.63588755       2.34873636       0.00855134       0.00598104       0.00607723      -5.87640337
Ni       4.01352217       4.48577561       5.83009543       0.01184621       0.00162979      -0.00148399      -5.87121693
Al       6.28448092       5.38548396       6.34829401       0.00221613      -0.00372357       0.00849723      -4.92061127
Ni       4.69187588       4.89045432       8.14384395       0.00016555       0.00558892      -0.00333702      -5.87011253
Al       6.75100501       6.11058415       8.87537167      -0.00340670       0.00040925      -0.00662349      -5.02294803
Ni       6.17991183       7.95142127      -0.39876037      -0.00344378      -0.00806502       0.01010453      -5.68939172
Ni       6.82496166       8.67699610       1.93305222      -0.00904883       0.00746212       0.00457873      -5.63526170
Ni       5.90950085       9.07055265       5.78293511      -0.00274211       0.00347521      -0.00782709      -5.71483912
Ni       5.17501963       7.29009114       7.30863372      -0.00210542      -0.00523817      -0.00313760      -5.74632494
Al       6.46001264       9.35777122       8.13187238       0.00160838       0.00310079      -0.00940045      -4.91880409
Ni       7.35466624      -0.49354554      -0.09843674      -0.00697095      -0.00065264       0.00088779      -5.66372336
Al       9.15169730       2.19862196       1.69250829      -0.00361765       0.01015769       0.00974168      -4.91423626
Ni       7.75257169       0.35441298       2.22583701      -0.00318932      -0.00755611       0.00650164      -5.69487096
Al       8.79080463       1.32612223       4.57797241      -0.00112169       0.00102054       0.00410251      -4.82758745
Ni       8.01098571      -0.46915445       6.23561982      -0.00260713       0.01113713       0.00054087      -5.82151971
Ni       8.55290827      -0.04822091       8.60360893       0.00037652       0.00813854      -0.00608941      -5.63025483
Ni       8.66962587       2.21196418      -0.84416673       0.00947846      -0.00034451       0.00328204      -5.72001402
Ni       6.97554711       2.52711937       2.92603297      -0.01576533      -0.00022621      -0.00444880      -6.00486258
Al       8.82798338       3.91774412       3.54839945      -0.01504500      -0.00370276      -0.00977691      -4.70510158
Ni       7.34247317       3.11490288       5.31025812       0.00762640       0.00135647      -0.00137471      -5.91130360
Ni       8.93781821       1.78681008       7.09763678       0.00189553       0.01453029       0.00341121      -5.69247044
Ni       8.94798805       4.73786511      -0.68678042       0.00117823      -0.00261340      -0.00541085      -5.84732973
Al      10.14720800       6.89569905       0.09832307      -0.01489154       0.00341112       0.00159354      -4.90618274
Ni       7.80379976       6.60389610       0.73609266       0.00016568      -0.01062382       0.00543053      -5.80630325
Al       8.55519131       6.67790953       2.96448670      -0.00598670       0.00088068       0.00064956      -5.02586043
Ni       8.37259760       5.36507334       5.37847960       0.00518342       0.01303070       0.00892162      -5.75867549
Ni       7.82439439       3.90661906       7.60599469      -0.00873632       0.01345981       0.00973083      -5.88021264
Al       9.13809038       5.94973337       7.65876158      -0.00762538       0.01052267       0.00383066      -4.93142081
Ni       8.59096037       7.97122663      -1.22578393       0.00246013       0.00000907      -0.00325214      -5.89932523
Ni       9.19072086       8.63952178       1.47010957       0.00591343       0.00178468       0.00613781      -5.80857195
Al       8.21980322       9.13024741       3.98918552       0.00088713       0.00714759       0.00702175      -5.00198688
Ni       6.74823806       7.10368054       4.56048285      -0.00627405       0.00900914      -0.00031158      -5.89462511
Ni       7.54802524       7.51962808       6.86282172       0.00899448       0.00512673      -0.00544728      -5.85141894
