128
Lattice="11.516391830090484 -5.95382807968763e-05 6.0239593230638966e-05 -5.9538729080896314e-05 11.516571830518172 -5.953872967509186e-05 6.023959331354126e-05 -5.9538281358060803e-05 11.516391830089233" Properties=species:S:1:pos:R:3:forces:R:3:energies:R:1 energy=-698.2929778637946 stress="0.0016599556595234773 3.475221532726513e-05 -2.040369679913363e-05 3.475221532726513e-05 0.0014325082347670193 3.4752215269200796e-05 -2.040369679913363e-05 3.4752215269200796e-05 0.0016599556594921094" free_energy=-698.2929778637946 pbc="T T T"
Ni      -0.00872271      -0.01178861       0.00900184       0.00008971      -0.00109272      -0.00194790      -6.27322651
Al       1.44026577       1.43542967       1.42432599       0.00057634      -0.00231599       0.00200314      -4.64289700
Ni       0.05856621      -0.05450710       2.82961752      -0.00263056      -0.00309534      -0.00269657      -6.10593155
Al       1.31763512       1.45005471       4.32407361      -0.00709189      -0.00348487      -0.00034332      -4.72149519
Ni       0.04192327      -0.04355850       5.80008907       0.00075293      -0.00341778       0.00075293      -6.09234435
Al       1.45022131       1.42644471       7.20838710      -0.00052516      -0.00181808      -0.00052516      -4.63066476
Ni      -0.02435254       0.00184330       8.63153252       0.00333259      -0.00107731       0.00399918      -6.26719450
Al       1.42616570       1.44155689      10.06956963       0.00163756       0.00118688      -0.00063517      -4.63121873
Ni      -0.01042628       2.87899034       0.01181192       0.00033304      -0.00037254      -0.00276418      -6.25741738
Al       1.45468255       4.32888366       1.43536601      -0.00368449      -0.00162369       0.00000935      -4.61956131
Ni       0.03361989       2.92563645       2.83410240       0.00253042       0.00074268      -0.00026646      -6.09178895
Al       1.45190240       4.32296175       4.31040751      -0.00162699      -0.00131892      -0.00067032      -4.62565552
Ni       0.04160680       2.92057569       5.79977260       0.00149137       0.00387667       0.00149137      -6.09049898
Al       1.44436799       4.32873661       7.20253379      -0.00044336      -0.00244854      -0.00044336      -4.60840746
Ni      -0.00514886       2.87245012       8.62715925      -0.00166938      -0.00017915       0.00206197      -6.25830762
Al       1.43813670       4.31050886      10.08357159      -0.00074624      -0.00072375       0.00068903      -4.60887171
Ni      -0.00024232       5.75356794      -0.00698089       0.00100541       0.00017326       0.00150389      -6.24898689
Al       1.42804711       7.20173366       1.43768549       0.00169719       0.00140038       0.00025754      -4.63129520
Ni      -0.01764290       5.74232625       2.88764959       0.00180798       0.00472807       0.00079084      -6.25877509
Al       1.42370634       7.18275716       4.32790865       0.00220110       0.00408895      -0.00128706      -4.62017791
Ni      -0.01105082       5.74537502       5.74711497       0.00010700       0.00255969       0.00010700      -6.25868287
Al       1.43793957       7.20969152       7.19610536       0.00070650       0.00167077       0.00070650      -4.61798670
Ni       0.00515509       5.75963869       8.64644062      -0.00188303      -0.00060748      -0.00267403      -6.24875321
Al       1.43692641       7.19653679      10.06991422      -0.00080327       0.00067173       0.00096845      -4.61961294
Ni       0.00093713       8.65404389      -0.00493154       0.00053960       0.00138010       0.00123990      -6.26506225
Al       1.56144054      10.07211114       1.43054482       0.00747866       0.00046548       0.00147508      -4.73459253
Ni       0.00513110       8.65557190       2.88411791      -0.00276252      -0.00186483      -0.00157678      -6.26636043
Al       1.44015300      10.07112518       4.32363846       0.00035044       0.00137527      -0.00189918      -4.63048239
Ni      -0.01009892       8.64932544       5.74806688       0.00129348      -0.00206583       0.00129348      -6.25792257
Al       1.45409645      10.06760176       7.21226224      -0.00219442       0.00136601      -0.00219442      -4.63115983
Ni      -0.01610631       8.64008639       8.64756480       0.00448914       0.00069384       0.00043798      -6.25810550
Al       1.42607381      10.08432886      10.07142791       0.00105128       0.00056867       0.00061652      -4.62598054
Ni       2.86236652       0.02523400      -0.05865716      -0.00684699       0.00291724      -0.00002228      -6.10592007
Al       4.30598940       1.34319823       1.45841589      -0.00000393      -0.00719119      -0.00177861      -4.73210975
Ni       2.82103672       0.05668292       2.94038251       0.00216084       0.00494028       0.00152022      -6.10420463
Al       4.32988849       1.43701688       4.32399526       0.00126516      -0.00175030      -0.00071408      -4.62399566
Ni       2.87336673       0.00184330       5.73381325       0.00399918      -0.00107731       0.00333259      -6.26719450
Al       4.31140384       1.44155689       7.18433150      -0.00063517       0.00118688       0.00163756      -4.63121873
Ni       2.90030636      -0.01653901       8.65847216      -0.00409530       0.00293811      -0.00409530      -6.26693831
Al       4.31244593       1.45326154      10.07061173       0.00076931      -0.00225786       0.00076931      -4.62623658
Ni       2.88790071       2.87573484       0.00319900      -0.00055087       0.00230737       0.00106633      -6.25855553
Al       4.32451143       4.31015702       1.44031106       0.00065454      -0.00107597      -0.00012853      -4.61819901
Ni       2.87839971       2.85828641       2.87902009       0.00274899       0.00250205       0.00103517      -6.26778389
Al       4.31367909       4.31210835       4.31307725       0.00308529       0.00038654       0.00230161      -4.61154136
Ni       2.86899345       2.87245012       5.75301693       0.00206197      -0.00017915      -0.00166938      -6.25830762
Al       4.32540579       4.31050886       7.19630249       0.00068903      -0.00072375      -0.00074624      -4.60887171
Ni       2.87937010       2.89134686       8.63753590      -0.00090376      -0.00289780      -0.00090376      -6.24939851
Al       4.32428826       4.32388120      10.08245405      -0.00079976      -0.00384165      -0.00079976      -4.61178188
Ni       2.88165129       5.76164342       0.00933635       0.00188199      -0.00250139      -0.00083875      -6.25878564
Al       4.30647073       7.29039576       1.44626410       0.00131631       0.00741379       0.00115569      -4.71704969
Ni       2.89651670       5.77552508       2.86948443      -0.00133308      -0.00393056       0.00123537      -6.25924444
Al       4.32956309       7.20276016       4.32323887       0.00070990       0.00211535      -0.00132181      -4.61932656
Ni       2.88827483       5.75963869       5.76332089      -0.00267403      -0.00060748      -0.00188303      -6.24875321
Al       4.31174843       7.19653679       7.19509221       0.00096845       0.00067173      -0.00080327      -4.61961294
Ni       2.87336927       5.74601052       8.63153507       0.00226032       0.00398218       0.00226032      -6.24877243
Al       4.31382058       7.18668193      10.07198638       0.00144640       0.00351460       0.00144640      -4.63408543
Ni       2.85578075       8.61414873      -0.04972407      -0.00597414      -0.00276421      -0.00192692      -6.10510144
Ni       4.30672362      10.08688907       1.45994466      -0.00093306       0.00073692       0.00031349      -5.83117426
Ni       2.83879737       8.58766696       2.92671712      -0.00015607      -0.00351595       0.00018935      -6.09133550
Al       4.32227645      10.08381445       4.20799579      -0.00016418      -0.00150971      -0.00591081      -4.72684682
Ni       2.88939900       8.64008639       5.74205949       0.00043798       0.00069384       0.00448914      -6.25810550
Al       4.31326211      10.08432886       7.18423961       0.00061652       0.00056867       0.00105128      -4.62598054
Ni       2.89447492       8.65448961       8.65264071      -0.00258871      -0.00248184      -0.00258871      -6.26637509
Al       4.42286329      10.07198944      10.18102909       0.00440275       0.00311542       0.00440275      -4.81360813
Ni       5.75058325       0.09607827      -0.00758254       0.00120420       0.00343870       0.00120420      -5.91991780
Al       7.19800460       1.45270913       1.43983880       0.00091978      -0.00287576       0.00091978      -4.65038447
Ni       5.81934178       0.03790914       2.91509231      -0.00246959       0.00232756       0.00627115      -6.11859059
Al       7.31808112       1.43636714       4.32259770       0.00603976       0.00071374      -0.00029821      -4.73584859
Ni       5.76722787      -0.01184815       5.74950333      -0.00194790      -0.00109272       0.00008971      -6.27322651
Al       7.18255202       1.43537013       7.19849181       0.00200314      -0.00231599       0.00057634      -4.64289700
Ni       5.69956887       0.02517446       8.62059256      -0.00002228       0.00291724      -0.00684699      -6.10592007
Al       7.21664192       1.34313869      10.06421544      -0.00177861      -0.00719119      -0.00000393      -4.73210975
Ni       5.75262562       2.86343916      -0.00554018       0.00083056       0.00637066       0.00083056      -6.26707462
Al       7.18411300       4.32887709       1.42594720       0.00270021      -0.00035539       0.00270021      -4.63133756
Ni       5.75949818       2.86685829       2.88585138      -0.00260344       0.00184531      -0.00200941      -6.26669338
Al       7.18467996       4.32407041       4.31114539       0.00081537      -0.00046713      -0.00029364      -4.61926796
Ni       5.77003796       2.87893080       5.74779976      -0.00276418      -0.00037254       0.00033304      -6.25741738
Al       7.19359204       4.32882412       7.21290859       0.00000935      -0.00162369      -0.00368449      -4.61956131
Ni       5.76142503       2.87567530       8.64612675       0.00106633       0.00230737      -0.00055087      -6.25855553
Al       7.19853710       4.31009748      10.08273747      -0.00012853      -0.00107597       0.00065454      -4.61819901
Ni       5.75921780       5.77411996       0.00105200      -0.00045614      -0.00740931      -0.00045614      -6.26845002
Al       7.21198935       7.18522860       1.45382355      -0.00146462       0.00274142      -0.00146462      -4.64025237
Ni       5.74149467       5.76725871       2.87596668       0.00081437      -0.00288549      -0.00195417      -6.25923202
Al       7.20973822       7.19533590       4.32635285      -0.00236207      -0.00049976      -0.00119789      -4.63130448
Ni       5.75124514       5.75350840       5.75798372       0.00150389       0.00017326       0.00100541      -6.24898689
Al       7.19591153       7.20167412       7.18627315       0.00025754       0.00140038       0.00169719      -4.63129520
Ni       5.76756239       5.76158388       8.63987733      -0.00083875      -0.00250139       0.00188199      -6.25878564
Al       7.20449013       7.29033623      10.06469677       0.00115569       0.00741379       0.00131631      -4.71704969
Ni       5.76085589       8.54477336       0.00269010      -0.00033522      -0.00367277      -0.00033522      -5.91966060
Al       7.08600916      10.07596915       1.32784336      -0.00620260      -0.00068729      -0.00620260      -4.83688038
Ni       5.80324186       8.60662536       2.90058222       0.00065812      -0.00055938       0.00565475      -6.10644654
Al       7.19682081      10.07015506       4.32345417      -0.00051097       0.00113521      -0.00122941      -4.63282302
Ni       5.75329449       8.65398435       5.75916316       0.00123990       0.00138010       0.00053960      -6.26506225
Al       7.18877086      10.07205160       7.31966658       0.00147508       0.00046548       0.00747866      -4.73459253
Ni       5.70850197       8.61408919       8.61400678      -0.00192692      -0.00276421      -0.00597414      -6.10510144
Ni       7.21817070      10.08682954      10.06494966       0.00031349       0.00073692      -0.00093306      -5.83117426
Ni       8.67325810       0.03790914       0.06117598       0.00627115       0.00232756      -0.00246959      -6.11859059
Al      10.08076349       1.43636714       1.55991532      -0.00029821       0.00071374       0.00603976      -4.73584859
Ni       8.57555539      -0.06482129       2.81738959       0.00075566       0.00030708       0.00075566      -6.11754762
Ni      10.07014348       1.42382049       4.31197769       0.00043317      -0.00074332       0.00043317      -5.84164165
Ni       8.58784355      -0.05456664       5.81679225      -0.00269657      -0.00309534      -0.00263056      -6.10593155
Al      10.08229964       1.44999517       7.07586115      -0.00034332      -0.00348487      -0.00709189      -4.72149519
Ni       8.69860855       0.05662338       8.57926275       0.00152022       0.00494028       0.00216084      -6.10420463
Al      10.08222130       1.43695734      10.08811453      -0.00071408      -0.00175030       0.00126516      -4.62399566
Ni       8.64401718       2.86685829       0.00133238      -0.00200941       0.00184531      -0.00260344      -6.26669338
Al      10.06931118       4.32407041       1.42651416      -0.00029364      -0.00046713       0.00081537      -4.61926796
Ni       8.60271178       2.93341835       2.84454598      -0.00289554      -0.00366438      -0.00289554      -6.09332539
Al      10.08172475       4.21069404       4.32355896      -0.00276294      -0.00493998      -0.00276294      -4.70031525
Ni       8.59232843       2.92557691       5.79184593      -0.00026646       0.00074268       0.00253042      -6.09178895
Al      10.06863355       4.32290221       7.21012843      -0.00067032      -0.00131892      -0.00162699      -4.62565552
Ni       8.63724612       2.85822687       8.63662574       0.00103517       0.00250205       0.00274899      -6.26778389
Al      10.07130329       4.31204881      10.07190513       0.00230161       0.00038654       0.00308529      -4.61154136
Ni       8.63413247       5.76725871      -0.01667112      -0.00195417      -0.00288549       0.00081437      -6.25923202
Al      10.08451864       7.19533590       1.45157243      -0.00119789      -0.00049976      -0.00236207      -4.63130448
Ni       8.65529845       5.73700865       2.89713266      -0.00164063       0.00745751      -0.00164063      -6.25929857
Al      10.07195966       7.21254757       4.31379387      -0.00114449       0.00265963      -0.00114449      -4.61479835
Ni       8.64587563       5.74226671       5.74058313       0.00079084       0.00472807       0.00180798      -6.25877509
Al      10.08613469       7.18269762       7.18193238      -0.00128706       0.00408895       0.00220110      -4.62017791
Ni       8.62771046       5.77546554       8.65474274       0.00123537      -0.00393056      -0.00133308      -6.25924444
Al      10.08146490       7.20270062      10.08778912      -0.00132181       0.00211535       0.00070990      -4.61932656
Ni       8.65874801       8.60662536       0.04507607       0.00565475      -0.00055938       0.00065812      -6.10644654
Al      10.08161997      10.07015506       1.43865502      -0.00122941       0.00113521      -0.00051097      -4.63282302
Ni       8.63330490       8.66042493       2.87513910       0.00185939      -0.00554239       0.00185939      -6.27338275
Al      10.07079184      10.19027735       4.31262604       0.00164470       0.00430346       0.00164470      -4.72758325
Ni       8.64234395       8.65551236       5.76335713      -0.00157678      -0.00186483      -0.00276252      -6.26636043
Al      10.08186449      10.07106564       7.19837904      -0.00189918       0.00137527       0.00035044      -4.63048239
Ni       8.68494316       8.58760742       8.59702340       0.00018935      -0.00351595      -0.00015607      -6.09133550
Al       9.96622182      10.08375492      10.08050249      -0.00591081      -0.00150971      -0.00016418      -4.72684682
