121
Lattice="11.479333470957883 -0.00012010372941177928 0.001944770401603317 -0.00012011156642077022 11.47794074161778 -0.00034131310360381773 0.0019447262003334466 -0.00034128867187749394 11.481625419201027" Properties=species:S:1:pos:R:3:forces:R:3:energies:R:1 energy=-646.2313630409178 stress="0.0005358751768396541 2.9200314408042643e-05 -0.00031692316629040195 2.9200314408042643e-05 0.0007153411429154858 7.498980772814236e-05 -0.00031692316629040195 7.498980772814236e-05 0.00020923314381756834" free_energy=-646.2313630409178 pbc="T T T"
Ni      -0.03781554      -0.00849334      -0.02480814      -0.00089595       0.00025974       0.00595717      -6.20866794
Al       1.47042552       1.39211162       1.41210358      -0.00359685      -0.00163388      -0.00655910      -4.54770845
Ni       0.03179156      -0.01945784       2.86691290       0.00033094       0.00172020      -0.00168281      -6.25480215
Al       1.42679656       1.42983605       4.31836767       0.01064037      -0.00189522       0.00118887      -4.63347202
Ni       0.01337070      -0.04533597       5.76333023       0.00810304       0.00527712      -0.00600108      -6.25096521
Al       1.43892023       1.42144898       7.18587390       0.00430217       0.00131290      -0.00492565      -4.64194461
Ni       0.00671918      -0.04677765       8.60793561      -0.00274124       0.00444729       0.00380559      -6.25876274
Al       1.47834276       1.38659591      10.03981235      -0.00062566      -0.00310762       0.01324830      -4.54579136
Ni       0.04183072       2.81271338      -0.01199673      -0.01042630      -0.00032852       0.00552183      -6.20807354
Al       1.42410720       4.33526694       1.40538310      -0.00307733       0.00828953      -0.00881418      -4.53936302
Ni       0.03323384       2.89471337       2.85596766      -0.00374635      -0.00600322      -0.00097771      -6.25330678
Al       1.47545493       4.33840454       4.33280165      -0.00464291       0.00529145       0.00526152      -4.52934108
Ni       0.03974292       2.90332202       5.75215807      -0.00176287      -0.00508925      -0.00525256      -6.24527920
Al       1.48205366       4.36014735       7.15442463       0.00261608      -0.00303478      -0.00894039      -4.53532311
Ni       0.03555714       2.90454314       8.62145071      -0.01297717      -0.00860407      -0.00183420      -6.25188706
Al       1.41954129       4.35418205      10.06551501      -0.00468132       0.00258078       0.00872668      -4.54242778
Al       1.39703906       7.15693573       1.38419258       0.00086805      -0.00775727      -0.00444965      -4.55032214
Ni       0.02945724       5.74328056       2.91457217      -0.00288885       0.00385388       0.00459351      -6.21655820
Al       1.46720219       7.19201157       4.33774979       0.00922143      -0.00254871       0.00877607      -4.43038702
Ni      -0.02512560       5.77935490       5.75174049      -0.00345020      -0.00148745       0.00275544      -6.21285583
Al       1.47799086       7.17822732       7.14365438       0.00287547      -0.00319622      -0.00521873      -4.44015962
Ni      -0.00627391       5.76606882       8.56226993       0.00261823       0.00454339      -0.00802159      -6.22214167
Al       1.39185782       7.13908270      10.09223367       0.00700392       0.00041325       0.00101420      -4.54704270
Ni      -0.01992584       8.66522008      -0.03050047       0.00557542       0.00047065       0.00292955      -6.21689049
Al       1.46388792      10.06235954       1.38792327       0.00407942       0.00910053      -0.00155815      -4.55909041
Ni       0.02646250       8.59641068       2.85216030      -0.00090974       0.00021380       0.00515481      -6.26640056
Al       1.44964811       9.98560164       4.34817284       0.00991045       0.00476517       0.00586506      -4.54709383
Ni      -0.04531918       8.57756422       5.76891683       0.00708035       0.00396174      -0.00074155      -6.21459672
Al       1.46962250       9.98717689       7.14097355       0.00679423       0.00108629      -0.00517479      -4.55417908
Ni       0.04191416       8.59181489       8.62280130       0.00295531      -0.00020227      -0.00259677      -6.23111554
Al       1.47299969      10.07150742      10.07365925       0.00179878       0.00426666       0.00715234      -4.55200559
Al       4.28678387       1.35542366       1.44555290       0.00286398      -0.01897553      -0.00456534      -4.41632377
Ni       2.82851004      -0.04071284       2.92953584      -0.00320089       0.00827162       0.00186715      -6.14391309
Al       4.33417185       1.39140309       4.28123724       0.00377763      -0.00192428      -0.00596546      -4.54867381
Ni       2.89995930       0.00288060       5.73707902      -0.00079398       0.00569090      -0.00002235      -6.21624084
Al       4.30424054       1.43746137       7.18145748      -0.00173294       0.00137269      -0.00101200      -4.63610732
Ni       2.90236175      -0.07350449       8.54580592      -0.00076996       0.00540437       0.00007944      -6.21327906
Al       4.25989821       1.40103758      10.05598721      -0.00033726      -0.00413375       0.00591738      -4.55739104
Ni       2.85419915       2.90072633      -0.00207550       0.00223014       0.00549084      -0.00068141      -6.20916192
Al       4.29905223       4.31177124       1.43334010       0.00105283       0.00191694      -0.00099975      -4.63994409
Ni       2.88031933       2.84813629       2.86900041       0.00112960       0.00158382      -0.00133741      -6.26643324
Al       4.25835020       4.35215995       4.33594205      -0.00016636       0.00087255       0.00681380      -4.53265554
Ni       2.87635119       2.84380513       5.73935860      -0.00170987      -0.00261734      -0.00033195      -6.20483568
Al       4.27470555       4.34923303       7.15260810      -0.00819864      -0.00296276      -0.00786250      -4.54606282
Ni       2.86381406       2.89272225       8.61027820       0.00314820      -0.00695080       0.00148944      -6.25890047
Al       4.31369820       4.30427149      10.04685079      -0.00406964       0.00235820       0.00341157      -4.64004452
Ni       2.91558884       5.75848532      -0.01143510       0.00266150       0.00123306       0.00287455      -6.21273188
Al       4.32036244       7.18027408       1.42817521      -0.00288104      -0.00474054       0.00078942      -4.64241726
Ni       2.84552914       5.77624507       2.83354288       0.00287460      -0.00134394       0.00274280      -6.21454520
Al       4.25532869       7.17819681       4.34204548      -0.00347299       0.00027361       0.00287483      -4.44436308
Al       4.32826311       7.23062612       7.19674993      -0.01142874       0.01345183      -0.00821374      -4.32814431
Ni       2.89022005       5.80528480       8.64974350      -0.00126846       0.00152095      -0.00060452      -6.21921113
Al       4.37288750       7.21862800      10.03089053      -0.00975250       0.00100204      -0.00428252      -4.55179392
Ni       2.88382639       8.56543618      -0.01670329      -0.00024604      -0.00553563      -0.00278898      -6.22321949
Al       4.29795336      10.10358547       1.43691146      -0.00013743       0.01944941      -0.00355117      -4.42928749
Ni       2.87405532       8.62112553       2.82325491       0.00804126       0.00088965       0.00242589      -6.22842348
Al       4.29827240      10.01644964       4.31606200      -0.00264245       0.00179280      -0.00255173      -4.47746487
Al       4.31679004       9.94420367       7.18224523      -0.00729876      -0.00875448      -0.00003663      -4.41340960
Ni       2.84359597       8.58721581       8.65884937      -0.00050894       0.00017741      -0.00196758      -6.16034879
Al       4.30856824      10.03426363      10.04858165      -0.00050683      -0.00048892      -0.00341438      -4.48340902
Ni       5.76902910      -0.01624504      -0.04821078       0.00837811      -0.00157139      -0.00768163      -6.15435359
Al       7.15040680       1.41438026       1.46417244      -0.00691724      -0.01011038       0.00689073      -4.54121236
Al       7.13259719       1.40593943       4.29427081      -0.00385190      -0.00923395      -0.00654637      -4.53548094
Ni       5.70970884      -0.06073236       5.79921199       0.00104642      -0.00270830       0.00506870      -6.22119485
Al       7.15473668       1.44864495       7.16293926       0.00435377      -0.00006139       0.01029775      -4.63576820
Ni       5.73540125       0.00454706       8.61698596      -0.00207539       0.00308154       0.00417173      -6.21883021
Al       7.17244434       1.45543586      10.04453012      -0.00159990      -0.00730735      -0.00303695      -4.63219725
Ni       5.69222564       2.80491679       0.03179146       0.00865365       0.00721078      -0.00651253      -6.25324560
Al       7.15635664       4.29699476       1.43259789       0.00100540       0.00477211      -0.00114079      -4.63570434
Ni       5.70857758       2.90108845       2.88134784       0.00586785       0.00601533      -0.00370936      -6.20093451
Al       7.17529305       4.31902499       4.30826324      -0.00080890      -0.00360598       0.00119794      -4.63317648
Ni       5.70356858       2.88396843       5.71403984      -0.00065713      -0.00496112       0.00686027      -6.25658873
Al       7.16991424       4.29591339       7.16556757      -0.00083011      -0.00349686       0.00354228      -4.63288605
Ni       5.71415738       2.87591081       8.60379325       0.00491605      -0.00306859       0.00323785      -6.24944005
Al       7.15553156       4.27360471      10.06362637       0.00473387       0.00681970      -0.00518416      -4.63313610
Ni       5.74619521       5.75691844      -0.01953515      -0.00508188       0.00464846      -0.00153758      -6.25912574
Al       7.16127445       7.16883971       1.45100272      -0.00038523      -0.00135474      -0.00239891      -4.64006428
Ni       5.70460136       5.73786302       2.89543268       0.00230842       0.00569746      -0.00535278      -6.25763405
Al       7.19057451       7.15751742       4.27757528      -0.00223294       0.00739843       0.00422437      -4.63480269
Ni       5.75702510       5.79739775       5.76607523       0.00077034       0.00319544       0.00041931      -6.21330626
Al       7.19169692       7.21090783       7.22493705       0.00155449       0.00687237       0.00301499      -4.43068067
Ni       5.75268052       5.72545743       8.59885543      -0.00625954      -0.00289909      -0.00235609      -6.21445663
Al       7.16599980       7.21963873      10.02174428      -0.00271087       0.00673670      -0.01416646      -4.42931164
Ni       5.75213414       8.66953937       0.04659727      -0.00692344      -0.00453540      -0.00262198      -6.22307062
Al       7.14677304      10.08871503       1.48400898      -0.00652192       0.00031810       0.00373712      -4.54984256
Ni       5.71359545       8.58387670       2.88809858      -0.00192511      -0.00607629      -0.00380473      -6.21813904
Al       7.14456656      10.08053840       4.26980774      -0.00397134       0.00088836      -0.00531619      -4.54469033
Ni       5.78546939       8.59534074       5.70435539      -0.00446969       0.00127278      -0.00162619      -6.15854896
Al       7.17269782      10.00512727       7.21165426      -0.00509313      -0.00981833       0.00860681      -4.43777269
Al       7.18712560      10.00881430      10.00989867      -0.00324322      -0.00809752      -0.00729456      -4.43173737
Ni       8.59348879      -0.00239557      -0.00291354      -0.00049026      -0.01383964      -0.00415970      -6.26620621
Al      10.06059370       1.43448787       1.44138796      -0.00321506      -0.00566493      -0.00057699      -4.62563709
Ni       8.64660655       0.01583333       2.88551989       0.00259328      -0.00405671      -0.00797431      -6.19841777
Al      10.07774440       1.43764965       4.31956015      -0.00671883      -0.00416370      -0.00412282      -4.63393746
Ni       8.59248955      -0.01193198       5.74506573       0.00462672      -0.00468183       0.00603675      -6.26073331
Al      10.06407606       1.43743096       7.17583145      -0.00394767       0.00331472       0.00356622      -4.63828737
Ni       8.58245927       0.02634497       8.59824913       0.00075696       0.00017365       0.00588952      -6.20094327
Al      10.04966852       1.43397815      10.02688491      -0.00069782      -0.00017732       0.00712181      -4.63019029
Ni       8.63215444       2.87578280       0.00985663      -0.00205863       0.00036313      -0.00156289      -6.25047263
Al      10.08852430       4.32455198       1.40189172       0.00502895       0.01031964      -0.00566920      -4.53149685
Ni       8.60427855       2.85714927       2.87150663       0.00170754      -0.00320056      -0.00161580      -6.24679389
Al      10.04808956       4.30479978       4.31221306      -0.00112500      -0.00042814      -0.00045211      -4.62720779
Ni       8.60468860       2.86025709       5.72964282       0.00379256       0.00533287       0.00714246      -6.24198441
Al      10.04205107       4.30440141       7.17501436       0.00051080      -0.00038596       0.00122298      -4.62558959
Ni       8.61542434       2.87597178       8.61276248      -0.00280239      -0.00562975       0.00608269      -6.24402409
Al      10.08553816       4.32679309      10.07710387       0.00545879       0.00577556       0.00448675      -4.53503874
Ni       8.56995286       5.75087182      -0.01617734      -0.00291678       0.00522435      -0.00373195      -6.20920833
Al      10.07572247       7.15485591       1.40839812       0.01038905      -0.00749260      -0.00159007      -4.54537588
Ni       8.63912210       5.72352513       2.83453219      -0.00435552       0.00670839       0.00899297      -6.24845209
Al      10.02944936       7.18156367       4.28882733       0.00274565       0.00017024       0.00662906      -4.63465386
Ni       8.60737367       5.76127300       5.76121710       0.00185467       0.00462699       0.00554599      -6.25685411
Al       9.98980418       7.21089785       7.22210907       0.00195831       0.01021758      -0.00088580      -4.53250669
Ni       8.60163226       5.71234413       8.64618252       0.00424702      -0.00031631      -0.00509176      -6.21217305
Al      10.03999463       7.17809200      10.05048038      -0.00052990       0.00159916      -0.00235635      -4.45449898
Ni       8.59509206       8.60367445       0.03261149       0.00513665      -0.00468816      -0.00256715      -6.21432738
Al      10.04267180      10.04825343       1.44048153       0.00221136       0.00156746      -0.00035590      -4.63360440
Ni       8.59602125       8.62663008       2.85822480      -0.00166159      -0.00348039       0.00560759      -6.25603360
Al      10.05288820      10.03375788       4.30593686      -0.00295123      -0.00012781      -0.00213107      -4.64018102
Ni       8.58086470       8.61079973       5.71554347       0.00299575       0.00074074       0.00102710      -6.21392911
Al      10.00734520      10.00908289       7.20714751      -0.00295069      -0.00824245       0.00710429      -4.53932225
Al       9.99422501      10.01749140      10.00544244       0.00537087      -0.00686969      -0.00289374      -4.53925658
