86
Lattice="11.058049137339633 0.14381302118302167 0.19367961769638337 0.1456532391996668 11.029022371721904 -0.05437844935235414 0.19383797264402464 -0.05196667754109153 11.0981483908486" Properties=species:S:1:pos:R:3:forces:R:3:energies:R:1 energy=-397.05178879094854 stress="1.6734134728371826e-05 -0.0002967877524909055 -0.0004608514862328621 -0.0002967877524909055 -0.00021186204932382763 0.00022234948681335953 -0.0004608514862328621 0.00022234948681335953 2.8619627903548453e-05" free_energy=-397.05178879094854 pbc="T T T"
Al       1.26201314       1.50537228       1.10449597       0.00783793       0.00791372       0.00059283      -3.95243803
Ni       0.14875028       0.12879735       2.75542864       0.00016594      -0.00080984      -0.00025553      -5.98037844
Al       1.66530774       1.38119586       4.11247994       0.00811860       0.00148101       0.00062722      -4.10635678
Ni       0.08163206       0.01664436       5.55374787       0.00130935      -0.00633079       0.00723977      -6.12677760
Al       1.27288976       1.77339616       6.84611719      -0.00568849      -0.01107690      -0.00095691      -4.33723038
Ni       0.22750280      -0.00446248       8.23273621       0.01428875      -0.00735959      -0.00470110      -5.89310327
Al       1.96930652       0.99939420       9.58988350      -0.00260299       0.00145765      -0.00182765      -4.08222038
Al       1.60088836       4.14004169       1.51749457       0.00430110      -0.00781682       0.00646820      -4.24082961
Ni       0.03398013       2.77733089       2.77278976       0.00103125       0.00689832       0.00042803      -6.03440098
Al       1.12050939       4.02077596       4.50461054      -0.00487974       0.00231357       0.00542646      -4.03897997
Al       2.04504706       4.42911229       6.97250128       0.00526965      -0.00542813      -0.00431056      -4.07686833
Al       1.62410874       3.90012073       9.70906965       0.00754506       0.00275490       0.00288592      -4.14614424
Al       1.34351700       6.98169774       1.44340602       0.00147211       0.00852863      -0.00131740      -3.92591072
Ni       0.03382142       5.39284394       2.79948927       0.00045238       0.00135480       0.00276609      -5.90667779
Al       1.71785838       6.66396830       4.18196948       0.00333652       0.00258649      -0.00077480      -4.26340007
Al       1.58900027       7.20004985       7.21010014       0.00274180      -0.00048330      -0.00753594      -4.34539033
Ni       0.22850501       5.44440870       8.23679294      -0.00232905      -0.00775431      -0.00119803      -5.90697816
Al       1.54528934       6.70061863       9.83224113       0.01256815      -0.00972798       0.00939777      -3.95702667
Al       1.65517201       9.78783192       1.05603392      -0.00968176      -0.00048956      -0.00592534      -3.75892402
Al       1.73295194       9.56634252       3.83140059      -0.00499402       0.00327946       0.00186758      -4.41831898
Ni       0.41971923       8.35029665       5.42620814      -0.00740093      -0.00064472       0.00341066      -5.99714796
Al       1.94846661       9.99929421       6.70999638      -0.00783763       0.00647055       0.00723868      -4.48720711
Al       1.65463625       9.30339228       9.37200992      -0.00655564       0.01412387       0.00622162      -3.84603447
Al       4.01551414       1.27207140       1.31214347      -0.00175250      -0.00347089       0.00134964      -3.95941243
Al       4.34210125       1.88946370       4.23318943       0.00886109       0.00252849       0.00026876      -3.83649845
Al       4.19489617       0.90122198       6.88280923      -0.00307526      -0.00139023      -0.00820777      -3.84523249
Al       4.68589599       1.31357428       9.54838592      -0.00337680      -0.00442021       0.00253392      -4.02091861
Al       4.22639166       4.02641943       1.54832821      -0.00409823      -0.00606371      -0.00495014      -4.29629698
Al       3.79552249       4.63811890       4.38977670       0.00369845      -0.00600458      -0.00658552      -3.85942846
Al       4.79592234       3.68705004       6.81666898       0.00229659       0.00618550       0.00886681      -4.12673487
Ni       3.09812720       2.59387648       8.18997958       0.00372338      -0.00049787       0.01244257      -5.77508465
Al       4.35598693       4.12227845       9.58958738      -0.01226531      -0.00786997       0.00262405      -4.48417704
Ni       2.83715972       5.49516781       0.04056366      -0.00227201       0.00482668      -0.00417272      -5.87832718
Al       4.05205700       6.88640629       1.54651465       0.00003756       0.00637100       0.00249100      -4.31228438
Al       4.76702546       7.47261497       4.16169812       0.01107346      -0.00256190       0.00107031      -4.19293427
Al       4.15739135       6.41150135       6.71354112       0.00603296      -0.00088048       0.00314139      -4.13052588
Al       4.32221256       6.98923289       9.62651893      -0.00364292      -0.00818440      -0.00153415      -4.36559028
Al       4.19098702       9.52018844       1.91406093      -0.00119393      -0.00303300      -0.00303232      -4.02438678
Al       4.30275787      10.16404776       4.79949637       0.00031786      -0.01167532       0.00117271      -4.14242998
Ni       3.00123334       8.23333336       5.54274896       0.00163022      -0.00699969      -0.00797734      -5.88869937
Al       4.39701708       9.11822923       7.46740779       0.00085003       0.00247598      -0.00137707      -3.82475941
Al       4.13305738       9.83673339      10.23019618      -0.01111815      -0.00218005      -0.00323984      -3.91966580
Al       6.70776322       1.38164286       1.45605528      -0.00084610      -0.00261893       0.00700839      -4.34561172
Ni       5.42749198       0.05579858       3.03791736       0.01335095      -0.00212880      -0.00007376      -5.76965541
Al       7.15996444       1.31761046       4.09081559      -0.00744092      -0.00826802      -0.00473074      -4.05341451
Al       6.85652335       1.74228641       6.86907721       0.00532159       0.00518665       0.00597518      -3.83723336
Al       7.38406278       1.35273906       9.57131730      -0.00363791       0.00469329      -0.00790977      -4.16214828
Ni       5.60484760       2.81190785      -0.01770033      -0.00550917       0.00236698      -0.00164187      -5.95792755
Al       6.98623481       4.17920570       1.57497169       0.00004450       0.00076160       0.00099683      -4.53079115
Al       6.45406722       3.83605742       4.30713507      -0.00294513       0.00671336       0.00416217      -3.89324484
Al       7.48461408       4.42135289       6.66588048      -0.00015784       0.00287355       0.00196863      -4.05572952
Al       7.14181456       4.11137718       9.60979062       0.00675807      -0.00436890       0.00095538      -4.63990000
Ni       5.48099535       5.56494203       0.06507900       0.00714397       0.00313844      -0.00264798      -6.30551266
Al       6.93890807       6.97949415       1.53719207      -0.00785435       0.00317693      -0.00070730      -4.31911717
Ni       5.54219137       5.56351353       2.95789060       0.00184759       0.00639235       0.00198145      -5.87795906
Al       7.35234508       6.52394336       4.29684590      -0.00007290       0.00190878      -0.00127667      -3.81241343
Al       6.97961316       7.23513167       6.87558248      -0.00420535       0.00582312       0.00506986      -4.14186616
Ni       5.85605418       5.53092864       8.15714919      -0.00509810      -0.00523254       0.00237430      -5.95788776
Al       7.09313015       6.97188698       9.78914412      -0.00438089       0.00361069       0.00547159      -4.61560960
Ni       5.47399944       8.34262940       0.16133772      -0.00585599      -0.01065596       0.01011134      -5.89609959
Al       7.04608586       9.69761459       1.56061593      -0.00654324       0.00709373       0.00261735      -4.15342161
Al       7.05062723       9.56043362       4.39414358       0.00184181       0.00015327      -0.00456381      -3.96514957
Al       7.02122574       9.98959268       7.19657893      -0.00023360       0.00438203      -0.00723884      -4.03636271
Al       7.10089240       9.72112540       9.93115527       0.00010520       0.00067738      -0.00535708      -4.18057649
Ni       8.35004922       0.13723615       0.22522609      -0.00248701      -0.00424686      -0.00993037      -5.89316626
Al       9.36981489       1.51976263       1.95382320       0.00462593      -0.00302001       0.00489621      -4.52748603
Al       9.80816056       1.77047144       4.64254537      -0.00199856       0.00571233      -0.00167846      -4.41710131
Ni       8.34681653       0.16493686       5.75408733       0.00240721      -0.00752034       0.00686685      -5.87899299
Al       9.56051124       1.51109569       7.42572114       0.00638102       0.00195192      -0.00457455      -4.17386318
Al      10.32080027       1.41850007      10.23184519      -0.00672878       0.00135696      -0.00695469      -4.30766364
Ni       8.30805706       2.77291122       0.10860637      -0.00395885       0.00372252      -0.00664055      -6.13214103
Al       9.84402286       4.18159106       1.37394385      -0.00790352      -0.00518019      -0.00870990      -4.47798541
Al       9.32334419       4.40954486       4.24994495      -0.00192918      -0.00434461       0.00212921      -3.99517392
Al      10.19713526       4.13079831       6.86035820      -0.00032275      -0.00370196       0.00107186      -4.00672687
Al       9.89670864       4.06140436       9.65841791      -0.00446695      -0.00651719       0.01017558      -4.37995158
Ni       8.32017857       5.51263752       0.05920239       0.00500799      -0.00112732       0.00210801      -6.06855339
Al       9.65554845       6.95323268       1.53066655       0.00188620       0.00451572       0.00198070      -3.93097538
Al       9.96251098       7.19937147       4.24985723       0.00138630       0.00934700      -0.00423549      -3.97441128
Al       9.96481790       7.04353445       6.94362015       0.00621823      -0.00148415      -0.00269291      -4.38631611
Ni       8.59374907       5.68991627       8.34748668       0.00201600       0.00502621      -0.00540221      -6.13818383
Al       9.91854247       7.04062584       9.87848019      -0.00138073       0.00160776      -0.00044525      -4.31022882
Al       9.95594621       9.73460727       1.48092164       0.00482028       0.00303231       0.00303007      -3.99555313
Al       9.86214398       9.86955093       4.21105233       0.00331597       0.00301269      -0.00568274      -4.27883027
Al       9.92468512       9.71692032       7.04483007       0.00522808       0.00673590      -0.01731750      -4.45804347
Ni       8.46319786       8.36667379       8.38319539      -0.00112028      -0.00318884       0.00574368      -5.90377384
Al       9.93534298       9.75716169       9.74543923      -0.00682364       0.01023476       0.00306596      -4.19690331
