128
Lattice="12.070467123741144 0.275574265406674 0.07275611146127646 0.28387083027811405 12.792671844132615 0.35243865139421404 0.0708984966931743 0.3486205378059235 12.526372196316995" Properties=species:S:1:pos:R:3:forces:R:3:energies:R:1 energy=-585.880111021361 stress="-0.0015186375781291877 -0.00046518876454246716 -0.0002612366435448517 -0.00046518876454246716 5.7144578152219113e-05 0.00011972591358565432 -0.0002612366435448517 0.00011972591358565432 0.0013899514741655575" free_energy=-585.880111021361 pbc="T T T"
Al       0.19953222      -0.48698076      -0.14173515      -0.00085817       0.00243406      -0.00195196      -4.07152633
Al       1.27336375       1.99162814       1.18129590      -0.00332867      -0.00700617      -0.00614307      -4.45107143
Al       1.40035854       0.78774439       3.81607888      -0.00439599      -0.01316751       0.00869539      -4.12338543
Al       0.72297077       2.56937522       5.72752891      -0.00239942      -0.00605688       0.00356064      -4.19975291
Ni       0.62216427       0.14214114       6.30539171       0.00467963      -0.00495039      -0.00037706      -6.06712981
Al       1.60216263       1.20521462       8.35079884       0.00810940      -0.00501275       0.00901795      -4.38058221
Ni      -0.34724132      -0.24960941       8.72470970       0.01358851       0.00940930      -0.00756312      -5.85491188
Al       1.60554063       1.90865072      11.10646288      -0.00937404      -0.00018762       0.00252629      -4.39142106
Ni      -0.80049477       1.74379133      -0.03830814      -0.00197070      -0.00754769      -0.00902641      -5.90269408
Al       2.12729106       4.57610375       1.63912237      -0.00528522      -0.00802605       0.01898584      -4.21211523
Ni       0.90608079       3.14448164       3.29837706       0.00199346       0.01155884       0.00985400      -6.00179016
Al       2.27630216       4.99090425       4.34377682      -0.00256171       0.00116724      -0.01160538      -4.18025956
Ni      -1.08146818       3.77543468       6.86877433      -0.00245736       0.00094351       0.00088220      -5.79413329
Al       2.85246225       3.81873938       7.05583385       0.00815920      -0.00998625      -0.01081971      -4.27424528
Al       0.47301296       3.74315440       8.76339725      -0.00223405      -0.00373819      -0.00769016      -4.35871302
Al       1.68711046       4.79270521      11.08538635       0.01946813      -0.00139384       0.01428511      -4.23987599
Al       1.12702344       6.85261880       0.10844741       0.00434311       0.00443588      -0.00969483      -3.86796010
Al       2.07708737       8.77014755       2.37260817      -0.01057135       0.00653756      -0.00668385      -4.01289009
Al       0.19758301       6.64714362       2.65438062      -0.00468923      -0.00781486      -0.00253601      -4.05061151
Al       1.36371549       7.59520218       4.90631652      -0.00540471       0.00973638      -0.00187617      -4.32199052
Al       0.65464552       5.40962663       6.58338528       0.00869710       0.00482950       0.00325201      -4.20753552
Al       1.43000131       7.70206790       7.75515531       0.00794916      -0.02522662       0.01520276      -4.36006015
Al      -0.01194611       6.54806628       9.96235090       0.01406735       0.00242768       0.00297430      -3.87404069
Al       2.85354990       7.23709577      10.28980418      -0.00732200      -0.00240691      -0.01342994      -4.30662835
Al      -0.28156882       9.06791730       0.77848634       0.00277501       0.01153201      -0.00007511      -3.83775417
Al       2.29169199      11.73036968       2.25630133      -0.01288788      -0.01752404      -0.00560450      -4.19369946
Ni      -0.06534737       8.95358802       3.45750505       0.01404768      -0.00640923      -0.00506328      -6.01941198
Al       1.20124191      10.87855035       5.01451080      -0.01034480      -0.00847606       0.00305137      -4.49097047
Ni      -0.09686074       9.12654731       6.20698546      -0.01186062       0.00680571       0.00024125      -6.08848582
Al       1.60641696      10.76973704       7.81467711      -0.01179778       0.00592168      -0.01271576      -4.21757168
Al       0.87813228       9.14310344      10.61613796       0.01312343      -0.00778672       0.00200588      -3.81595562
Al       1.88435871      11.86344005      10.43443314       0.01412754       0.00512158      -0.00786346      -4.24643936
Ni       2.64198671      -0.33269004      -0.29393051       0.00744201      -0.00661866       0.01483469      -5.95756201
Al       5.05277045       2.76303993       1.17773170      -0.00662107       0.00420036       0.00474261      -4.36701909
Ni       3.33402104       1.04267918       1.82635720      -0.00758199       0.00465810      -0.00888515      -5.77716949
Al       5.26907809       1.82080626       5.26843236      -0.00277522      -0.00403302       0.00819393      -4.22531069
Al       3.00125246       0.47323195       6.13333081       0.00155212      -0.00887015      -0.00101324      -4.08584657
Al       4.62578172       2.08286245       8.18294196       0.00700952       0.00205400      -0.00660580      -4.32856381
Ni       3.53201751       0.62000999       9.85133150      -0.00555133       0.00450634      -0.01699189      -6.01899321
Al       4.88922443       2.23871998      10.97215606       0.01232349      -0.01273645       0.00258038      -4.20698017
Ni       3.08741778       3.06032567      -0.16465749       0.00034134       0.01564381       0.00707157      -5.82632036
Al       5.64316594       5.61403233       0.31999589      -0.00290612       0.00169993      -0.00697944      -4.19952614
Al       3.39973432       2.67765759       3.54284651      -0.01029739       0.00726431       0.00625906      -4.36344178
Al       5.41948519       6.14277036       5.63758331       0.00213358       0.00710681      -0.00299307      -4.14315736
Ni       4.39993129       4.04264770       5.25421053       0.00034111       0.00009807      -0.00287630      -5.63125430
Al       4.54125291       5.84150888       8.18390282       0.00426054      -0.01185918      -0.00196418      -4.18496021
Ni       2.77885262       3.10883603       9.43356020      -0.00237710       0.00408783       0.01028106      -6.05930476
Al       4.25810047       4.82650158      10.62026088      -0.00974020      -0.01249247       0.01155497      -4.42115928
Ni       3.24681697       5.72743204      -0.07457673       0.00037897       0.00770974       0.00193611      -5.87236709
Al       4.66718544       9.80383307       1.94596541      -0.00723746       0.00122250       0.00437490      -4.39924504
Al       3.93889615       6.68984173       2.21826918       0.00077674       0.00746324      -0.01055372      -4.15548846
Al       4.14188064       8.18972887       4.65917781       0.00186422      -0.01367399       0.00619046      -4.49838131
Ni       2.97582304       6.29961197       6.28135328       0.01439774       0.00623248       0.00075390      -6.10653414
Al       3.84286300       8.75718183       8.12609404       0.00094850      -0.00378075       0.00495817      -3.99802476
Ni       2.16084920       5.55035837       8.69835313      -0.00696044       0.01494370      -0.00843496      -6.08418866
Al       4.12899468       8.39501444      12.31392447       0.01305302       0.00185042       0.00131482      -4.29362016
Al       2.22411715      10.04590839       0.06225399       0.00074507      -0.00388252      -0.00285460      -3.96473368
Al       5.31923543      12.66287190       1.06417064       0.00602918       0.00404153       0.00696379      -4.34370149
Ni       3.23678956      10.21471537       3.92916106      -0.00573959       0.01751600      -0.00490885      -5.81523167
Al       4.25338451      12.36602836       3.94776493       0.00622410       0.00246201      -0.00007934      -4.38034647
Ni       2.51894393       9.18423978       6.21897395       0.01230847      -0.00163322      -0.00258743      -5.75218027
Al       4.13100971      11.41366321       8.84395201      -0.00086275       0.00445896      -0.00274716      -4.20982533
Ni       3.31115433       9.65561402      10.39888427       0.00994044      -0.00032770      -0.00671152      -6.11648741
Al       4.73273164      11.35192638      11.58851156       0.00038647      -0.00159220      -0.00804773      -4.30138419
Al       7.35663426      -0.04118843      -0.74564047      -0.00623448      -0.00963032      -0.01079787      -3.75479301
Al       7.56076991       1.60991284       1.55818383      -0.00052533       0.00089163      -0.00321064      -4.10404903
Ni       5.68120541       1.04945752       2.94048911      -0.01354579      -0.01101461       0.01467173      -6.05830635
Al       7.91647751       1.60463526       4.23044808      -0.01442379       0.01891561       0.00148737      -3.92735049
Ni       5.21741456      -0.07964386       7.04932045      -0.00763661      -0.00138617       0.00113416      -6.08714941
Al       7.29485111       1.25359255       7.08932171      -0.01317886       0.00025408      -0.00424802      -3.86691998
Al       5.97854463       0.09230272       9.43191373      -0.00747548       0.00789205       0.00818807      -3.91822204
Al       7.65794677       2.20741694       9.66482946       0.00349390      -0.00535148      -0.00173152      -3.68830094
Ni       7.11736461       3.95423354       1.30172282      -0.00977691       0.01515293       0.00609664      -5.75440079
Al       7.78395476       6.31025040       1.92144759       0.00906290       0.00079771      -0.00641244      -4.38446731
Al       5.88800260       4.59008087       3.37157345       0.00837462       0.00459405      -0.00148574      -4.20196844
Al       8.15891930       6.13879532       4.71627410       0.00335339      -0.00020441      -0.00628472      -4.17981648
Al       6.25747550       3.77155129       6.78629086      -0.00811527      -0.00281109      -0.01658429      -3.88262339
Al       7.76823345       5.44316791       8.09276204       0.01383596       0.01038456       0.00164309      -4.08041499
Ni       6.04892296       4.06691068       9.24902019       0.00062337      -0.00433827       0.01613869      -6.02297433
Al       7.17038814       4.17185342      11.41626651       0.00870857       0.01320647      -0.01746308      -4.08726189
Ni       5.95475219       7.85568211       1.19335785       0.00423495       0.01045661      -0.00992564      -5.70592108
Al       7.32760542       9.16256605       2.58667589      -0.00461495       0.01490528      -0.00548928      -4.38478458
Ni       6.08375949       7.11532504       3.57543221      -0.00264272       0.00257323       0.01827129      -5.99238629
Al       6.99460098       8.60964117       5.29244636      -0.00586695      -0.00973908      -0.00568370      -4.32020152
Al       6.28504445       7.85882127       7.74449833       0.00882177      -0.00020099      -0.00802237      -3.83345049
Al       8.46956547       8.24331740       9.12730197      -0.00514295      -0.00032121      -0.00560476      -4.11047402
Al       6.47077752       6.51856678      10.18312501      -0.00945659      -0.00350948       0.00243975      -3.81855394
Al       7.61808097       8.30650573      12.04296860      -0.00436032      -0.00152971       0.00164507      -4.00369854
Ni       6.65570659      10.53574054       0.56243733       0.00130310       0.01893266      -0.00892590      -6.07380021
Al       7.37450607      11.83878733       2.65101572       0.00382935      -0.00741497      -0.00299868      -4.41867927
Ni       5.70982694      10.25775914       4.13598126      -0.00351221       0.00212618      -0.00470373      -5.99256020
Al       6.55218654      12.15228916       5.30743548      -0.01139643       0.00343305       0.00545452      -4.29316942
Al       4.45129799      10.65018589       6.19154661      -0.00211105      -0.00944799      -0.00737389      -4.35905689
Al       7.07904262      10.90445937       8.09950721       0.00732531      -0.01162078      -0.01081767      -4.04728586
Al       5.68353176       9.16116017      10.03434411       0.01020160      -0.01091176       0.01118520      -3.84781931
Al       7.74779625      10.75874710      10.78013057       0.00908952       0.00306579       0.00187644      -4.06706018
Al       9.67807384       0.26102900       0.55713772       0.00515433      -0.00351565       0.01382279      -3.94333416
Al      10.84300285       1.88677352       2.48725491      -0.00215335       0.00992973       0.00133201      -4.20210862
Ni       9.37406234      -0.07444890       3.07372719      -0.01046168       0.00775981       0.00949528      -6.05575848
Al      10.94727703       0.56572559       4.75674487      -0.00440537      -0.00165328       0.01110679      -4.07128907
Al       8.73771531      -0.46290075       5.73624244       0.01470838      -0.00963418      -0.00491756      -3.80282520
Al      10.79820683       1.70710736       7.34057695       0.00119396      -0.00946179      -0.00281819      -4.30230989
Al       9.06516751       0.05511920       8.77494262      -0.01024394      -0.00914682      -0.00946372      -4.00936609
Al      10.75229258       1.62907935      10.38084515       0.00012926       0.00128490       0.00963838      -4.08181383
Al       9.25974722       3.33905638       0.36626871       0.01803049       0.00018649      -0.00544960      -3.97471084
Al      11.40014809       4.42469959       1.75597105       0.00854748       0.00001994       0.01060270      -4.11038554
Al       8.78720897       3.96700339       3.08870932      -0.01111929       0.00130386       0.00311866      -4.06697250
Al      11.14783090       4.65467136       4.54846345       0.00020807       0.00199617      -0.00322652      -4.25202536
Al       8.85131682       3.47102074       5.97261385       0.00725854       0.00103199      -0.01031210      -3.85523344
Al      10.34473668       6.25973297       7.88457328      -0.00749908      -0.00893722       0.01054028      -4.02314611
Al       9.76010900       3.82630127       9.04221183       0.00471804      -0.00420201       0.00630974      -3.74674612
Al      11.22761928       4.43783641      11.27234214      -0.00458826      -0.00946617       0.01931535      -3.79562924
Al      10.32319832       6.62779167       0.54884726       0.00507279      -0.00066424       0.00476140      -3.83185171
Al       9.87510060       8.55198051       2.67176339      -0.01422606      -0.00410758      -0.00699935      -4.01115659
Ni       9.99073681       6.12643385       3.01430422      -0.00858051      -0.01020784      -0.00020190      -6.00776366
Al      10.58450134       7.50975291       5.21412211      -0.00303694      -0.00088681      -0.01425710      -4.23896117
Ni       8.49434529       7.34844510       6.78409610       0.00020071      -0.01287369       0.00995516      -5.81018085
Al      11.18564089       8.91906309       8.57416118       0.00330406      -0.00130333      -0.00468230      -4.00151664
Al       9.25026955       6.15600593      10.68905839      -0.01126918       0.00583842       0.00572253      -3.64448768
Al      10.18533201       8.90562055      11.15992927       0.00264845       0.01885153      -0.00650218      -3.86024342
Al       9.15007226      10.39576188       0.63326919       0.01537263       0.01128268      -0.00026576      -3.82290002
Al      11.66828943      11.53854746       2.56081315      -0.00130931       0.00314671      -0.01214041      -3.92937288
Ni       8.17649098      10.56613733       4.54314899       0.00113744      -0.00011880      -0.00020415      -5.77322512
Al      10.52392951      10.61436552       4.66435983      -0.03466647      -0.00170390       0.04112212      -4.24824430
Al       9.19391847       9.60121156       6.72159756       0.01030228       0.01056433       0.00871735      -4.26568871
Al      11.13548589      11.47612678       7.37425000      -0.00056965      -0.00455837      -0.00835973      -4.33267582
Ni       9.43756893      10.45810653       9.12582544       0.00312360       0.00151496       0.00397976      -6.02452413
Al      11.01503761      11.44888173      10.92048633       0.00158599       0.00171768      -0.00279915      -4.01182062
