80
Lattice="10.90819161373351 -0.2840805412662505 0.6435204084532745 -0.2847104250456875 10.701454263260613 0.1457383255436362 0.6435978670120158 0.1314057535827501 10.918078125797349" Properties=species:S:1:pos:R:3:forces:R:3:energies:R:1 energy=-352.40567116010556 stress="-0.00020262035750797942 -0.00014062643843331264 3.580524929411701e-05 -0.00014062643843331264 0.00024963164859353033 0.0003301309704666915 3.580524929411701e-05 0.0003301309704666915 0.0003080969068893638" free_energy=-352.40567116010556 pbc="T T T"
Ni       0.09283556       0.24270100      -0.28163689      -0.00560363      -0.00695506      -0.00215746      -5.99659927
Al       1.83390980       1.55077596       0.84973028       0.00093491       0.00058371       0.00247749      -3.83253874
Al       2.03036714       0.92437420       3.47397004       0.00038881      -0.00295636      -0.00343817      -3.88327453
Ni       0.44787645      -0.00242630       5.20654317       0.01559458       0.01309901       0.00551600      -5.87437751
Al       1.80099921       1.55674267       6.29456374      -0.01329566      -0.01231759      -0.00405332      -4.10154523
Ni       0.52274973       0.12951761       7.85682870       0.00175891       0.00055582       0.00048531      -6.18903823
Al       2.09119956       1.67763678       9.01907269       0.00061001      -0.00093739      -0.00184177      -4.12882676
Al       2.32678564       4.01658945       1.92833885       0.00080498      -0.00093019      -0.00360595      -3.60339986
Al       1.75584587       3.69115979       4.60526521      -0.00281864       0.00352400       0.00006267      -3.62317238
Al       0.68665494       3.91206796       7.52598458       0.00540760       0.00175839      -0.00348127      -3.90480021
Al       1.29817046       4.07242205      10.46385874       0.00530460      -0.00040051       0.00073452      -3.89267600
Al       1.28598363       6.56364762       1.49096380       0.00691679      -0.00237254      -0.00351909      -4.07331678
Al       0.76177184       6.21471006       4.21410092      -0.00286469      -0.00527389       0.00337180      -3.85729961
Al       1.75047963       6.41550966       6.73180249      -0.00267880      -0.00128952      -0.00020246      -4.14146102
Al       1.37314134       6.69841326       9.77273077      -0.00220254       0.00117510      -0.00003646      -4.25556731
Al       1.11469753       9.42186777       1.32038847      -0.00723599       0.00111676      -0.00033150      -4.12168033
Ni      -0.31926973       7.88110604       2.69677020      -0.00706341       0.00488225       0.00710138      -5.81730851
Al       1.33691671       8.95071894       4.05423092      -0.00377091       0.00086707       0.00163745      -3.95747676
Al       1.78310991       9.40076726       6.70791126      -0.00049872      -0.00248053       0.00852604      -4.34618765
Ni       0.35479308       8.01331022       8.06131340       0.00369133      -0.00440662       0.00000235      -6.00462248
Al       1.80985771       9.53164141       9.48778957      -0.00546239       0.00373342      -0.00442871      -4.56415877
Al       4.49577311       1.41108879       1.93304932      -0.00211451       0.00039062      -0.00450312      -3.89626714
Al       4.30636619       1.63145522       4.57832689       0.00540310      -0.00050914       0.00352438      -4.13352836
Al       4.25854768       0.87948112       7.48194811       0.00512848       0.00113636       0.00123723      -4.01208308
Al       4.56261700       1.06159055      10.15261158       0.00033939       0.00371307      -0.00095973      -3.61326781
Al       5.02748493       4.02694121       1.36944096       0.00304554      -0.00115765       0.00137529      -4.07545474
Al       4.41808523       4.36163299       4.62794697       0.00045931       0.00297757       0.00133070      -4.18217435
Al       3.48102070       3.46497979       6.97712695      -0.00227622       0.00395765       0.00106532      -4.13035705
Al       4.02294538       3.65858985      10.10727695      -0.00129474      -0.00558099       0.00213460      -3.91623846
Al       3.97747086       6.61726273       1.47134590       0.00022138       0.00065900      -0.00209845      -4.24279969
Al       3.48301276       6.95133623       4.31011254      -0.00189819      -0.00015506      -0.00162791      -4.01558890
Al       4.43019648       6.10777413       6.98928116       0.00664668       0.00291477      -0.00134110      -3.98789513
Ni       2.68633340       5.01899096       8.56677458      -0.00341613      -0.00082188       0.01022367      -5.95992741
Al       4.40892041       6.34888157       9.71589874       0.00271227       0.00625306       0.00519765      -4.12085838
Ni       2.56826583       7.93772707      -0.02455673      -0.00269681      -0.00157926      -0.00304053      -5.89358195
Al       3.95268520       9.41275560       1.27505559      -0.00989533      -0.00432428       0.00412907      -4.06387592
Al       3.97658035       9.78627182       4.10445426       0.00413921       0.00079753      -0.00075380      -4.05516925
Al       4.41214980       8.73657503       6.59130675       0.00399807       0.00473960      -0.00155969      -4.14652169
Ni       2.99828792       7.75200788       8.29124597      -0.00197575       0.00015949       0.00086662      -6.06154529
Al       4.70207529       9.19751212       9.35394741      -0.00075021       0.00576265       0.00691453      -4.06619843
Al       7.29136611       1.97391106       1.65755519       0.00130256      -0.00166379       0.00104030      -4.29465019
Al       7.30408547       1.34564298       4.63579261       0.00056707       0.00192113       0.00339440      -4.37617181
Ni       5.77035202       0.08546955       5.87993822      -0.01173444       0.00539504       0.00959308      -5.87181932
Al       7.13619180       1.45447169       7.65306556       0.00355609      -0.00475237      -0.00023302      -4.24434885
Al       7.00757199       0.20894738      10.31625295       0.00120169      -0.00518293      -0.01076904      -4.06152038
Al       7.66046325       4.72591612       2.48532125       0.00014402       0.00451086      -0.00224842      -4.29681383
Ni       6.03272480       3.07991943       3.38492113      -0.00170826      -0.00350252       0.00765860      -6.05959397
Al       7.27601152       4.17107843       5.24762031      -0.00322250       0.00182286       0.00048508      -4.20225345
Ni       5.66345308       2.62549635       6.14128299       0.00072286      -0.00222831      -0.00192600      -5.95786421
Al       6.09545623       4.15658939       7.90071101       0.00006670       0.00284491      -0.00073912      -3.87398514
Al       6.73669040       2.88182191      10.15639825       0.00569771      -0.00001659       0.00373874      -3.65901703
Al       6.85500318       7.12342659       1.45424178      -0.00165193       0.00237575       0.00071363      -3.99470151
Ni       5.51786339       5.64873486       3.00099527      -0.00268197       0.00555743       0.00007348      -5.83298853
Al       6.22778631       6.77013555       4.97162611       0.00067636      -0.00042287       0.00309297      -3.98781059
Al       7.33811808       6.54586975       7.47916782       0.00110632      -0.00172145      -0.00710210      -3.74008669
Al       6.97450441       5.56358726      10.12592470      -0.00045422      -0.00107043      -0.00583899      -3.68139115
Al       6.51268866       9.91054681       2.06432237      -0.01157938      -0.00352261       0.00584621      -4.06066425
Ni       5.25592861       8.10853960       2.98366861       0.00205938       0.00405655       0.00037484      -5.90987770
Al       6.75926890       9.31047061       4.61149439      -0.00247840      -0.00387495      -0.00363108      -3.86522268
Al       6.99501333       9.42784812       7.33227084      -0.00851482      -0.00017142      -0.00408197      -4.07161209
Al       7.31559207       8.25466466       9.73003841       0.00352251       0.00482676      -0.00296133      -3.75356795
Ni       8.47348070       0.14206267       0.53188989       0.00329068      -0.00008524       0.00058065      -5.72703749
Al       9.94712869       1.70516039       1.70764258      -0.00147621      -0.00023486       0.00242106      -4.22303005
Al      10.30362754       1.35358601       4.45174681       0.00458850      -0.00287436      -0.00173270      -4.09608040
Al       9.88500281       1.28426036       7.14098475       0.00374141      -0.00152639      -0.00903578      -4.14774741
Ni       8.72581580      -0.12005886       8.74396452       0.00398621      -0.00499525      -0.00149221      -5.95062846
Al      10.15567635       1.63207702       9.80511877       0.00115380       0.00321929      -0.00228226      -4.32557034
Al      10.54896133       4.19494534       2.85427444      -0.00104671      -0.00255074      -0.00504642      -3.98091952
Ni       8.71352136       2.87855666       3.56954327      -0.00263884       0.00394061      -0.00235267      -5.88668333
Al       9.93780970       3.82087561       5.65502968       0.00297136      -0.00496128      -0.00146095      -3.83941495
Al       8.81165243       4.00548099       8.29142989      -0.00065726      -0.00345893       0.00765652      -3.68922706
Al       9.42540172       4.08283130      10.94860792       0.00863926       0.00102733       0.00034485      -3.68493254
Al       9.49283138       6.43496009       1.51643729       0.00808059       0.00008053       0.00025972      -3.90917347
Al       8.92941063       6.42618281       4.68438480       0.00173532       0.00278498       0.00956044      -3.83448425
Al      10.02940629       6.18609707       7.14949351       0.00421112      -0.00119865       0.00130755      -3.80016350
Al       9.47905543       6.51392584       9.79006775      -0.00474900       0.00076056      -0.00540191      -3.93495992
Al       9.27211628       9.21797632       2.06197192       0.00375947      -0.00840715       0.00462633      -4.21279738
Al       9.42041680       9.18597623       4.77368635       0.00236966       0.00190220      -0.00909431      -3.86454915
Al       9.66696522       8.99464513       7.44456787      -0.00583130      -0.00122077      -0.00682227      -4.28442533
Al       9.90695388       9.17189894      10.25664374      -0.00241811       0.00230865      -0.00344946      -4.47522432
