94
Lattice="10.259944515150037 -0.09565314980092077 0.18167101447421105 -0.09129480982256635 10.15301883521282 0.2629417353320664 0.1814155082715321 0.26252950643415895 10.731397069445531" Properties=species:S:1:pos:R:3:forces:R:3:energies:R:1 energy=-517.4853633989278 stress="-0.0010173594111363123 -0.0011657658717693835 0.0021634192806596494 -0.0011657658717693835 -0.00024721531761991036 -0.0017384023681285823 0.0021634192806596494 -0.0017384023681285823 -0.001438183826628666" free_energy=-517.4853633989278 pbc="T T T"
Ni       0.66697779      -0.23109487       1.12475735      -0.02975756       0.01370043       0.03510961      -5.71260558
Ni      -0.73429381       1.78509390       1.82309932      -0.02710972       0.04075845       0.00518480      -5.68510299
Al       1.24518163       2.27129495       3.18871422      -0.00595454      -0.04502675      -0.02600551      -4.92352001
Ni       0.69032071       1.70784312       5.37877126       0.05236954      -0.03053024      -0.01315826      -5.74723720
Al       1.81922942       0.80364592       7.29967641       0.00197372      -0.00209954      -0.01442840      -4.69735835
Ni      -0.05084152      -0.12661043       8.66244257       0.02994809       0.01972793      -0.00566394      -5.75345358
Al      -0.38136131       1.54951003      10.24832143      -0.01030651      -0.01129015      -0.01701722      -4.98119707
Ni      -2.75642946       1.74730371       0.36738186      -0.01258632       0.02342525       0.06533052      -5.72857114
Al       0.05173996       4.05620205       1.43583127       0.00768070      -0.02830489      -0.01642223      -4.89873969
Ni      -0.91338966       3.26232077       3.67030909       0.00718135       0.00618201      -0.02497786      -5.81055402
Al       0.56812144       4.10795198       5.45824434       0.03169674      -0.03457495       0.02874724      -5.01201000
Ni      -1.43847497       3.00322065       6.05924574      -0.01764212      -0.02316384       0.01322909      -5.64076728
Ni       0.21274149       2.42850885       7.87966952       0.02042237      -0.01393964      -0.00405368      -5.89909736
Al       2.04632090       3.32176384       9.40300813      -0.01649461       0.02000916      -0.04660555      -5.05742970
Ni      -0.65641199       3.70046937      -0.93989423       0.00761690       0.00408651       0.00060021      -5.80358717
Al       0.80388447       6.53627824       1.52753746       0.02713037       0.03453031       0.04652799      -4.72947371
Ni      -1.25463020       5.77613140       2.64227386       0.01102499       0.03966204       0.03128608      -5.79690188
Al       0.59411776       6.70775011       4.21600658       0.01235487      -0.03580373      -0.00080429      -5.04452053
Ni      -0.01793509       6.56603850       6.48782852       0.05453763       0.01262785      -0.03784161      -5.60833636
Ni       0.84304887       4.80376788       7.81585882      -0.01373930      -0.00436473       0.01436695      -5.67968640
Al       1.32432506       5.96649609       9.77951773      -0.01821019      -0.01199128      -0.06344994      -4.87697858
Ni      -1.20792100       5.87301892       0.16079775      -0.01700508      -0.02137542      -0.00612475      -5.90997048
Ni      -0.54159562       8.17986531       2.66187227       0.01832391       0.02192405      -0.00238254      -5.73988581
Al       0.92713077       9.73456353       4.05611507      -0.04423523       0.00446986      -0.02781658      -4.99247512
Ni       0.73872399       8.97290568       6.91629286       0.00020459       0.00056950      -0.01303770      -5.75855582
Ni      -0.28975367       7.37922494       8.79216530       0.03068316       0.00519921      -0.02516260      -5.75990943
Al       1.75909638       8.72112623       9.50404277      -0.00427850      -0.03749310      -0.00927056      -4.88946327
Ni       1.82210385       0.59972440      -0.90399611      -0.01645858      -0.00435712       0.03598400      -5.87504845
Ni       2.70173850       0.62956002       2.13275205      -0.01926948       0.06930431      -0.04012153      -5.76550988
Al       4.85093972       1.80391947       3.95305293      -0.00211712      -0.01327772       0.02202053      -5.08610401
Ni       2.91468783       0.55807128       5.05053281      -0.02921406      -0.02084489      -0.03171342      -5.88937507
Ni       3.48174408      -0.94568216       7.27321090       0.02117651      -0.01961422       0.01801659      -5.99144755
Al       4.01088828       1.10461697       8.65198925       0.02940863      -0.01295917      -0.00932082      -4.65771895
Ni       1.42812019       2.22467882       0.81859304      -0.02336521      -0.03626455       0.06868737      -5.76909183
Ni       3.40565153       2.99099023       2.31321544      -0.03350703      -0.07829273      -0.03473921      -5.75835415
Ni       2.81884393       3.05429722       4.76686669       0.00308271      -0.02465662       0.03747277      -5.81146847
Al       4.36070757       4.22318138       6.28218385      -0.00700202       0.01674901      -0.04563608      -4.73405160
Ni       2.48999385       3.03491266       7.10753329       0.00028175      -0.03326421       0.00070962      -5.79278261
Al       4.59675617       5.03623175      10.24313991      -0.00654754      -0.03371131       0.05222815      -5.00005848
Ni       2.29757481       4.51432620       0.71885096      -0.00133266      -0.02502383      -0.01527373      -5.85991527
Ni       1.85257920       4.78497593       3.18945436       0.00740044       0.00970202      -0.03536516      -5.94971756
Al       3.51913986       6.49688331       3.80491577       0.02395715      -0.01701827      -0.00414730      -4.95938488
Ni       2.33101488       5.55945155       5.73860885       0.03033640       0.00455557       0.01113399      -5.94268444
Al       4.20053363       6.88164835       6.52023671      -0.04066431       0.01307554       0.00634640      -4.84011782
Ni       3.26457929       5.18276390       8.23346689       0.01107281      -0.04974964      -0.01055466      -5.94979037
Ni       2.90737893       6.94677154       0.45921817      -0.02400472      -0.00478695      -0.00627465      -5.82605874
Al       3.65052637       9.34955453       0.70777548      -0.01228101      -0.03325578      -0.03346935      -5.09559713
Ni       2.14994175       8.20889264       2.54842472      -0.05641019       0.01690903      -0.03018975      -5.85517432
Al       3.94080582       9.32062073       3.59622549       0.02045462       0.03124247       0.03228464      -4.75769909
Ni       2.45640576       8.16075751       5.30746143      -0.00316926      -0.01686268       0.00759560      -5.97695422
Al       5.02806893       9.75435764       5.89776233       0.00715510       0.00792058       0.00930044      -4.76636211
Ni       2.00510170       7.12346229       7.70095451       0.02522799       0.00432935      -0.01822795      -5.79962378
Al       4.08006196       7.37373601       9.01231426       0.03042596       0.02833004      -0.05237746      -4.78419723
Ni       6.21189906      -0.77606681       0.72336175      -0.03610989       0.01896408       0.01271767      -5.57440021
Ni       5.09368814       1.00728206       1.70359343       0.01099583      -0.03817746      -0.02130285      -5.76642346
Ni       6.95918298       1.45799837       5.35154324      -0.00815023       0.02715583      -0.02211650      -5.94070341
Al       6.67027395       0.49599067       7.60941815      -0.02684705       0.01611211       0.00257325      -4.99338525
Ni       5.43406477      -0.74651136       9.21147604       0.03911546      -0.01889075       0.02983260      -5.64083322
Ni       3.74993219       2.24597546       0.03223159      -0.04595312       0.03232030       0.01383276      -5.78083151
Al       5.68119396       3.31407802       1.64332677      -0.00336547      -0.00908593       0.02123637      -5.14703492
Ni       4.66664283       4.30685909       3.90565092       0.03144611       0.05835008       0.06033453      -5.80068786
Al       7.09049783       3.70293102       4.23366698       0.00060436       0.05113156       0.01969938      -4.94178204
Ni       4.62385620       1.82636983       6.43280207      -0.00998988      -0.02384343       0.00626826      -5.95645304
Al       6.71600040       3.38632405       7.06514167       0.04873448       0.04175098       0.00613428      -4.92729879
Ni       4.84533992       3.32693874       8.54400210      -0.01937403       0.00608906       0.01611944      -5.73213012
Al       7.22285122       3.90893878       9.80989438      -0.00628191       0.02282222      -0.03005385      -4.95548942
Ni       6.59751896       5.33195872       0.62312891      -0.00035193       0.04636877      -0.02528686      -5.68854418
Ni       4.30748006       5.40610736       1.79025384      -0.02635890       0.00552241      -0.08674941      -5.68164004
Ni       6.20118311       5.53350939       5.54637802       0.01551438      -0.02129535      -0.03331199      -5.79003999
Al       7.81091045       6.88774342       6.60846137      -0.00339697       0.00863480       0.03595053      -4.88968407
Ni       5.88583742       5.60369475       8.11127844      -0.02762249      -0.00890688       0.05672459      -6.13312024
Al       7.49197728       7.06983986       9.48657068      -0.02214172       0.03786284       0.04110010      -5.08331487
Ni       5.32951444       7.19751217       0.09883530       0.01096768      -0.06131745       0.06756312      -5.68368351
Ni       5.05932388       7.68677572       2.37184228       0.03690708      -0.01620215       0.00642352      -5.68631019
Ni       5.49488523       7.70984890       4.76471327      -0.03551038       0.02332381      -0.02076754      -5.81916975
Ni       5.94471701       8.12215827       7.53480144       0.06527411       0.00375629       0.00902178      -5.89438272
Ni       8.35334353      -0.35160776       1.70347739       0.00409022       0.02339644      -0.02952108      -5.60923840
Ni       6.43619669      -0.49852593       3.29006014      -0.01565433      -0.00593617       0.04679268      -5.77683022
Ni       7.40262901      -0.91708574       5.50193282       0.05073985      -0.00397190       0.00015217      -5.73590716
Al       9.20263083       0.52891943       6.59173057      -0.01332003      -0.02273155       0.00330926      -5.05538541
Ni       7.89501983      -0.12904874       9.70672536       0.03950033       0.01705635       0.00253886      -5.73086297
Ni       5.81382624       1.27432003      -0.92298365      -0.04487577       0.02863814      -0.04634068      -5.67997037
Ni       7.21920069       1.73327640       2.90867671      -0.01614464       0.01760817       0.00809095      -5.75861714
Ni       9.00818408       0.49606273       4.08933826       0.00653948      -0.00677540      -0.00925376      -5.67942907
Ni       8.19817656       2.11654313       8.63219607       0.00332968      -0.01187278      -0.00144392      -5.83768512
Ni       8.01760476       3.75144984       1.68701549       0.01572074       0.00481819       0.06098576      -5.80092734
Ni       6.46067316       5.66533656       3.01430745       0.01534493       0.03809890       0.05220936      -5.68570227
Ni       8.71549899       5.24980260       5.18548232      -0.02679349      -0.04968116       0.00707242      -5.70440333
Ni       8.59263861       4.84469692       7.91460945       0.00954514       0.04149889       0.00124658      -5.67630130
Ni       7.48832906       7.41438960       1.57900318      -0.01763549      -0.00043006      -0.01576567      -5.64311153
Ni       7.74059749       7.41639622       4.07543653       0.02366069      -0.01209626       0.01644167      -5.56732223
Ni       9.49645028       8.39859698       5.36876872      -0.01493904       0.01996094      -0.01120146      -5.75091207
Ni       8.38070517       8.74420240       7.93064940      -0.04214070      -0.01513237      -0.03267002      -5.70233023
Al       9.48447300       8.56577246      11.05959453       0.00446075       0.01001339      -0.03911456      -4.95140787
