231
Lattice="14.328716621633852 -0.003163146520695611 -0.0014256913999549775 -0.003163185251504096 14.32353220118677 -0.0008678472085736722 -0.0014257044141572973 -0.0008678307471086521 14.319981520116547" Properties=species:S:1:pos:R:3:forces:R:3:energies:R:1 energy=-1225.6822528312566 stress="-0.0005153428103232697 0.0003612931085332072 0.00012483118498106708 0.0003612931085332072 0.00011835400138798979 9.519752133048435e-05 0.00012483118498106708 9.519752133048435e-05 0.0005737935458699831" free_energy=-1225.6822528312566 pbc="T T T"
Al       1.40534825       1.39807405       1.42070649      -0.00160156       0.00500391      -0.00510284      -4.59711522
Ni       0.01746441      -0.00767807       2.91287168       0.00274938      -0.00340770      -0.00308886      -6.14154142
Al       1.44133138       1.43885217       4.29541313       0.00226172       0.00201622       0.00049658      -4.64841353
Ni       0.01471930      -0.01856489       5.69921058      -0.00030840       0.01049145       0.00866243      -6.20477609
Al       1.41820976       1.40912079       7.16125563      -0.00230174       0.00355536       0.00024963      -4.63781123
Ni      -0.07604317       0.01573381       8.61743180       0.00362031      -0.00106185      -0.00038628      -6.26511795
Al       1.40767364       1.43532478      10.03715722       0.00237724      -0.00211069       0.00217255      -4.58631941
Ni       0.00779996      -0.05644979      11.43832454      -0.00177436      -0.00262998      -0.00697557      -6.04705377
Al       1.33226462       1.41860638      12.87968699      -0.00565054      -0.00104793      -0.00652185      -4.49194438
Ni       0.00900863       2.87707263       0.04802671       0.00748700       0.00309173       0.00043857      -6.03977908
Al       1.43643440       4.29574335       1.45527993      -0.00013622      -0.00027829       0.00100999      -4.66413946
Ni      -0.07245644       2.81158717       2.82821974       0.00297334       0.00196196      -0.00272335      -6.26759241
Al       1.41615035       4.27782529       4.26942144      -0.00160316      -0.00118155      -0.00330984      -4.64700595
Ni      -0.05080116       2.85378223       5.72760088      -0.00267818      -0.00223849       0.00077342      -6.26356264
Al       1.41706908       4.29239557       7.15393491      -0.00394026      -0.00258094      -0.00330618      -4.62473570
Ni      -0.03727195       2.83449142       8.54558660       0.00315336       0.00087257       0.00400781      -6.20718840
Al       1.38225428       4.24807741      10.04331072       0.00855158      -0.00112994       0.00697309      -4.55213718
Al       1.39570654       4.27409279      12.87347471       0.00502485       0.00177025      -0.00752839      -4.56879996
Ni      -0.01690823       5.69653808      -0.00315411       0.00353397       0.00566521       0.00006404      -6.26060339
Al       1.45436484       7.18124032       1.45101393       0.00114079       0.00137957       0.00432115      -4.56358807
Ni      -0.00691559       5.76110977       2.86829709      -0.00106919      -0.00344506      -0.00483999      -6.25819414
Al       1.48937569       7.19679763       4.26082611      -0.00258356       0.00059454      -0.00368252      -4.53641083
Ni       0.04789698       5.74620687       5.71581106      -0.00598067      -0.00026225       0.00198144      -6.20352290
Al       1.44567840       7.17187056       7.17518746       0.00366579      -0.00058625      -0.00197690      -4.63768120
Ni      -0.01582838       5.72616177       8.59758910       0.00357542       0.00026161      -0.00011632      -6.25799310
Al       1.43934620       7.19503486      10.04121888      -0.00080566      -0.00238853       0.00179799      -4.65249170
Ni      -0.00386023       5.75414720      11.45682447       0.00249566       0.00159465      -0.00067660      -6.20444722
Al       1.41784404       7.18027272      12.87565974       0.00284350      -0.00372735       0.00060474      -4.65699462
Ni       0.02537847       8.63671488       0.01378801      -0.00028320      -0.00602459       0.00140418      -6.25878412
Al       1.48784911      10.02898898       1.43291947       0.00345675       0.00194635      -0.00215151      -4.44596248
Ni      -0.02372386       8.58937492       2.86300233      -0.00373823      -0.00222546      -0.00564460      -6.20502689
Al       1.45245165      10.01097275       4.27349382       0.00094373       0.00202264      -0.00053458      -4.56118419
Ni       0.00802360       8.57432635       5.70988867      -0.00453633      -0.00200314       0.00055893      -6.25906438
Al       1.41306189      10.03709133       7.16901092       0.00180797      -0.00111589      -0.00202421      -4.63933400
Ni      -0.02321483       8.59985577       8.60260047       0.00435495      -0.00306013      -0.00235280      -6.24419609
Al       1.40678515      10.03525882      10.03684351       0.00090235      -0.00147460      -0.00411113      -4.64190139
Ni      -0.03999499       8.64272554      11.46677134       0.00350447      -0.00217198       0.00132058      -6.25165699
Al       1.46202553      10.07465724      12.91995930       0.00360556      -0.00261321       0.00166117      -4.59863400
Ni      -0.05767343      11.43505772       0.01725868       0.00282077      -0.00535028      -0.00269834      -6.15615025
Al       1.43136688      12.90025052       1.36316182       0.00163647      -0.00244167      -0.00745989      -4.47471846
Ni       0.03425957      11.47918841       2.82012312      -0.00241432       0.00231525      -0.00034933      -6.27478639
Al       1.46567856      12.88336286       4.30473245      -0.00055438       0.00173163      -0.00275278      -4.64725983
Ni      -0.00820052      11.47950334       5.72187158      -0.01264027       0.00102821       0.00515225      -6.25728835
Al       1.42808957      12.89428718       7.17381685      -0.00180406       0.00095449       0.00113867      -4.65402283
Ni      -0.05191439      11.47345080       8.60404082       0.00257028      -0.00030077       0.00356523      -6.25803081
Al       1.42875655      12.90643669      10.00515060      -0.00589556       0.00031377       0.00719674      -4.65511507
Ni       0.01877954      11.50623688      11.50111980       0.00755493      -0.00163201      -0.00534619      -6.22014923
Al       1.44867030      12.87484145      12.96575784      -0.00282250      -0.00184781       0.00109934      -4.47194293
Ni       2.89597429       0.03893656      -0.03136542      -0.00011760      -0.00128220      -0.00003277      -6.14045173
Al       4.30970686       1.44255059       1.39803149      -0.00620498      -0.00242688      -0.00809626      -4.65416847
Ni       2.86721596      -0.00753295       2.83245988      -0.00454508      -0.00407673       0.00005196      -6.26247139
Al       4.32634096       1.44521947       4.32938834      -0.00138842       0.00244901       0.00135149      -4.54163595
Ni       2.90589468       0.00615828       5.75516406      -0.00137138       0.00215717      -0.00356828      -6.25412609
Al       4.35140426       1.48372984       7.14565747       0.00522656       0.00775968       0.00293681      -4.54153578
Ni       2.90473500      -0.00169123       8.58021419       0.00602525      -0.00372719       0.00247071      -6.25827969
Al       4.29293885       1.44304582      10.03835720       0.00370040      -0.00018528      -0.00660871      -4.64951453
Ni       2.84204723      -0.01417121      11.50645847      -0.00026893      -0.00545440      -0.00620272      -6.27844184
Al       4.32171050       1.44724507      12.86813910      -0.00519882      -0.00407329       0.01461443      -4.65525709
Ni       2.80503645       2.83398980      -0.03369033       0.00604604       0.00031553      -0.00042070      -6.25897369
Al       4.29316958       4.27823422       1.39126300       0.00209790      -0.00435858       0.00003527      -4.64813515
Ni       2.90217514       2.85838595       2.87792355      -0.00525541      -0.00076296       0.00324013      -6.25197083
Al       4.35138965       4.27086053       4.33960155      -0.00136692      -0.00329842      -0.00041396      -4.53930483
Ni       2.83793701       2.86940446       5.73425460      -0.00059540       0.00206367      -0.00161987      -6.19843519
Al       4.33467276       4.28390478       7.13972875       0.00079061      -0.00294124      -0.00466292      -4.55847660
Ni       2.85733724       2.85954345       8.58433775       0.00351758      -0.00157039      -0.00373378      -6.25835205
Al       4.28301837       4.29524521      10.02726992      -0.00464512       0.00210262      -0.00013370      -4.63085631
Ni       2.87139145       2.85357701      11.46552058      -0.00172602       0.00273789       0.00460226      -6.20042177
Al       4.28721591       4.30042724      12.89770007      -0.00325441      -0.00159700      -0.00077713      -4.65618553
Ni       2.86822340       5.76916999       0.00336439       0.00480718       0.00330320       0.00515745      -6.26712383
Al       4.32594046       7.20799871       1.41876442      -0.00384449       0.00879167       0.00269186      -4.30194570
Ni       2.91502836       5.70693337       2.86346757      -0.00289905      -0.00329121       0.00199352      -6.20506457
Al       4.30421444       7.19713604       4.27117313       0.00138184       0.00536341       0.00379732      -4.44849741
Ni       2.88186904       5.72229285       5.70627682      -0.00175642      -0.00539235       0.00190848      -6.26319197
Al       4.29320526       7.14404961       7.19023093      -0.00006404       0.00048749      -0.00232201      -4.65078396
Ni       2.84587455       5.70743191       8.60501726       0.00359453       0.00213283      -0.00234888      -6.24734071
Al       4.27881791       7.14738807      10.03017088       0.00269137      -0.00055338      -0.00598997      -4.65803967
Ni       2.83322832       5.70864095      11.46033499      -0.00203845       0.00023291       0.00431437      -6.25250963
Al       4.33513984       7.17019345      12.89153410      -0.00455015       0.00113899       0.00688100      -4.58063845
Ni       2.86134411       8.56320052      -0.03907701      -0.00460261      -0.00321500       0.00394022      -6.04496321
Al       4.24371321      10.01042783       1.36536355      -0.01174902      -0.00446050      -0.00266491      -4.20054936
Al       4.29546214       9.98037816       4.24498678       0.00284233      -0.00497154      -0.00037040      -4.45722639
Ni       2.89524996       8.61335163       5.76287532       0.00702552       0.00137245      -0.00543925      -6.20907247
Al       4.34909037      10.05945621       7.22326256      -0.00239715       0.00063702       0.00198861      -4.54491228
Ni       2.88739578       8.63298741       8.60662143       0.00257452       0.00017640       0.00063256      -6.25498704
Al       4.35905788      10.06268541      10.02489159       0.00431334       0.00104661      -0.00239543      -4.46771141
Ni       2.92715664       8.66113085      11.50064646      -0.00030416      -0.00370087      -0.00039655      -6.26425814
Al       4.35804502      10.06722127      12.91009932       0.00807342       0.00397000       0.00690977      -4.29257146
Al       4.27070114      12.89342042       1.39331056       0.00027366      -0.00494493      -0.00344161      -4.58390814
Ni       2.88565231      11.47523230       2.87393167      -0.00491166       0.00122632       0.00669700      -6.13744440
Al       4.30793208      12.88411164       4.29120450      -0.00093343       0.00194461       0.00185723      -4.65286664
Ni       2.89376629      11.42619977       5.73844279       0.00342960       0.00173938       0.00361018      -6.26334843
Al       4.34139892      12.84292810       7.19464250       0.00043717      -0.00515644       0.00012052      -4.54028628
Ni       2.85459850      11.45833352       8.62178639      -0.00053128      -0.00626330      -0.00877616      -6.20457640
Al       4.32432981      12.88940024      10.03588095       0.00198214      -0.00624720       0.00049476      -4.45961645
Ni       2.85948390      11.46187300      11.41335068      -0.00656182      -0.00417822      -0.00235901      -6.14381771
Al       4.30788859      12.82389551      12.87285589      -0.00349323      -0.01209735      -0.00169511      -4.47147434
Ni       5.72655215      -0.03289471      -0.04568173      -0.00177604       0.00345128       0.00407112      -6.26151352
Al       7.17364326       1.41420618       1.41185419      -0.00096918      -0.00143469      -0.00414796      -4.66208636
Ni       5.72880446       0.02656647       2.86850151       0.00132333      -0.00105275      -0.00150571      -6.25351548
Al       7.12415555       1.48502274       4.34502385      -0.00397769       0.00093017       0.00012161      -4.55830228
Ni       5.73909030      -0.05705108       5.75668796      -0.00114581      -0.00381733       0.00143719      -6.21336332
Al       7.15155338       1.45582742       7.13720475      -0.00086869       0.00451711       0.00167943      -4.56656832
Ni       5.74323883       0.04646163       8.60542345      -0.00763823       0.00292891       0.00244512      -6.21975389
Al       7.21974130       1.46592259      10.05486062      -0.00418419       0.00172255       0.00385656      -4.57592726
Ni       5.76251375       0.02660556      11.43720350       0.00252744       0.00135217      -0.00296343      -6.21682057
Al       7.20848357       1.45149021      12.84995177      -0.00596144       0.00654865      -0.00354525      -4.59232589
Ni       5.78138196       2.87641095      -0.03283619      -0.00213289      -0.00410234      -0.00156152      -6.25899451
Al       7.18682620       4.29326582       1.45973622       0.00118003      -0.00429070       0.00635068      -4.65528422
Ni       5.72538695       2.85974015       2.82402739       0.00368555      -0.00547164      -0.00489279      -6.19849153
Al       7.13641396       4.25947262       4.29695312       0.00280423      -0.00139178       0.00273995      -4.58080815
Al       7.15853437       4.28702283       7.14802242       0.00678604      -0.00235942       0.00166073      -4.50510946
Ni       5.78702572       2.89428859       8.65175131       0.00385125      -0.00020839       0.00160593      -6.22316036
Al       7.25567778       4.31393799      10.03080008       0.00039652      -0.00160851       0.00147490      -4.30476989
Ni       5.74139939       2.90435443      11.44649503      -0.00334024      -0.00259074       0.00019938      -6.21059187
Al       7.22423650       4.29856239      12.83916662      -0.00119129      -0.00338085      -0.00047008      -4.45591758
Ni       5.77200053       5.70512204      -0.01252768       0.00082201      -0.00131502       0.00441827      -6.21406179
Al       7.14141005       7.18186339       1.41400218      -0.00365067       0.00428638       0.00245189      -4.46530022
Ni       5.70942949       5.72108908       2.85247468       0.00358000      -0.00075115       0.00186743      -6.21390023
Al       7.14501473       7.24164950       4.27877748       0.00177939       0.01394079       0.01186652      -4.44620379
Ni       5.77989683       5.80972818       5.72858595       0.00458778       0.00221050       0.00493282      -6.23252828
Al       7.23725503       7.16824129       7.17171602       0.01000651       0.00008880      -0.00322132      -4.46547057
Ni       5.73771287       5.70882175       8.60577011      -0.00257052       0.00384965      -0.00336796      -6.21689498
Al       7.22352733       7.10949271      10.03032741       0.00151815       0.00040655      -0.00189189      -4.46012048
Ni       5.74122112       5.71882879      11.44921893       0.00184197       0.00242952      -0.00299370      -6.21501631
Al       7.17107490       7.16131048      12.87939184       0.00006162      -0.00104748       0.00323495      -4.48070889
Al       7.13526202       9.97206421       1.41110272      -0.00013040       0.00214524       0.00988482      -4.48530111
Al       7.13920766       9.95048090       4.26477240       0.01202141      -0.00418688       0.00294523      -4.43947788
Ni       5.68709243       8.60552280       5.77345620      -0.00285362       0.00222407      -0.00093772      -6.16203767
Al       7.18137850      10.01104321       7.16474265       0.00997347       0.00658795       0.00011274      -4.50395117
Ni       5.78089630       8.53877592       8.60490268       0.00302158       0.00118365       0.00286423      -6.23101880
Al       7.12711857      10.07455004      10.01724825      -0.00865727      -0.00146958      -0.00162378      -4.45730284
Ni       5.75359192       8.55219242      11.40351881       0.00458379       0.00378585      -0.00491659      -6.15826899
Al       7.09182543      10.02732900      12.87762765      -0.01149883       0.00482180      -0.00049903      -4.44823082
Ni       5.76951647      11.47674619       0.05364448      -0.00154589      -0.00384909       0.00309934      -6.05266283
Al       7.18996092      12.91711128       1.42975152      -0.00329907      -0.00188326       0.00116949      -4.68604250
Ni       5.68134396      11.43067944       2.79174120      -0.00069032       0.00507658       0.00132691      -6.21185502
Al       7.12746832      12.86549774       4.25887838       0.00331405       0.00456921       0.00115519      -4.64366163
Ni       5.75558835      11.39612264       5.68042722       0.00223695       0.00562739      -0.00134928      -6.22724138
Al       7.13642326      12.85392812       7.20786389      -0.00191791      -0.00650997      -0.00305687      -4.55945462
Al       7.12418770      12.85323156       9.99835748      -0.01167194       0.00148883       0.00819136      -4.45941984
Al       7.13868884      12.86407978      12.87012192       0.00322611      -0.00751695      -0.00817752      -4.58066752
Ni       8.67441321       0.04690790      -0.04218581      -0.00117733       0.00036957      -0.00132789      -6.26953877
Al      10.10002331       1.43554189       1.43852980       0.01224455      -0.00594551      -0.00330865      -4.47993586
Ni       8.56850137       0.02601157       2.90081658       0.00138833      -0.00348884      -0.00032553      -6.20119839
Al      10.06046240       1.38137604       4.31535692       0.00804015       0.00163583       0.00409348      -4.45688088
Ni       8.53312670      -0.00531913       5.70854272       0.00150132       0.00159027       0.00248482      -6.21865584
Al      10.05605505       1.38259537       7.13037116       0.00305159      -0.00009515       0.00427662      -4.56768166
Ni       8.61710647       0.00075014       8.60896315      -0.00254966      -0.00226486       0.00104189      -6.28146882
Al      10.01973880       1.42372945      10.08684932       0.00247689       0.00116879       0.00796372      -4.48043150
Ni       8.56896906      -0.07198906      11.45127784      -0.00247391      -0.00647179       0.00515860      -6.15691009
Al      10.07191344       1.45419128      12.82967244       0.00243618       0.01044497      -0.01030131      -4.33556156
Ni       8.58823774       2.86431021       0.01656548      -0.00861717       0.00373877      -0.00354498      -6.13306938
Al      10.04524814       4.27254281       1.43326244      -0.00037686       0.00291678      -0.00102721      -4.59277753
Ni       8.63241196       2.82649833       2.87659713      -0.00216928       0.00059873      -0.00199722      -6.27419611
Al      10.04928727       4.34361917       4.31268014       0.00572562       0.00514719       0.00730622      -4.57778796
Ni       8.67426561       2.89066351       5.75002759       0.00342482       0.00253042       0.00409518      -6.23303562
Al      10.04482132       4.36674953       7.16085270      -0.00068091       0.00569391      -0.00348711      -4.46222969
Ni       8.61332240       2.83869793       8.54188034      -0.00607594      -0.00041453       0.00081027      -6.15666806
Al       9.97116116       4.29571182      10.01438773      -0.00348076      -0.00100137       0.00599799      -4.33398612
Al      10.03586617       4.23461287      12.90306010      -0.00138534      -0.01122493      -0.00808270      -4.39004226
Ni       8.59963455       5.69909569       0.00763691      -0.00259889       0.00060936       0.00520399      -6.22347592
Al      10.03079189       7.15877970       1.40805023       0.00467601       0.00160997       0.00130109      -4.65248911
Ni       8.58513691       5.77816398       2.89807479       0.00149946       0.00450926       0.00204148      -6.27522695
Al      10.01244213       7.15417850       4.36914252       0.00251942      -0.00056261       0.01329625      -4.47362467
Ni       8.52455395       5.68836940       5.68865906       0.00318033      -0.00089922       0.00412983      -6.06426174
Al       9.97350115       7.11387309       7.13714246      -0.01140042      -0.00696372      -0.01047268      -4.29597267
Al       9.98826662       7.11611079      10.04834195      -0.00636876      -0.00214895      -0.00158823      -4.47844095
Al       9.98255851       7.10849478      12.83114020      -0.00511513      -0.00188434      -0.00237378      -4.56570791
Ni       8.61892997       8.58992296      -0.03896967      -0.00154218      -0.00229988       0.00099993      -6.21477230
Al      10.03974275      10.03156751       1.41118398       0.00717144      -0.00441499       0.00526165      -4.66832556
Ni       8.61014491       8.58383169       2.80751500       0.00426209      -0.00233686       0.00388718      -6.14386664
Al       9.96228725       9.97913894       4.33486421       0.00718539      -0.00541358      -0.00033983      -4.57254175
Al       9.99193487       9.99613307       7.13172108      -0.00719545       0.00169890       0.00272035      -4.57916655
Ni       8.59827930       8.62211899       8.65245747      -0.00383201       0.00303059      -0.00208068      -6.15990491
Al      10.08145631      10.05611789      10.04960160       0.00081622       0.00418831      -0.00430583      -4.55362305
Ni       8.57835494       8.65828907      11.46033403      -0.00425430      -0.00247838       0.00237402      -6.23931036
Al      10.06076520      10.08132118      12.85656225      -0.00033612      -0.00198622       0.00141953      -4.56340199
Ni       8.56964197      11.43684026      -0.03308821       0.00269571      -0.00355075      -0.00249080      -6.27261279
Al      10.00813764      12.90933376       1.47284689       0.00331986       0.00921469       0.00100790      -4.58791970
Ni       8.57531247      11.41080679       2.86937556       0.00606717       0.00393973      -0.00179785      -6.27296048
Al      10.02434779      12.90907038       4.29282170       0.00760144       0.00585000       0.00017006      -4.45898638
Ni       8.55611268      11.49133360       5.73152072       0.00868560       0.00715820       0.00475391      -6.22277493
Al      10.03008010      12.92269178       7.11410540       0.01113322       0.01037587      -0.00587520      -4.55741224
Ni       8.64371740      11.44526498       8.60610872       0.00123965       0.00113694       0.00014550      -6.22826461
Al      10.06205585      12.88558171      10.05670908       0.00280410       0.00018202       0.00731773      -4.46201679
Ni       8.58464229      11.46707884      11.43455981      -0.00044310       0.00322330       0.00341977      -6.22703642
Al      10.05624836      12.86767805      12.84591756      -0.00136388       0.00310566      -0.00438022      -4.49898698
Ni      11.41513642      -0.04642081      -0.01751265       0.00110043      -0.00191885       0.00445007      -6.00808380
Al      12.84226044       1.38001549       1.39336198      -0.01216227      -0.01070076      -0.00696317      -4.33385366
Al      12.85107102       1.37656495       4.29715475      -0.00717298       0.00057424       0.00073622      -4.45779471
Al      12.83979242       1.38956447       7.12464289      -0.00151768       0.00445880      -0.00179410      -4.54995458
Ni      11.45539811      -0.01313698       8.61854789      -0.00060257      -0.00158252      -0.00361269      -6.21537492
Al      12.88008751       1.43111421      10.10398669      -0.00135891       0.00367590       0.00670710      -4.48630925
Al      12.87529950       1.43417390      12.88946876       0.00303160       0.00206876      -0.00815396      -4.14221013
Al      12.85031413       4.27181837       1.40988263       0.00057075       0.00091497      -0.00943363      -4.59191295
Ni      11.46338079       2.88564899       2.93313944       0.00257676       0.00167764       0.00302891      -6.15148047
Al      12.88187683       4.33663353       4.31670684      -0.00568304      -0.00063805       0.00161653      -4.55759113
Ni      11.45253377       2.85863302       5.71331943       0.00489977      -0.00190022       0.00155358      -6.21899171
Al      12.85282905       4.32617412       7.13576758       0.00014080       0.00179979      -0.00280340      -4.57040466
Ni      11.43309050       2.84434409       8.60614405      -0.00165859       0.00318729       0.00315190      -6.29138895
Al      12.93418975       4.25396942      10.03335940      -0.00838696       0.00252841       0.00913644      -4.58093659
Ni      11.44292279       2.90865607      11.42050889      -0.00155944       0.00550215      -0.00467009      -6.01051133
Al      12.90447380       4.22115832      12.89115450      -0.00127192      -0.01074026      -0.00978655      -4.48546096
Ni      11.44117271       5.74480087      -0.03177889      -0.00386049       0.00673600      -0.00356626      -6.21315307
Al      12.88474954       7.17792216       1.40783838      -0.00463137      -0.00441733      -0.00479375      -4.66053498
Ni      11.45642896       5.73363355       2.81976567      -0.00458786      -0.00504156      -0.00398656      -6.21271991
Al      12.86066076       7.12902075       4.32442551      -0.00247333      -0.00089587       0.00720670      -4.55176004
Al      12.86666008       7.12765551       7.13892988       0.00271822      -0.00354067      -0.00461237      -4.56856064
Ni      11.46798752       5.72847872       8.64612307      -0.00567668       0.00419779       0.00096019      -6.14455288
Al      12.88462484       7.16526363      10.03595108       0.00149343      -0.00540436      -0.00242491      -4.64173708
Ni      11.47810806       5.64858569      11.45894927      -0.00194480       0.00114107       0.00019900      -6.22713370
Al      12.89957356       7.15630519      12.88973627       0.00090360      -0.00099625      -0.00177115      -4.65354272
Ni      11.44318862       8.60530724      -0.05508508      -0.00123641      -0.00364405       0.00048684      -6.25121250
Al      12.85937333      10.01418767       1.45061113      -0.00176655      -0.00148819      -0.00998243      -4.66878666
Ni      11.42414860       8.56538290       2.91218490       0.00305514       0.00255436       0.00006054      -6.25958072
Al      12.90652324      10.02583665       4.28609882      -0.00671586      -0.00638459      -0.00084890      -4.64695271
Ni      11.47282319       8.61141884       5.73743698       0.00547068       0.00220054      -0.00089891      -6.13330330
Al      12.88395632      10.01870083       7.15855811       0.00110708      -0.00484891      -0.00235920      -4.64639521
Ni      11.40082510       8.54224024       8.56321495      -0.00196314       0.00053929       0.00278006      -6.27368846
Al      12.83772459      10.05238183      10.03966808       0.00024872      -0.00102944       0.00225986      -4.56010581
Ni      11.43418832       8.54980520      11.46843382      -0.00380434      -0.00346480      -0.00549518      -6.21652100
Al      12.84613623      10.07553837      12.86306692      -0.00101007       0.00182384       0.00083022      -4.56944614
Ni      11.48090827      11.53709575       0.04992796      -0.00251813      -0.00097536       0.00090039      -6.21869728
Al      12.88027360      12.95939107       1.47220165       0.00094929       0.00989812      -0.00154504      -4.46304036
Ni      11.42872022      11.43615450       2.89427901       0.00483231       0.00004877      -0.00361718      -6.20881619
Al      12.85956615      12.89476164       4.28487317      -0.00256727       0.00662772       0.00131534      -4.46010120
Ni      11.42675796      11.41983463       5.69855916       0.00911423      -0.00493060       0.00393802      -6.21424799
Al      12.85270405      12.91862358       7.10917563      -0.00455050       0.00384997      -0.00391151      -4.54253313
Ni      11.44738349      11.49677442       8.53855649       0.00055605       0.00224735      -0.00189560      -6.21612537
Al      12.83669311      12.87424718      10.07777619      -0.00400400       0.00394122       0.00424997      -4.47230921
Al      12.91371145      12.95658045      12.92101376      -0.00099518       0.00543703      -0.00507146      -4.42129921
