128
Lattice="12.059943642146532 0.08433334320172807 0.553004324429321 0.07961780912813154 12.28496241141086 0.19101972326711028 0.5448493182453272 0.1990411543848171 12.806932629427642" Properties=species:S:1:pos:R:3:forces:R:3:energies:R:1 energy=-597.3463909177912 stress="-0.0010473467843639143 -0.00020999496199884397 -0.00033025846369828224 -0.00020999496199884397 0.000184046984353272 0.0004034994723059026 -0.00033025846369828224 0.0004034994723059026 0.0004356066357477504" free_energy=-597.3463909177912 pbc="T T T"
Al      -1.10229240       0.00137151      -0.57867110      -0.00124241      -0.01021855       0.00492934      -4.08090872
Al       1.55022712       1.63635268       2.51260349      -0.00675387      -0.00635414       0.00007159      -4.12092543
Ni       0.16262448      -0.03684487       3.64036944       0.00092575       0.00455790       0.00344318      -5.83270651
Al       2.28666730       2.28413006       5.14400341       0.00292968       0.00189300       0.00087244      -4.26961352
Al       1.17613158      -0.26752899       5.92605609      -0.00000690       0.00025094      -0.00646779      -3.92487208
Al       2.64351305       1.40594719       7.77290764       0.00602180      -0.00164579      -0.00557021      -4.45939002
Ni      -0.52753326       0.30691997       9.81489327      -0.00787760      -0.00594439       0.00181814      -5.81281735
Al       1.82421580       1.26064295      10.38690736       0.00667171      -0.00749693      -0.00646431      -4.31202912
Al       0.55708344       2.00493900       0.14779187       0.00792283      -0.00706843       0.00187766      -3.78229363
Al       2.17549332       5.25227424       1.84005494       0.00404860       0.00162466      -0.00041456      -4.15632364
Al      -0.35991947       3.48645158       2.36092783      -0.00671936       0.00506832      -0.00172431      -3.87266202
Al       1.75035008       4.78551105       4.51587339      -0.00010409      -0.00769823       0.00593880      -4.37144800
Ni       0.47765555       3.50248320       6.28813334      -0.00326438      -0.00453318       0.00707734      -6.01912466
Al       2.62200745       4.24106590       7.17582582       0.00113493      -0.00093774      -0.00495512      -4.38254395
Ni       1.21396438       3.19695015       8.84342244       0.01073684      -0.00361047      -0.00370186      -5.90381819
Al       1.83004470       4.04857137      11.23290036       0.00080784      -0.00148425       0.00547688      -4.06454000
Al      -0.28915439       5.40605816       0.47733238      -0.00265395       0.00426937       0.00287575      -4.26681712
Al       1.80968066       8.83381914       1.06448105       0.00699183       0.00509241      -0.00113049      -4.10758623
Ni       0.00770861       5.87960414       2.87502657      -0.00258223      -0.00031668       0.00618661      -6.04403943
Al       1.71588282       7.33999465       3.76078995       0.00922182       0.00063564      -0.00546720      -4.38818050
Al       0.52871850       6.34271713       6.41200048       0.00246764      -0.00568838       0.00522640      -3.94562994
Al       2.00303449       8.16011942       8.01364480      -0.00421531      -0.00458018       0.00741730      -4.20327725
Ni       0.99236810       6.36935027      11.16329929       0.00530840       0.00182257      -0.01002367      -5.73868656
Al       1.30448454       8.76903734      10.88446037      -0.00541960      -0.00145153       0.00074719      -4.12636255
Ni      -0.16352487       9.83741330       0.05269898      -0.00444507      -0.00019434      -0.00311829      -5.95389593
Al       0.75067786      11.57112590       1.52022288      -0.00487481       0.00331954      -0.00434243      -4.23517216
Al       0.33742466       9.85188945       3.80600258       0.00629870       0.00105427       0.00488409      -4.02324496
Al       2.17205927       9.31222754       5.63006000      -0.00583867       0.00282837      -0.01351070      -4.12723673
Al      -0.49065547       9.07386462       6.45406009       0.00021255      -0.00499998       0.00355074      -3.86711650
Al       1.35423251      11.26620206       9.07753320       0.00037908       0.00355915       0.00208885      -4.27991577
Ni      -0.02660762       9.34474128       8.80899947      -0.00091321      -0.00438492      -0.00294923      -5.84103661
Al       2.54192105      11.12458268      11.95802405       0.00822319      -0.00319227       0.00108382      -4.25112524
Ni       2.71497698       0.52623899       0.55156140       0.00332751      -0.00276518      -0.00477594      -6.00125456
Al       4.44949401       0.92944437       2.23401863       0.00445226       0.00805175       0.01007113      -4.34872025
Al       2.51982140      -0.62311441       3.55383041       0.00290473       0.00912098      -0.00344395      -4.13160952
Al       5.02354724       2.41195432       4.38512834      -0.00013784      -0.00378726      -0.00613970      -4.40142895
Ni       3.68880402       0.42329571       5.48811212      -0.00004196      -0.00106857      -0.00274722      -5.95755191
Al       5.29495744       1.33421129       8.85898710      -0.00255172      -0.00531765      -0.00878064      -4.33470843
Ni       3.44617818      -0.29669673       9.64571330      -0.00108901       0.00057192      -0.00133632      -6.00777008
Al       4.57609755       1.40512886      11.35171310      -0.00568647      -0.00318450       0.00501969      -4.48814746
Al       3.31531583       2.97329055       0.59522758       0.00216381       0.00393626       0.00364110      -4.13306083
Al       5.04488433       4.28618887       2.23939480      -0.01750915      -0.00550732      -0.00087288      -4.25006041
Ni       3.10775112       3.32358524       3.05501035       0.01061911       0.01089636       0.00029117      -5.80681322
Al       4.77557253       5.01778902       5.69965675       0.00576814       0.00003100      -0.01044562      -4.40960544
Ni       4.47843807       2.62608415       6.76674144      -0.00122874      -0.01107448      -0.00099665      -6.12382906
Al       5.31524180       4.22962708       8.47057541      -0.00912498      -0.00060284       0.00328881      -4.43383327
Ni       3.56767244       3.00497609       9.49462754      -0.00604096      -0.00992519       0.00017473      -6.14978148
Al       4.52131254       4.60475199      11.08661845      -0.00242969       0.00503734      -0.00125456      -4.31027878
Al       2.51822955       6.58960648      -0.59166699       0.00443784       0.00471122      -0.00444155      -3.96804275
Al       4.16462345       7.66696185       2.01597865      -0.00770329      -0.00299531       0.01634738      -4.31787106
Ni       3.79769416       5.87266151       3.65187376      -0.00354800       0.00334866      -0.00469845      -5.99659983
Al       4.42439883       7.89298950       4.79235802      -0.00292171       0.00672063      -0.00208434      -4.30812731
Ni       2.87041028       6.61118394       6.11108979       0.00027092      -0.00283756       0.00024211      -6.10452541
Al       4.71921081       6.88587203       7.90007152       0.00268193       0.00541736      -0.00109400      -4.22566879
Al       2.53756484       5.71374293       9.36968507      -0.00325075       0.00274704       0.00640721      -3.95860587
Al       5.71865419       8.07280520      10.57348476      -0.00093753      -0.00653970      -0.00274642      -4.00042324
Ni       3.92756872       8.56265215      -0.28540900      -0.00605706       0.00334261      -0.00628261      -6.02890131
Al       3.81552673      10.55145532       1.34849156      -0.00113433      -0.00007891      -0.00841481      -4.39594099
Ni       2.91780339       9.35342095       3.30250769      -0.00283834      -0.00025710       0.00223507      -6.03120920
Al       4.68285050      10.51275356       4.96366539      -0.00040959      -0.00272198      -0.00257577      -4.28957008
Ni       4.04507430       8.93078134       7.02024573       0.00982574      -0.00155618       0.00186079      -5.85158848
Al       3.68612056      11.20306830       7.52589860      -0.00391221       0.01303833      -0.00739221      -4.24966023
Al       3.69205677       9.50900093       9.62759825       0.00115312      -0.00795279       0.00568323      -3.90963983
Al       5.27403133      10.91761128      11.25324767       0.00410198       0.00734553      -0.00355140      -4.29292768
Ni       5.22655300      -0.22518109       0.15890532      -0.00433152      -0.00856097      -0.01328028      -5.84215460
Al       7.38862137       1.71811581       2.72884369       0.00552480       0.00250874       0.00710683      -4.37464840
Ni       6.02466529       0.13837276       4.10921879       0.00310111       0.00719780      -0.00013681      -6.01821996
Al       8.19700258       1.08325951       5.29079069      -0.00102647      -0.00129881      -0.00081489      -4.20692111
Al       5.82068395       0.56407282       6.44284772      -0.00103916       0.00524855       0.01110155      -4.15134684
Al       8.08535039       1.91286319       8.93102635      -0.00284811       0.00064744      -0.00825893      -4.22195959
Ni       6.94475644       0.39835412      10.49400807       0.00253097      -0.00436027      -0.00215906      -5.97015920
Al       7.13072751       1.93893682      12.69684328      -0.00464068       0.00368201       0.00451903      -4.49902953
Ni       5.63008069       3.95358423      -0.09765443       0.00105637       0.00341053       0.00123510      -5.73398450
Al       7.50628587       4.27481933       1.50448568       0.01241404       0.00114102      -0.00631258      -4.21821611
Ni       6.98440006       3.87870345       3.84175403       0.00178953       0.00123484       0.00673592      -5.97055197
Al       8.33314728       5.47293100       5.35634599       0.00471182       0.00640736      -0.00098490      -4.22608378
Al       6.84764361       3.35538028       6.31435018       0.00046981       0.00053946       0.00286367      -4.19149763
Al       7.91401148       4.55956943       8.83501898      -0.00568266       0.00170607      -0.00425767      -4.39418820
Ni       6.31983979       3.05426743      10.39040037      -0.00072164      -0.00939925      -0.00164730      -6.09741577
Al       8.37227751       4.27350777      11.59992075       0.00478969      -0.00028235       0.00260569      -4.52758261
Al       5.31171716       6.34112451       0.00310436       0.00172291      -0.01135399       0.00082967      -4.15805264
Al       8.24124289       7.60181402       1.49188358      -0.00525578      -0.00539443       0.00059859      -4.21782689
Al       6.32240217       6.22976282       3.48066879       0.00044249       0.00461720      -0.00039956      -4.22881258
Al       7.05972226       7.88001935       5.98153155       0.00072809       0.00235284      -0.00657017      -4.05073388
Ni       6.70165510       5.72380396       7.12997283       0.00160577      -0.00006816      -0.00091396      -5.85461017
Al       7.53343245       7.28347788       8.80499145      -0.00024779       0.00131177       0.00154376      -4.20633238
Ni       6.65348224       5.76159781      10.62041008      -0.00126109      -0.00233985       0.01295054      -5.94778999
Al       8.46473513       7.00800770      11.69960410       0.00148930       0.00096903      -0.00118420      -4.42696871
Al       6.16920382       9.15097033       0.44438040       0.00530909       0.00413038      -0.00392789      -4.13248953
Al       6.69129559      11.39534290       2.20288254       0.00036729      -0.00350516       0.00035425      -4.30512263
Al       6.51473196       8.93479935       3.28300670      -0.00331064      -0.00466389       0.00893388      -3.80840454
Al       7.41060018      10.68537161       5.41494873       0.00073251       0.00166093      -0.00008723      -4.06806999
Al       6.15672332       9.62480558       7.94470311       0.00183199       0.00555640      -0.00130438      -3.90665291
Al       7.79174793      11.81341933       8.23721429      -0.00132395       0.00865617       0.00868614      -3.83857569
Al       7.66675398      10.11919131      10.26849004      -0.01248938      -0.00682638       0.00165514      -4.00518419
Al       8.13677830      11.56089664      12.49837182       0.00460336       0.00028190      -0.00394378      -4.31526133
Ni       8.74999206       0.62319333       0.99503253       0.00038053      -0.00646774      -0.00090797      -6.04127047
Al      10.43305680       0.91117815       2.80576148       0.00239965      -0.00370654      -0.00067946      -4.31921109
Ni       8.52430834      -0.46668217       3.39039964       0.00441884       0.00284409       0.00431125      -5.94345013
Al      11.37047954       1.85935538       5.51379229      -0.00294749      -0.00069053       0.00277567      -4.25488345
Ni       9.64492054       0.80982660       7.16359548      -0.00216459       0.00138974       0.00072362      -5.76026752
Al      11.61840190       1.75635032       8.36652108       0.00125113       0.00096233      -0.00232344      -4.42824094
Al       9.36721373       1.31517296      11.23080683       0.00784440      -0.00562587      -0.00158654      -4.22591197
Al      11.65638331       2.66327207      11.15001958      -0.00960441       0.00388653      -0.00529620      -4.12727716
Al       9.88139354       2.95234596       0.88448885      -0.00103856      -0.00207662      -0.00245736      -4.08879410
Al       9.68570236       5.73293102       2.91106199      -0.00589499       0.01000383       0.00099673      -4.27283116
Al       9.28046252       3.24801831       4.05617685      -0.00151657      -0.00063235      -0.00095793      -3.87877878
Al      11.05814875       4.78240791       5.37641657       0.00166338      -0.00023028      -0.00497284      -4.13821384
Al       9.59427257       3.21500356       7.07246955       0.00351536       0.00182415       0.00547241      -4.03888221
Al      11.39073647       4.65755346       8.62265312      -0.00060831      -0.00203702      -0.00238525      -4.34918925
Ni       9.77329943       3.43417106       9.82292888      -0.00682270      -0.00149822       0.00274152      -6.01020742
Al      10.98573831       5.18685910      11.41860381      -0.00579833      -0.00355764      -0.00384064      -4.37559209
Ni       9.26894386       5.48871668       0.57745349      -0.00931502       0.00679899       0.00551285      -5.91531189
Al      11.42314427       8.23609943       2.44177844       0.00001244      -0.00315087      -0.00751817      -3.93360394
Ni       8.34586471       7.49203431       3.94114664      -0.00211023       0.00788443       0.00165303      -5.83108019
Al      10.71436780       7.45579518       4.95292628       0.00856318       0.00051604       0.00431364      -3.99864386
Al       9.85805152       6.77872616       7.39682399      -0.00517928       0.00848489      -0.00349829      -3.93827667
Al      11.91712442       7.04803305       9.66013888       0.00567882       0.00105766       0.00463735      -4.19299122
Ni       9.57295478       6.08788418       9.68228646      -0.00062329       0.00543045      -0.00408284      -6.11611267
Al      11.09425935       7.95286920      12.70771327       0.00659404       0.00259084       0.00701250      -4.27585352
Ni       8.45587537       9.10268127      -0.58322897      -0.00403879       0.00297749       0.00302643      -5.99623348
Al       9.53156877      10.46340454       1.38144901       0.00443640       0.00109397      -0.00105607      -4.25640743
Al       9.43994784       9.57749996       3.90048032       0.00143199      -0.00167928       0.00332790      -4.03530815
Al      10.32719735      11.53211325       5.59648553      -0.00086275      -0.00249717       0.00390893      -4.16203106
Al       8.84025394       9.45241057       7.38367501       0.00106850      -0.00307326       0.00385144      -3.61623950
Al      10.68790193      11.35128253       8.64745746       0.00078651      -0.00313592       0.00532967      -4.25079349
Al       9.78523529       8.59141380       9.86594593      -0.00444858       0.00556855       0.00045029      -4.14444838
Al      11.03716272      10.45367709      11.37837091       0.00534110       0.00121816      -0.00093170      -4.33210998
