139
Lattice="13.238269403663026 -0.3910897672193974 -0.11197214884736939 -0.39617924853569014 13.171524428556829 0.16710255505220467 -0.11696024034394867 0.16474370613102307 13.342046303401132" Properties=species:S:1:pos:R:3:forces:R:3:energies:R:1 rep=5 n_sites=250 energy=-563.8797607421875 stress="0.00032381180790252984 9.922387107508257e-05 -0.00036385218845680356 9.922387107508257e-05 0.000196477587451227 -0.00029993540374562144 -0.00036385218845680356 -0.00029993540374562144 -0.0002648565568961203" free_energy=-563.8797607421875 pbc="T T T"
Al       0.44044556       1.69426264       1.96110769      -0.00615752       0.00245787      -0.00430244      -3.74351966
Al       0.98955053       1.69004645       4.67580189       0.00176360       0.00194521      -0.00295996      -3.71081781
Al       0.93846239       1.72829592       7.60207502       0.00186396      -0.00058851      -0.00212687      -3.98791331
Al       2.30570630       1.98732241      10.06170746      -0.00348588      -0.00282040       0.00065848      -3.90305686
Al       1.61699100       1.73700475      12.79017950       0.00681231      -0.00051944      -0.00044665      -3.60656118
Al       0.49960097       4.06334718       0.59177184       0.00414994       0.00046782       0.00223200      -3.89243722
Al       1.29406126       4.06002643       3.38357963      -0.00093243       0.00307378      -0.00570042      -3.87169605
Al       1.68024212       4.12373614       6.05462383       0.00471881      -0.00550388       0.01366317      -4.11682248
Al       0.92133818       4.40710229       8.94983045       0.00617665      -0.00096128      -0.00696731      -4.07841235
Al      -0.09177522       3.43555903      11.30189559       0.00225111       0.00077122       0.00314500      -3.64321327
Al       1.12340293       6.77047502       0.73973772       0.00036512       0.00635333       0.00462465      -3.86528313
Ni      -0.14627797       5.66661370       2.42838409      -0.00336929      -0.00024226       0.00851212      -5.86724031
Al       1.52037917       7.07373016       3.58259167      -0.00281112      -0.00065123      -0.00121146      -3.89893419
Al       0.97635413       7.00919913       6.42457389       0.00570339       0.00223587      -0.00463927      -3.74898636
Al       1.47972154       7.12741990       9.34495958       0.00006087      -0.00040111      -0.00391968      -3.89996296
Al       1.72078052       5.78423337      11.69769167       0.00090901      -0.00099781      -0.00060536      -3.60142338
Al       0.22758831       9.64712471       0.80450538       0.00906854      -0.00035897       0.00505143      -3.69425106
Al       1.08955544       9.78850126       3.49281838       0.00137231      -0.00357195       0.00071881      -3.66330838
Al       1.68099363       9.84407905       6.65562249       0.00079364      -0.00508315      -0.00286601      -3.69399190
Al       0.54764521       9.65846483       9.45341216       0.00852102       0.00095722      -0.00202840      -3.66392004
Al       0.70316744       8.45555678      11.84246994      -0.00193614      -0.00092987       0.00141344      -3.62151289
Al       0.55083141      12.41475068       0.77220313      -0.00435526      -0.00521432      -0.00691264      -3.68343055
Al       0.50429863      12.47209402       3.48536162       0.00246374       0.00152531       0.00427955      -3.75146091
Al       0.78461937      12.58036091       6.35164559       0.00330418      -0.00086191       0.00185120      -3.72526336
Al       1.05978466      12.34856181       9.08905347      -0.00189435       0.00171753      -0.01105649      -3.68864548
Al       0.72693650      11.30550174      11.66254268       0.00580084       0.00214706       0.01049513      -3.61802804
Al       4.46442127       1.36201499       0.24470365      -0.00632208       0.00030100      -0.00878116      -3.79767787
Al       3.29178369       0.90849426       3.07365092      -0.00535078      -0.00374913      -0.00367044      -3.96910763
Al       3.37476213       1.64708190       6.00900755       0.00193898       0.00096467       0.00199868      -3.84400618
Al       4.69569277       1.72237798       8.40086039      -0.00005838      -0.00834213      -0.00069650      -3.85234255
Al       5.17467201       2.10160197      11.01973421      -0.00145704       0.00641996       0.00245047      -3.72707319
Al       3.13903843       3.47332949       1.42568895      -0.00680679      -0.00066331      -0.00009137      -4.06741774
Al       3.90814259       3.67230518       4.08486965       0.00002113       0.00579110       0.00195980      -4.20620811
Al       4.52105720       4.40486132       6.85650892       0.00183097      -0.00492930      -0.00243741      -4.34118992
Ni       2.79379927       3.16223446       7.96387351       0.00007631       0.00211237      -0.00321780      -5.87098652
Al       3.81235389       4.67740691       9.53651404      -0.00264621       0.00155424       0.00396824      -4.19634086
Al       3.29822135       3.71388496      12.08079499      -0.00473661      -0.00155205      -0.00310271      -3.57642889
Al       3.91721020       5.99346304       0.31215391      -0.00612395       0.00031038      -0.00572962      -3.89021742
Al       4.32181825       6.88381256       3.07235459       0.00484917      -0.00714040      -0.00232775      -3.98893595
Al       3.44159645       6.58846552       5.59427557      -0.00203167      -0.00220397      -0.01107258      -4.05028689
Ni       2.53437738       5.67065103       7.68793414      -0.00336031      -0.01030640      -0.00109145      -5.88566756
Al       3.93710894       7.56542157       8.19079927       0.00187491       0.00190838       0.00279982      -3.93521744
Al       4.10050394       7.19265909      10.98216638      -0.00493099       0.00206101       0.00167758      -3.68814278
Al       2.84512970       8.69429897       1.26564005      -0.00211915      -0.00394991      -0.00451186      -3.90216166
Al       3.49885592       9.09497498       4.45443126      -0.00398561      -0.00593859       0.00210493      -3.73648679
Al       4.52240966       9.84559289       6.85243339       0.00458481      -0.00112947      -0.00443255      -3.71779895
Al       3.17959191      10.10833833       9.14063661       0.00057513      -0.00548204       0.01500592      -3.69900918
Al       3.07225668       9.73065468      11.80826131      -0.00030650      -0.00422077      -0.00554708      -3.82269990
Al       2.86799585      11.37401688       2.07489586      -0.00568691      -0.00732610       0.00378527      -3.92421556
Al       2.85845422      11.72002904       4.88006764       0.00925271       0.00245560      -0.00037862      -3.66625321
Al       3.39228484      12.34315963       7.47474213       0.00343175      -0.00261002       0.00506755      -3.66277218
Al       3.55955079      12.79793817      10.21586442      -0.00090816      -0.00501854       0.00700901      -3.62012327
Al       2.94888848      12.42780126      12.81044475      -0.00331493       0.00867963       0.00292927      -3.69133019
Al       6.72828627       0.78931981       1.80878124       0.00440924      -0.00108980      -0.00107486      -3.85457867
Al       5.86652431       1.33036908       4.50158675       0.00415333      -0.00454058       0.00642276      -4.04523623
Al       7.14390413       1.48693939       7.13318712      -0.00303483       0.00095178      -0.00086036      -4.03100681
Al       7.33533709       0.74403704       9.71182160       0.00268491       0.00227506       0.00600569      -3.90079123
Al       6.90094230       0.54882560      12.46115996       0.00324834      -0.00240954      -0.00293221      -3.63263369
Al       6.37431207       3.58935185       0.63002774      -0.00452355      -0.00109167       0.00173798      -4.12491906
Ni       5.05887173       2.35169273       2.36565744       0.00037379       0.01038170      -0.00132904      -5.85119963
Al       6.78409839       3.71429736       3.48861638       0.00649840      -0.01069527       0.01144934      -4.39505303
Al       7.07918744       4.29459810       6.23890737      -0.00123017      -0.01000087       0.00151065      -4.00453544
Al       6.65907135       3.58867910       9.07296783       0.00123723      -0.00232191       0.00117432      -3.75460327
Al       7.69067368       3.05265368      11.63885486      -0.00412439      -0.00712647      -0.00754467      -3.74017608
Al       6.61416788       6.49592485       1.22012117      -0.00009395      -0.00035095      -0.00167833      -3.90710264
Ni       5.05688448       4.86350220       2.18823940       0.00138963       0.00333706       0.00222564      -5.75723368
Al       7.42456551       6.41774391       4.04336500      -0.00090906       0.00772224      -0.00356084      -4.13624483
Ni       5.38043946       5.41989647       4.78100051      -0.00818767      -0.00440917       0.00194475      -5.88934678
Al       5.99962284       7.37175818       6.24458682      -0.00667328       0.00033805      -0.00316399      -4.11181724
Al       6.21320311       6.27962308       8.91077230       0.00019845      -0.00256787      -0.00761137      -3.70593631
Al       5.72331735       4.87598007      11.42442236      -0.00522023       0.00187689      -0.00520461      -3.74907935
Al       5.21545035       9.35783935       2.38129160      -0.00020048       0.00455786      -0.00371385      -3.81770945
Al       6.30696795       9.85308250       4.78269913       0.00178057       0.00225079      -0.00020021      -3.88435090
Al       7.44364886       9.88436358       7.35131181       0.00310849      -0.00345841      -0.00085935      -4.06976211
Al       5.82600428       9.05176801       9.63542620      -0.00145766      -0.00975568      -0.00018821      -3.67164397
Al       5.36815498       8.62367451      13.00987563       0.00392082       0.00424349      -0.00434396      -3.88673067
Ni       4.36709618      10.40557405       0.36692682       0.01077254      -0.01238683       0.00321941      -5.76692146
Al       6.56875673      11.27378393       0.98582232      -0.00060084      -0.00257460      -0.00373860      -3.97916752
Al       5.14657536      11.96963621       3.48930906      -0.00035775       0.00633875      -0.00150969      -3.63710856
Al       5.92600922      12.15090103       6.16075170      -0.00406478       0.00185237      -0.00347567      -3.84469485
Al       5.66956520      11.62836389       8.89565457      -0.00194207       0.00163276       0.00165987      -3.91594005
Al       5.53283360      11.27358306      11.65854051       0.00026812       0.00089525       0.00656873      -3.83948791
Al       9.12148046       0.09950278       0.92358738       0.00486527      -0.00217954       0.00058115      -3.72827351
Al       9.11111717       1.68207304       3.11300815      -0.00586192       0.00689729       0.00831577      -3.87729198
Al       9.07899148       0.16406236       5.54628440      -0.00069293      -0.00623055       0.00021082      -4.08244890
Ni       8.11301421      -0.75968559       7.72514343      -0.00206541       0.00425873       0.00740276      -6.00456983
Al      10.04462645       0.36599971       8.85774959      -0.00308195       0.00082240      -0.00087708      -4.07137197
Al       9.56082727       1.14806539      11.63736421       0.00549181       0.00730854       0.00392769      -3.93376762
Al       9.00758782       4.10142026       1.82282663      -0.00064303       0.00612777      -0.00089352      -3.78783095
Al       9.45661692       4.42729325       4.68537905      -0.00371680      -0.01493092       0.00253183      -4.17326862
Ni       8.04888001       2.40378589       5.13745227      -0.00683029       0.00034742      -0.01305889      -5.76860911
Al       9.80185724       2.60518527       6.72391011      -0.00233632      -0.00416849      -0.00617489      -3.91998971
Al       9.29551281       2.92138548       9.41149844       0.00141719       0.01102451       0.00322074      -3.65794408
Al       8.31844225       5.43145048      12.76844398       0.00450281       0.01000772      -0.00540355      -3.60841846
Al       9.31327408       6.95580700       1.50408798       0.00160722       0.01036699       0.00169042      -3.87886441
Al      10.05174898       7.45050210       4.32660983       0.00256918      -0.00559352       0.00021674      -4.22444278
Al       8.45816541       6.46810544       7.02120475      -0.00906821       0.00690183      -0.00094834      -4.01573807
Al       8.65595060       5.52488443       9.97889469       0.00544126      -0.00676455       0.00058064      -3.91123295
Al       6.90886582       7.25062628      11.37991092      -0.00357340       0.00232125       0.00552367      -3.60282719
Al       7.78753497       8.76705855       2.74771475      -0.00190132      -0.00564430      -0.00025436      -3.74699950
Al       9.34987583      10.22957578       4.54002593      -0.00198920       0.00691921       0.00307471      -3.85227698
Ni       8.10418643       8.36063921       5.40289147      -0.01062492      -0.00110703       0.00294024      -5.96795630
Al      10.01334113       8.65405761       6.93875404      -0.00494379       0.00106925       0.00359611      -4.09769678
Al       8.68627614       8.38862811       9.67350032       0.00336152       0.00304829      -0.00246936      -3.99994135
Al       8.28781458       8.91988984      13.02847181      -0.00198950      -0.00532650       0.00261866      -3.81801736
Al       9.29992021      10.66158687       1.65265870       0.00289326       0.00561596       0.00159431      -3.66820157
Al       7.81638373      12.12092484       3.42870040      -0.00343538       0.00250340       0.00085332      -3.69499016
Al       9.83502438      11.36746907       7.19993913       0.00474706       0.00920613       0.00288189      -3.83491910
Al       8.51537164      11.12170313       9.77843979       0.00509632      -0.00062211       0.00377280      -4.25100267
Al       8.46072587      11.59487209      12.41050905       0.00036636      -0.00023831      -0.00901003      -4.01728296
Al      10.94252355       2.07828317       0.78196180      -0.00390650       0.00331383      -0.00280133      -3.61994612
Al      11.57462880       0.92665998       3.97461272      -0.00062782      -0.00819037       0.00268779      -3.63731730
Al      11.80682595       0.43860526       6.65822665       0.00645224      -0.00100075      -0.00081266      -3.71384096
Al      12.72269871       0.37891109       9.84549322      -0.00283568       0.00371361      -0.00144447      -3.88911736
Ni      10.79334658      -0.77808393      10.92791884       0.00183625       0.00165738      -0.00547677      -5.85563213
Al      12.18358817       0.58819630      12.49862959      -0.00206147      -0.00383359       0.00380547      -3.83789062
Al      11.27875014       5.13324904       0.68284718      -0.01062754      -0.00653393       0.00594306      -4.11208594
Al      11.70239454       3.39284525       2.98345744       0.01089792       0.00744194       0.00050530      -4.11379504
Al      12.34383908       2.96640358       5.72199060      -0.00287791      -0.00158446       0.00256423      -3.72141659
Al      11.85786987       2.58684882       8.44519254       0.00190765       0.00033032      -0.00346021      -3.69400454
Al      10.39887934       3.80094975      11.85373945      -0.00249006      -0.00371256      -0.00278370      -3.66719353
Al      12.13674605       7.44779897       2.34028866      -0.00136422       0.00147861      -0.00075120      -4.20023674
Ni      10.65362356       5.58872494       2.94498719       0.00853668      -0.00289420      -0.00075436      -5.90924722
Al      12.37212462       5.60617415       4.65202098      -0.00441134       0.00040363      -0.00446033      -4.11395288
Al      10.95367310       5.12449693       6.95512034      -0.00488612       0.00338653       0.00369735      -3.80873322
Al      11.45481720       4.99071224       9.58696837      -0.00247726       0.00592408       0.00304621      -3.79881322
Al      12.35951825       5.93124425      11.83810316       0.00404350       0.00364024      -0.00949037      -3.64847898
Al      11.68453265      10.01323581       2.80015559       0.00380204       0.00022908       0.00087631      -3.62302697
Al      12.44861795       8.60693657       5.21157965      -0.00224546      -0.00336209       0.00038745      -3.67414868
Al      12.33718179       7.56743846       7.83669541      -0.00479361       0.00647631       0.00325124      -3.84586275
Ni      10.20984261       6.80363057       8.58799827       0.01089637       0.00491695      -0.00363243      -5.71409112
Al      11.32111177       8.04028000      10.34843199       0.00659952       0.00400509       0.00594892      -4.06877869
Al      11.02636724       8.23587602      13.00674201       0.00229227      -0.00155704       0.00203776      -3.88556552
Al      11.29605924      12.54908709       1.90291180      -0.00055765       0.00338355       0.00180051      -3.69493222
Al      11.60955933      11.56031014       5.00288536       0.00075031       0.00565272       0.00306377      -3.61346948
Al      12.34251763      10.36363353       7.32679687      -0.00296424       0.00231710       0.00294999      -3.73458362
Al      11.57766383      10.80469360       9.86409003      -0.00544360      -0.00315411      -0.00169486      -4.06669849
Ni       9.89306006       9.82249471      11.35391599       0.00691055       0.01084665      -0.00248647      -5.84374493
Al      11.34074324      11.01619845      12.90052054      -0.00083008      -0.00205151      -0.00445977      -4.10188168
