119
Lattice="11.39537323660868 0.00017401697082517831 -0.0015226082489022872 0.00017407848327569074 11.396332001938289 -0.003463681876494429 -0.0015227853637959532 -0.0034640274465079198 11.395004921376836" Properties=species:S:1:pos:R:3:forces:R:3:energies:R:1 energy=-643.9422426984468 stress="0.0004925752019800553 8.975899633753449e-05 0.0003023627741074139 8.975899633753449e-05 0.00030965082095187833 0.0006663543519866119 0.0003023627741074139 0.0006663543519866119 0.00015707476892719134" free_energy=-643.9422426984468 pbc="T T T"
Ni      -0.08268906      -0.00785277      -0.07747140       0.00185860      -0.00144340      -0.01340447      -5.86401441
Al       1.39933215       1.38911174       1.39570905      -0.00177158      -0.00763873      -0.01186423      -4.70064852
Ni       0.03689582      -0.04936089       2.89279758      -0.00445027       0.00981752       0.01240427      -6.11661804
Al       1.41884811       1.41252908       4.28218443      -0.00420697      -0.00807883       0.00171839      -4.57427756
Ni       0.01354227      -0.04549729       5.66152677       0.00851321       0.01132824      -0.00872682      -6.11286166
Al       1.38923448       1.37693695       7.14938080      -0.00427230      -0.00836067       0.00200355      -4.71583356
Ni      -0.08842597      -0.02446315       8.61861823      -0.00482644       0.00280259       0.00273983      -5.87151661
Al       1.38498175       1.41427839       9.95698782       0.00118018      -0.01225105       0.00878849      -4.46949831
Ni      -0.03847219       2.83071837      -0.01753564      -0.00296439       0.00533896       0.00275112      -6.08755099
Al       1.44341174       4.26123769       1.37261515      -0.00227822       0.00095160      -0.00027071      -4.70834807
Ni       0.00097154       2.85427311       2.85032050       0.00099196      -0.00661210      -0.00203415      -6.28621241
Al       1.39195003       4.30418705       4.30696480      -0.00811233       0.00976907       0.00348830      -4.68473689
Ni      -0.01689174       2.83700765       5.71559780       0.00662832      -0.01126184      -0.00177174      -6.30035605
Al       1.41827653       4.28388818       7.15080241      -0.00231989      -0.00108288      -0.00021161      -4.75163687
Ni      -0.03701739       2.84090506       8.53633897      -0.00738924       0.00182857       0.00669148      -6.10134588
Al       1.42997944       4.26763018       9.95764614      -0.00654564       0.00536856       0.00022099      -4.72505207
Ni      -0.01454460       5.70572517       0.00613919       0.00592117      -0.00527717       0.00226468      -6.31094509
Al       1.41966885       7.15500840       1.40808902      -0.00909100       0.00513617      -0.00615630      -4.69871200
Ni       0.01069915       5.69569220       2.81638320      -0.00671104      -0.00216178      -0.00426065      -6.06922917
Al       1.35487847       7.15807817       4.28336928      -0.00618816       0.01018393       0.00225705      -4.55662512
Ni      -0.04949708       5.75173830       5.73225205      -0.00233956       0.00639829      -0.00487984      -5.85679222
Al       1.37742032       7.14638709       7.13812078      -0.01526999       0.00644134      -0.00448667      -4.64049044
Ni      -0.01936770       5.69975908       8.53990900      -0.00333091      -0.00320439       0.00021406      -6.11245268
Al       1.42018456       7.12709721       9.96154604       0.00378927       0.00258054      -0.00240593      -4.62905866
Ni      -0.04407726       8.55931583      -0.03241766      -0.00461431       0.00769081      -0.00057248      -6.12973439
Al       1.42747530       9.99441768       1.35157912      -0.00929816      -0.00178673       0.00716124      -4.70185477
Ni       0.04386369       8.59762853       2.83814215      -0.00902651      -0.00651902       0.00806719      -5.82193968
Ni      -0.05276354       8.50371576       5.72721105       0.00415860       0.00151061      -0.00705060      -5.71052877
Al       1.38772291       9.95844281       7.14891208       0.00032984       0.00929860      -0.00328410      -4.71067250
Ni      -0.05064733       8.54569992       8.57492007      -0.00422446      -0.00370200       0.00100047      -5.85425732
Al       1.40091366       9.96687689       9.95588613      -0.01540321       0.00722609       0.00742654      -4.68993805
Ni       2.89752359       0.04214407      -0.04505028       0.00395192      -0.00065612       0.00623495      -6.11703012
Al       4.28116390       1.39838998       1.46938759      -0.00020425      -0.00469084      -0.01225659      -4.63092325
Ni       2.80551037      -0.02992633       2.87079221       0.00005556       0.00671110      -0.00346234      -6.09609977
Al       4.28773064       1.40784818       4.29348377       0.00218124      -0.00293515      -0.00430573      -4.70931646
Ni       2.79294918      -0.04356335       5.68426199       0.00089838       0.01112609       0.00271522      -6.09625209
Al       4.27697927       1.38202922       7.08906254       0.00351098      -0.00263468       0.00793369      -4.63645545
Ni       2.87687516       0.01538859       8.56520689       0.00842405       0.00370539       0.00236410      -6.11869877
Ni       2.88473325       2.79135693      -0.02975512      -0.00426692       0.00128303       0.00833405      -6.09296492
Al       4.27923212       4.27421994       1.40066566       0.00083204      -0.00563292      -0.00302871      -4.66899805
Ni       2.83729799       2.86129814       2.85944428       0.00434021      -0.00112502      -0.00135243      -6.27285335
Al       4.28638478       4.27172214       4.29318329       0.00150121       0.00334013      -0.00349842      -4.65382180
Ni       2.83323147       2.85835300       5.71819785      -0.00353633       0.00403787      -0.01255679      -6.28172601
Al       4.32551894       4.27560257       7.15062168       0.00582474      -0.00515413       0.00871518      -4.59966208
Ni       2.86665724       2.80155642       8.54445800       0.00441655      -0.00193614       0.00521435      -6.09888973
Al       4.27504661       4.27434551       9.95485229       0.00325245      -0.01272989       0.00133248      -4.45188098
Ni       2.87616597       5.74575801      -0.02111145      -0.00435188      -0.00457069       0.00354671      -6.08533446
Al       4.28092484       7.16244847       1.45929821      -0.00385200       0.00156922      -0.00218307      -4.64124435
Ni       2.84422030       5.69631785       2.86076999      -0.00507716      -0.00666407      -0.00368367      -6.28124548
Al       4.28245485       7.15856003       4.27036379       0.00494167      -0.00488015       0.00717718      -4.73014738
Ni       2.85741845       5.70968376       5.70551224      -0.00367651      -0.00478637      -0.00751129      -6.29703286
Al       4.27510759       7.16473859       7.10522193       0.00400362       0.00257787       0.00733325      -4.65152188
Ni       2.86765109       5.73811769       8.54666109      -0.00106035      -0.00239358       0.00238603      -6.10051924
Ni       2.87918927       8.52332907      -0.03433365       0.00029699       0.00239886       0.00438772      -6.10772071
Al       4.27494922       9.97769817       1.41831212       0.00150031      -0.00401977       0.00186196      -4.71150702
Ni       2.79880734       8.59271028       2.87307386       0.00179138      -0.00810893      -0.00271853      -6.10459557
Al       4.27669695       9.97450160       4.27622910      -0.00612710      -0.00453377      -0.00301231      -4.45521596
Ni       2.80580134       8.57441380       5.67947466       0.00230244      -0.00821950      -0.00230962      -6.10344457
Al       4.27219386       9.96766180       7.11244187       0.00379540      -0.00075470       0.00637360      -4.72390044
Ni       2.86121754       8.52796166       8.55604417       0.01105014      -0.00085199      -0.00293005      -6.12442416
Al       4.27370880       9.95593921       9.95368947      -0.00701778       0.00394023      -0.00007353      -4.45978424
Ni       5.64609397       0.04467329      -0.05240656       0.00254600      -0.00221000       0.00518107      -6.11730806
Al       7.14748496       1.38811413       1.39131629       0.00021863      -0.00435786      -0.01209621      -4.71320477
Ni       5.75129627      -0.03486441       2.87248568      -0.00635075       0.00814476      -0.00220122      -6.10010364
Al       7.12659463       1.41511171       4.28659871       0.00346384      -0.00235987       0.00673941      -4.58213004
Ni       5.75917237      -0.04957899       5.68674489      -0.00155467       0.01049554       0.00379327      -6.10525633
Al       7.14888929       1.40896983       7.15439952       0.00425210      -0.00451082      -0.00068123      -4.65334797
Ni       5.66920852       0.01183122       8.56411991      -0.01160710       0.00327945       0.00440771      -6.12683228
Al       7.16220782       1.41016179       9.95369933       0.00390549      -0.01147307       0.01512792      -4.46209521
Ni       5.66781413       2.79082537      -0.03811008       0.00456681       0.00283377       0.01195280      -6.09575863
Al       7.10297681       4.26155870       1.36341945       0.00538082       0.00215974      -0.00255780      -4.72816593
Ni       5.73017102       2.87117887       2.85821604      -0.01182744      -0.00120084      -0.00300292      -6.27852830
Al       7.17329111       4.32238406       4.37377136       0.00110873       0.00615676      -0.00267588      -4.60759091
Ni       5.72900798       2.85839952       5.72486564      -0.00001675       0.00550524      -0.00752071      -6.07335517
Ni       5.65358355       2.76491319       8.57311744       0.00260087       0.01740699      -0.00990493      -6.00098506
Al       7.10206980       4.25976365       9.89140016       0.00782805       0.01385172      -0.01214949      -4.65950686
Ni       5.67893690       5.74295336      -0.02873178       0.00236814      -0.00597438       0.00740507      -6.08868692
Al       7.12623046       7.15452450       1.40527804       0.00889228       0.00484642      -0.00551927      -4.71198841
Ni       5.71918677       5.68930995       2.86086814      -0.00315490      -0.00374647      -0.00372898      -6.28845654
Al       7.18793183       7.16456058       4.28133977       0.00878346       0.00233232       0.00660769      -4.56161629
Ni       5.68757138       5.72608299       5.70227536       0.00555278      -0.01420451       0.00277013      -6.07039262
Al       7.16770651       7.09938967       7.12850856       0.01507889       0.00681121       0.00084999      -4.60069655
Ni       5.66871158       5.75866898       8.55811778       0.00583854      -0.01285065      -0.00627975      -6.00880186
Al       7.12088936       7.12747172       9.95504797      -0.00528115      -0.00465813      -0.00362634      -4.63373810
Ni       5.66905253       8.52279948      -0.03954434       0.00058747       0.00507660       0.00706254      -6.10801650
Al       7.11904634       9.99815116       1.34279323       0.00937704      -0.00393904      -0.00022592      -4.70427749
Ni       5.75560564       8.59983781       2.87191510      -0.00736923      -0.01311728      -0.00319955      -6.10785568
Ni       5.74510144       8.57624085       5.68426540      -0.00400126      -0.00567105      -0.00043356      -6.11010553
Al       7.15268288       9.96002567       7.14899795       0.00076523       0.00666735      -0.00458011      -4.73627526
Ni       5.68953309       8.52971199       8.54920624      -0.01521647      -0.00308457      -0.00022184      -6.13070309
Al       7.14563999       9.96578860       9.95163376       0.01314269       0.01021568       0.00235859      -4.69900494
Ni       8.63595484      -0.00811695      -0.08707530      -0.00989755      -0.00109106      -0.01546503      -5.86259078
Al       9.96430068       1.37584670       1.43969948       0.00178697       0.00297687      -0.00012822      -4.65826073
Ni       8.50091482      -0.05105926       2.89270939       0.00941758       0.00533354       0.01362650      -6.11908699
Al       9.96202446       1.39728068       4.26915773      -0.00143708       0.00802869       0.00732590      -4.73602073
Ni       8.52469842      -0.04793871       5.66735693      -0.00758010       0.00690107      -0.01115679      -6.12337680
Al       9.96552998       1.36328615       7.12504331      -0.00325478       0.00624205       0.00621810      -4.67206689
Ni       8.62408513      -0.02492518       8.60805528       0.01001211       0.00246755       0.01182787      -5.87625416
Ni       8.57385737       2.83359618      -0.02395434       0.00450064       0.00529343       0.00407957      -6.08856440
Al       9.96438090       4.26865282       1.41974346      -0.00126845       0.00063779       0.00410574      -4.66435815
Ni       8.53053254       2.86007266       2.85109998       0.00627418      -0.00203312      -0.00320854      -6.29327734
Al       9.96686195       4.32533376       4.28267173      -0.00051108       0.00930690       0.00183985      -4.60792398
Ni       8.56090809       2.81914522       5.71323277      -0.00552395      -0.00432053       0.00326207      -6.07837131
Al       9.91161102       4.30781305       7.11233647      -0.00350342       0.00157117       0.00115275      -4.54605223
Ni       8.57930385       2.82468398       8.54168739       0.00301829       0.01192693      -0.00051929      -6.01787552
Al       9.95898737       4.26029762       9.95396928      -0.00472894      -0.00314133      -0.00866196      -4.61866040
Ni       8.54480220       5.69973712       0.00086626      -0.00460109      -0.00612372       0.00598154      -6.31874369
Al       9.96404168       7.16844495       1.48924487       0.00225247       0.01379312       0.00299086      -4.66902010
Ni       8.52751759       5.69476674       2.82040139       0.01396066       0.00152301      -0.00402989      -6.08010236
Ni       8.65000936       5.81716308       5.69357272      -0.01327388      -0.01297879      -0.00065878      -5.69971357
Ni       8.54547099       5.69834216       8.53515350       0.00197384      -0.00377877      -0.00347260      -5.82985076
Al       9.95534004       7.11357514       9.93879934       0.00090049       0.00026958      -0.00914706      -4.59036434
Ni       8.58465463       8.56238484      -0.03487620       0.00815677       0.00068955      -0.00195222      -6.12984431
Al       9.97005898       9.98580950       1.41270739      -0.00101141      -0.01323260       0.00515257      -4.64520025
Ni       8.49693318       8.60077792       2.83492247       0.00969428      -0.00493021       0.00556939      -5.82353283
Al       9.96486177       9.88336012       4.27973866       0.00513937      -0.00829686      -0.01080092      -4.46870829
Ni       8.58313893       8.51671525       5.73087302       0.00324599      -0.00246510      -0.00840327      -5.73070381
Al       9.96905215       9.93613300       7.13727979      -0.00032809      -0.00783729      -0.00331460      -4.60082351
Ni       8.58173274       8.54166715       8.55869478       0.00827047       0.00314092       0.00529127      -5.86115966
