119
Lattice="11.466975598041824 -0.0013124729951109462 -0.0017703279557856233 -0.0013124827860770505 11.46252667795737 -0.0009357622373611749 -0.0017703912691734791 -0.0009357357490640525 11.462389597867944" Properties=species:S:1:pos:R:3:forces:R:3:energies:R:1 energy=-632.1946616631878 stress="-0.00013635895210147047 0.00016078170045679516 0.0003194083752999796 0.00016078170045679516 0.0005052573609170076 0.00013521068897567377 0.0003194083752999796 0.00013521068897567377 0.0004773721775443973" free_energy=-632.1946616631878 pbc="T T T"
Ni       0.01075314      -0.00033515       0.02752037       0.00678366       0.00351306      -0.00618703      -6.20844097
Al       1.48043093       1.39230373       1.41936971       0.00351783      -0.00462638      -0.00035309      -4.44121365
Ni      -0.06549220       0.00430965       2.84704705       0.00059158       0.00110247       0.00048113      -6.15844822
Al       1.44138553       1.37649943       4.28636769      -0.00316836      -0.00880683       0.00843325      -4.33737818
Al       1.36806240       1.41271385       7.11322605       0.00072874       0.00509502      -0.00152818      -4.46199537
Ni      -0.04035896      -0.00192789       8.61110199       0.00399849       0.00127308       0.00353606      -6.22314133
Al       1.45676659       1.38247567      10.06855402       0.00407318      -0.00229106       0.00146957      -4.55174838
Ni       0.00838646       2.82872473      -0.00537198       0.00701220      -0.00006320       0.00047753      -6.26531113
Al       1.41235922       4.29657490       1.43770436       0.00347486       0.00144605       0.00257763      -4.64462352
Ni       0.01539210       2.78723562       2.85283627       0.00606235      -0.00225943       0.00035509      -6.21730956
Al       1.40270850       4.23191399       4.33558341      -0.00631147       0.00168229       0.00721522      -4.54716708
Al       1.43505974       4.26367367       7.16286424      -0.00293064      -0.00025836      -0.00113986      -4.46965675
Ni       0.01277241       2.81936738       8.61973773       0.00336859      -0.00090050      -0.00466384      -6.22446958
Al       1.44549545       4.31953909       9.98841850       0.00739008       0.00566262      -0.00165387      -4.56004355
Ni       0.01701128       5.72943681      -0.03071746       0.00045032      -0.00405736       0.00807254      -6.24374172
Al       1.41008917       7.15535959       1.44326716       0.00522674       0.00118913       0.00022793      -4.63895826
Ni       0.00109934       5.72485996       2.93322808      -0.00123702       0.00361200      -0.00776976      -6.25034098
Al       1.40222068       7.22194168       4.33016550      -0.00773240      -0.00271390       0.00404045      -4.53855774
Ni       0.03479657       5.73021829       5.76010234      -0.00003954      -0.00089932      -0.00063356      -6.21499601
Al       1.43767014       7.20251800       7.15950199      -0.00279996      -0.00169581      -0.00266013      -4.45541476
Ni      -0.02911649       5.73528442       8.53537351      -0.00631434      -0.00410751       0.00912842      -6.20661563
Al       1.44793946       7.14365141       9.99072554       0.00931017      -0.00720484      -0.00278319      -4.54879353
Ni       0.00782057       8.63115398      -0.00288467       0.00405603       0.00557623       0.00138655      -6.26543903
Al       1.47574577      10.07581710       1.42612632       0.00045248       0.00545309       0.00339805      -4.43759137
Ni       0.01746217       8.67138999       2.85379587       0.00377065       0.00609540       0.00341354      -6.21680074
Al       1.44226461      10.10135952       4.27793472       0.00073562       0.00534229       0.00977031      -4.33151245
Al       1.37399662      10.05619731       7.11662777      -0.00060693      -0.00631873      -0.00120739      -4.45763830
Ni       0.01381276       8.64044670       8.61855024      -0.00095406      -0.00007129      -0.00544191      -6.22020711
Al       1.46005654      10.07890602      10.06320587       0.00284961       0.00394424       0.00104181      -4.54720577
Al       4.25978390       1.40630007       1.43101743      -0.01372955      -0.01006153       0.00215544      -4.43307315
Al       4.27419769       1.39289918       4.24301600      -0.00134301      -0.00095973       0.00332269      -4.55830044
Ni       2.87554180       0.01117381       5.76138803      -0.01007718       0.00106284       0.00245818      -6.14787294
Al       4.34749991       1.45840336       7.21710215      -0.00066241       0.00245896      -0.00387602      -4.56788385
Ni       2.85172201       0.01681195       8.54768703      -0.00064776       0.00220392      -0.00191991      -6.23313363
Al       4.29261828       1.42911428      10.02429740      -0.00691631      -0.00621204      -0.00202781      -4.47149372
Ni       2.88352447       2.90919403      -0.02730436       0.00320542      -0.00229763       0.00714173      -6.22082446
Al       4.30030215       4.30120197       1.44459320       0.00054902       0.00097921       0.00672885      -4.63744400
Ni       2.83735390       2.86987283       2.86104020      -0.00294645       0.00138936       0.00011105      -6.20846446
Al       4.28716642       4.28251874       4.30279662       0.00152375       0.00092491      -0.01010535      -4.64835725
Ni       2.89716619       2.80515419       5.74699219      -0.00522498       0.00551089      -0.00468369      -6.22866374
Al       4.27201314       4.27811577       7.21966788       0.00764338       0.00258507       0.01606938      -4.42588680
Ni       2.80102484       2.79157336       8.59358629      -0.00469648      -0.00144690      -0.00120918      -6.15813621
Al       4.28992870       4.28293298       9.94720567       0.00285674       0.00198609      -0.01112239      -4.41676924
Ni       2.86336805       5.72295383       0.01553635       0.00161941       0.00144461       0.00890607      -6.20215429
Al       4.30613132       7.15322928       1.43758344      -0.00225768       0.00101792       0.00334785      -4.63526426
Ni       2.84012399       5.72823764       2.89136973       0.00744931      -0.00512221      -0.00318308      -6.24950819
Al       4.29237008       7.17430296       4.30890382      -0.00089270      -0.00495920      -0.00814159      -4.64409512
Ni       2.82040160       5.72405153       5.70751946       0.00289538      -0.00224288      -0.00651201      -6.20612316
Al       4.24926509       7.16984964       7.18025558       0.00464407      -0.01021390       0.00846699      -4.55888421
Al       4.25783137       7.15294826       9.99283799      -0.00003238      -0.00782977      -0.00658943      -4.54736619
Ni       2.85872243       8.55831792       0.00551038       0.00582075       0.00317262       0.00471532      -6.21369378
Al       4.27047565      10.05450908       1.42707115      -0.01402884       0.01272925       0.00179539      -4.43015023
Ni       2.84199764       8.59208441       2.86109183      -0.00674782      -0.00158537       0.00309340      -6.21064907
Al       4.28270694      10.07483103       4.24723047      -0.00298778       0.00183420       0.00210808      -4.55806026
Ni       2.87651613       8.66635217       5.71561183      -0.00269008      -0.00893794      -0.00036212      -6.21428631
Al       4.31124654      10.04048372       7.17603232      -0.00161988      -0.00476544      -0.00352910      -4.64782596
Ni       2.82580539       8.67291100       8.59129810       0.00095751      -0.00197758       0.00078770      -6.21902680
Al       4.25686266      10.05870938      10.05963212      -0.00757149       0.00576015       0.00003906      -4.54685175
Ni       5.72409014       0.01957821       0.00178704      -0.00245472       0.00169094      -0.01015830      -6.21735478
Al       7.22103612       1.41664989       1.40177934       0.00816745      -0.01009343       0.00440376      -4.53768681
Ni       5.79623714       0.00195100       2.81672344      -0.00787638      -0.00220622       0.00857711      -6.22131273
Al       7.19039371       1.39700828       4.32260311       0.00423669      -0.00436756       0.00655853      -4.55169598
Ni       5.68149728       0.02230483       5.72556590      -0.00700675      -0.00145567       0.00175781      -6.21875721
Al       7.14853648       1.42358874       7.16762516       0.00163643       0.00039446      -0.00851106      -4.47424562
Ni       5.76197940      -0.03701159       8.64456558      -0.00427257      -0.00399025      -0.00861648      -6.21588005
Al       7.17369901       1.43803428      10.02654547       0.01046549      -0.00342026       0.00457752      -4.45864754
Ni       5.72979155       2.84152336       0.02264921      -0.00197943      -0.00883427       0.00692523      -6.21556861
Al       7.17021424       4.30238429       1.44924632      -0.00241498      -0.00668937      -0.00072960      -4.63897792
Ni       5.73116223       2.83498497       2.86125799      -0.00999021      -0.00042706      -0.00179056      -6.26100786
Al       7.16074525       4.30053949       4.30820376       0.00176142      -0.00327792      -0.00415966      -4.64727293
Ni       5.72918613       2.83266735       5.69878741       0.00931867      -0.00156630      -0.00393969      -6.21498901
Al       7.13398757       4.26269914       7.18603788      -0.00228675      -0.00469746       0.00079824      -4.55866139
Al       7.13882445       4.26551783       9.97486370      -0.00477320      -0.00922246      -0.00143226      -4.54823582
Ni       5.70489674       5.70391603      -0.05619221       0.00530353      -0.00114584       0.00656165      -6.25190108
Al       7.16493548       7.14902147       1.44203960      -0.00124005       0.01151254      -0.00264818      -4.63811411
Ni       5.72854003       5.72933488       2.88287244      -0.00108117      -0.00242463      -0.00685152      -6.23329251
Al       7.15647490       7.15290700       4.31357263       0.00498922       0.00494149      -0.00437220      -4.64515452
Ni       5.67999708       5.70707117       5.78538768       0.00808518       0.00139717      -0.00696122      -6.25118556
Al       7.16563676       7.17355940       7.15392016      -0.00334854       0.00144144       0.00008054      -4.64678398
Ni       5.74706530       5.76501742       8.57930698       0.01211431      -0.00120976       0.00326417      -6.12950110
Al       7.17636027       7.16348420      10.01434929      -0.00302178       0.00521822       0.00141700      -4.63765134
Ni       5.72974085       8.61821902      -0.00601485      -0.00092130       0.01091885      -0.00038665      -6.25856643
Al       7.21298025      10.04478153       1.40026357       0.00994159       0.01237557      -0.00181470      -4.53561912
Ni       5.73146713       8.62219284       2.86114057      -0.00667563      -0.00169660       0.00024464      -6.25696299
Al       7.18349832      10.06779782       4.32505158       0.00338415       0.00464192       0.00969752      -4.55033238
Ni       5.73001111       8.62969224       5.72205229       0.00798886       0.00422191       0.00240200      -6.25551086
Al       7.17507916      10.06118923       7.13502427       0.00607868      -0.00006542      -0.01294428      -4.55712608
Ni       5.72100827       8.60083421       8.60960301      -0.00294383       0.00673063      -0.00331462      -6.25815266
Al       7.20712512      10.04585550      10.06330308       0.01042190       0.00581373       0.00601994      -4.53921806
Al       9.98751833       1.41514573       1.38499589      -0.00600348      -0.00792214       0.00159545      -4.54596469
Ni       8.63060667       0.00111170       2.88955281       0.00439894       0.00094939      -0.00013499      -6.22434289
Al      10.04883694       1.41583314       4.37423556      -0.00643654      -0.00176386       0.01080524      -4.28593761
Al      10.05219506       1.41218627       7.09621441       0.00046087       0.00047349      -0.01162349      -4.28085832
Ni       8.60839984       0.01394674       8.57333932       0.00305467       0.00138700       0.00054269      -6.22973686
Al      10.00118630       1.39723083      10.07307081      -0.00543513      -0.00929204      -0.00021725      -4.55057121
Ni       8.58088266       2.91581275      -0.02821567      -0.00522443      -0.00267992       0.00482897      -6.20266386
Al      10.05141970       4.28863961       1.44420440      -0.00258432      -0.00019527      -0.00195837      -4.64998067
Ni       8.62706422       2.82596632       2.90629063      -0.00017661      -0.00382904      -0.00680467      -6.26755760
Al      10.07582491       4.24519783       4.33667054       0.00325361      -0.00063368       0.00517268      -4.54731494
Ni       8.56396046       2.87290205       5.75125723       0.01022514       0.00356785       0.00143748      -6.14869440
Al      10.06961324       4.24612169       7.13570149       0.00290422      -0.00262091      -0.00654849      -4.54754991
Ni       8.65165291       2.81343484       8.56270234       0.00326888      -0.00320334       0.00009224      -6.23047503
Al      10.04606080       4.29012861      10.00860896      -0.00214403       0.00048420       0.00374072      -4.64440893
Ni       8.60871938       5.71943970      -0.00966339      -0.00287190       0.00275171      -0.00433842      -6.23960150
Al      10.05499257       7.15946845       1.44891765      -0.00529845       0.00102267      -0.00157810      -4.64451396
Ni       8.63114040       5.72547150       2.90210411      -0.01131254      -0.00022365      -0.01440064      -6.24166132
Al      10.07631546       7.20439029       4.33212738       0.00284275       0.00416495       0.00640773      -4.54081571
Ni       8.64650621       5.72161723       5.74075289      -0.00490198      -0.00017876      -0.00171088      -6.25769387
Al      10.05792944       7.20872015       7.14018172       0.00452086       0.00308424      -0.00949122      -4.54469994
Ni       8.60179833       5.70987867       8.56207039       0.00150754      -0.00202642       0.00469348      -6.25639187
Al      10.03793845       7.16537007      10.00640271      -0.00313315       0.00065048       0.00456586      -4.64561122
Ni       8.60574463       8.54488682       0.00276562      -0.01121249       0.00082741      -0.00519223      -6.19530409
Al       9.99269115      10.04779216       1.39388764      -0.00347500       0.00737080      -0.00176115      -4.54152656
Ni       8.62137736       8.62884347       2.90336965       0.00421349       0.00864716      -0.00514489      -6.26755165
Al      10.05347783      10.04651508       4.36683363      -0.00832368       0.00148641       0.01109620      -4.28169672
Ni       8.58212453       8.59004876       5.72600915       0.00392209      -0.00619862       0.00806844      -6.13411997
Al      10.04340753      10.04584115       7.10414928       0.00209084       0.00109504      -0.01847833      -4.27963063
Ni       8.61916271       8.64570738       8.56435448       0.00163446       0.00182904      -0.00161709      -6.26884625
Al       9.99774112      10.05770007      10.06747592      -0.00722133       0.01530710       0.00630955      -4.54856831
