179
Lattice="14.040168974301311 -0.008826781246488677 0.001252260969252383 -0.008825016984277456 14.028209251826006 0.008869448747834897 0.0012510490072639993 0.008863488710513137 14.05517392208121" Properties=species:S:1:pos:R:3:forces:R:3:energies:R:1 energy=-854.6471685331059 stress="0.00013000093851409192 0.00039418488925701666 5.232604470315683e-05 0.00039418488925701666 0.0007642132244609322 -0.000964014499840868 5.232604470315683e-05 -0.000964014499840868 -0.0006377896315114794" free_energy=-854.6471685331059 pbc="T T T"
Al       1.30302552       1.47174781       1.41083946       0.00042753      -0.00412451      -0.00074324      -4.17930235
Al       1.41127448       1.37836972       4.15306689      -0.00225805      -0.00617571       0.00253193      -4.24110973
Ni      -0.09381008       0.00339015       5.58469139       0.00154593       0.00802418      -0.00503312      -6.15827752
Al       1.37348873       1.41003458       7.04905703      -0.00251400      -0.00175790       0.00608113      -4.38745441
Al       1.30644244       1.51075979       9.91871594      -0.00595684       0.00463506      -0.00109920      -4.07440470
Al       1.27698596       1.45629311      12.64160190      -0.00121518       0.00283278       0.00122522      -4.13751362
Al       1.42773056       4.22039212       1.36229876       0.00551218      -0.00012538       0.00067245      -4.21267741
Al       1.45175008       4.18983246       4.18316910      -0.00549536      -0.00278542       0.00538273      -4.12827235
Ni       0.01735102       2.74820907       5.55020612      -0.00574946      -0.00029660      -0.00032993      -5.99067095
Al       1.35961923       4.20677771       6.98174170       0.00652465      -0.00264903       0.00259439      -4.19220984
Al       1.33776566       4.23371517       9.90919473      -0.00164003      -0.00399900      -0.00124700      -3.89734594
Al       1.43966211       4.24269458      12.61225303       0.00735256      -0.00207602       0.00200470      -3.99742937
Ni      -0.04099732       5.55422295      -0.03007162      -0.00126508       0.00589891       0.00160129      -5.89985763
Al       1.36261639       7.00013745       1.38746583       0.00534559      -0.00153841       0.00456994      -4.23294411
Al       1.41774453       7.05097774       4.24279294       0.00320878       0.00085765       0.00434473      -3.99771189
Al       1.39794498       7.02152687       7.04928519      -0.00235045       0.00113010      -0.00852942      -3.92216162
Al       1.47586101       6.98013887       9.85598525      -0.00201188      -0.00414243       0.00417681      -4.24212604
Al       1.38456827       7.01823713      12.65829587       0.00545756      -0.00436522       0.00396511      -4.00374774
Al       1.55410297       9.82366570       1.51494146       0.00703160       0.00619795      -0.00574839      -4.16270044
Ni       0.07112866       8.49858588       2.79832562       0.00290821      -0.00150757       0.00672432      -5.76911999
Al       1.39700084       9.86546508       4.31531251      -0.00372787       0.00096554       0.00148192      -3.95315911
Al       1.42356985       9.79870489       7.02684415      -0.01069913      -0.00347002       0.00776162      -4.25140598
Ni      -0.00858465       8.42609898       8.53762449       0.00139282       0.00016729       0.00408680      -6.02383689
Al       1.45248674       9.86379286       9.91819699      -0.00503832       0.00070275      -0.00235519      -4.35409512
Ni       0.05257495       8.43228063      11.18442342       0.00048763       0.00612033       0.00588231      -5.90959137
Al       1.32137908       9.83583349      12.73227938      -0.00530205      -0.00089833       0.00067532      -4.07987130
Al       1.34748225      12.58367428       1.38722734      -0.00695672       0.00111127      -0.00124329      -4.12565125
Al       1.34371473      12.63959209       4.13398386      -0.00181289       0.00138888       0.00617536      -4.24257040
Ni      -0.00461825      11.34052431       5.67164380       0.00169822      -0.00029394      -0.00201352      -6.03025174
Al       1.37556076      12.72846108       7.07205555       0.00314819       0.00215855      -0.00304276      -4.48903807
Ni      -0.00554957      11.18836343       8.42752923       0.00206403      -0.00081591      -0.00163181      -6.08325067
Al       1.32085891      12.65495234       9.91498094      -0.00594603      -0.00054209      -0.00000299      -4.32155758
Al       1.33058880      12.59172179      12.67070323       0.00270612      -0.00076494       0.00024913      -4.09941746
Ni       2.73245563       0.06324882       0.00472747      -0.00173325       0.00330954       0.00069722      -6.27467448
Al       4.25463312       1.44304564       1.41533564       0.00121519       0.00159208      -0.00133357      -4.41150451
Ni       2.75488327       0.00100403       2.72123325       0.00007915       0.00373346       0.00102683      -5.90966890
Al       4.23175921       1.42042554       4.16182398       0.00161666       0.00356332      -0.00046116      -4.13910052
Al       4.15404882       1.43080971       6.93227655      -0.00179275       0.00288215      -0.00343913      -4.42236573
Ni       2.76171923       0.09916500       8.54764117      -0.00187156      -0.00465117       0.00100794      -6.16503734
Al       4.21690145       1.48814408       9.93878218       0.00680617       0.00617262       0.00145685      -4.55694791
Ni       2.74598397       0.03346854      11.30512748       0.00436203       0.00430519       0.00488239      -6.12451988
Al       4.28056087       1.42991808      12.66982692       0.00349043       0.00030143      -0.00262130      -4.33761015
Ni       2.79223217       2.75890519      -0.05124110       0.00067999      -0.00177428      -0.00192654      -5.91797289
Al       4.17676673       4.19261096       1.38453913      -0.00989613      -0.00297115       0.00766229      -4.20565223
Al       4.26135561       4.25555332       4.16092329       0.00982951       0.00351596       0.00271341      -4.17802872
Al       4.18108522       4.18582919       6.87066079      -0.00192336       0.00089396       0.00170533      -4.45831329
Ni       2.78660833       2.85807800       8.45133866       0.00611053       0.00036788      -0.00447552      -6.13729789
Al       4.19996515       4.20125788       9.94809560       0.00641482       0.00302211      -0.00420204      -4.24498601
Al       4.24750800       4.20567014      12.63604488      -0.00175317      -0.00158584      -0.00496863      -3.72954375
Al       4.19074866       6.98881167       1.30277033      -0.00224211      -0.00321367      -0.00384701      -3.75967373
Ni       2.79788721       5.64018985       2.79901401       0.00342448       0.00262904       0.00214827      -5.77552370
Al       4.18776185       7.05478105       4.10208179      -0.00212707       0.00119623      -0.01095941      -4.26071594
Al       4.12940364       7.04035031       7.01476690       0.00239851       0.00224313       0.00230347      -4.33467371
Ni       2.81466251       5.52851195       8.43804619       0.00098260      -0.00277729      -0.00326606      -6.01320124
Al       4.21930723       6.97262807       9.83608570       0.00159262       0.00027757      -0.00230912      -4.23625656
Al       4.11595387       6.90878351      12.66256934      -0.00322076      -0.00177321      -0.00520962      -3.69976232
Al       4.27967280       9.70217499       1.46581237       0.00174244      -0.00020679      -0.00319539      -3.89525918
Al       4.08875822       9.84747863       4.13838712       0.00672410       0.00417229      -0.00142356      -3.86954726
Al       4.11998031       9.78271006       7.01753993       0.00520213      -0.00178677      -0.00147830      -4.29815195
Al       4.17696670       9.78568571       9.87667916      -0.00339394       0.01109033      -0.00410396      -4.19270885
Al       4.13356055       9.73752005      12.67139542       0.00556046      -0.00177955       0.00855316      -4.25238255
Ni       2.84933374      11.18339052       0.01283260       0.00134077      -0.00618256       0.00905707      -5.99309952
Al       4.23933432      12.65610207       1.43913067       0.00464946      -0.01506826      -0.01073096      -4.36963636
Al       4.14139498      12.66056229       4.18261122       0.00804075       0.00542745       0.00920966      -4.20877099
Al       4.12374009      12.68217888       7.01614929      -0.00647903      -0.00397254       0.00071450      -4.56591357
Ni       2.78813357      11.25689622       8.47865588       0.00176037       0.00080555       0.01049943      -6.13540468
Al       4.20498665      12.63371675       9.92183988      -0.00419345      -0.00231927       0.00468296      -4.56518977
Al       4.22894282      12.66328228      12.66612313       0.00240752      -0.00203345      -0.00229054      -4.49448720
Al       7.08754024       1.44380541       1.39270988       0.00304262      -0.00525766      -0.00012682      -3.94708595
Al       7.00674774       1.39499963       4.13359652      -0.00278100      -0.00075004      -0.00138099      -4.35325952
Ni       5.64075635      -0.02322982       5.62129359      -0.00044240      -0.00429253       0.00208279      -6.06078603
Al       7.04199034       1.47509233       6.97674297       0.00584711       0.00014928      -0.00491155      -4.31948090
Ni       5.58917575       0.08572046       8.43682469      -0.00240036       0.00804269      -0.00493472      -6.25078161
Al       7.07943957       1.45462928       9.80411567      -0.00399536      -0.00191363      -0.00759508      -4.47069965
Ni       5.70885049      -0.00031333      11.24958886       0.00293136      -0.00079239      -0.00062797      -6.11139060
Al       7.00902855       1.38887849      12.78454324      -0.00000867      -0.00164765       0.00245129      -4.07826072
Al       6.98436012       4.30872314       1.42341327      -0.00221483       0.00013648       0.00383421      -4.12163660
Ni       5.67965870       2.85261517       2.76356316      -0.00160951       0.00551080       0.00912028      -5.78586912
Al       7.05600473       4.23777907       4.24013839       0.00139399      -0.00382213       0.00472588      -3.93649509
Al       7.07322821       4.21078424       6.97141236      -0.00322554       0.00309499      -0.00237032      -4.23564651
Ni       5.56549301       2.82205611       8.40540387       0.00736918      -0.00276908       0.00148929      -6.14601997
Al       6.98929127       4.14602280       9.87414884      -0.00347601       0.00507890      -0.00795482      -4.52858563
Al       6.95853210       4.14165043      12.71794798      -0.00486452       0.00330170       0.00340391      -4.11098567
Al       6.92244870       7.07276386       1.39985691       0.00245333      -0.00668129      -0.00018219      -4.12797323
Al       7.02706377       7.01818124       4.12838652       0.00587683      -0.00576005       0.00067969      -4.32884975
Ni       5.60514612       5.72277784       5.60205260      -0.00044827       0.00140810      -0.00096220      -6.01722205
Al       6.98534876       7.07203245       7.04602898       0.00105132       0.01197419      -0.00511645      -4.62196598
Ni       5.57733903       5.52039463       8.37516784       0.00531025      -0.00320335       0.00321085      -6.20432453
Al       6.95999597       7.00675102       9.90881200      -0.00165613       0.00480397       0.00518216      -4.42812710
Al       7.01051692       7.01945575      12.61334218      -0.00210389      -0.00834065       0.00782663      -4.41334572
Al       7.04382050       9.92756837       1.34603452       0.00511562       0.00007612       0.00263574      -4.35302368
Al       6.95948396       9.87662384       4.14268355      -0.00519889      -0.00180788      -0.00215381      -4.57449526
Ni       5.53519840       8.41236214       5.54446176      -0.00297455       0.00084898       0.00127115      -6.11602998
Al       6.95827474       9.78443796       7.03521571      -0.00169349       0.00573227       0.00044077      -4.65605013
Al       6.93147135       9.76084080       9.89047864       0.00735051      -0.00380715      -0.00019651      -4.35261502
Ni       5.50092188       8.36163926      11.29790458      -0.00593859      -0.01243091      -0.00033464      -5.77827810
Al       6.94164420       9.74074787      12.69155078       0.00166257      -0.00366365      -0.00512791      -4.12817376
Ni       5.51498393      11.20438406       0.02493650      -0.01188236      -0.00125873       0.00332367      -5.92001133
Al       7.00771813      12.66785717       1.33025629      -0.00797392       0.00793957       0.00884499      -4.22057186
Al       6.96836634      12.61558298       4.15394662       0.00034259       0.00325437       0.00172735      -4.58747813
Ni       5.53557993      11.21318967       5.59760290      -0.00196027       0.00340089       0.00444138      -6.13014272
Al       7.03248045      12.63847850       7.06534424       0.00318136      -0.00245249      -0.00029592      -4.66118035
Ni       5.53685207      11.24792400       8.42684053      -0.00474331       0.00110144       0.00648971      -6.15305525
Al       7.07320859      12.63740864       9.80711529      -0.00480350       0.00389404       0.00464340      -4.46415165
Al       7.02408835      12.49651419      12.63038377       0.00101127       0.00589087       0.00151945      -4.21107674
Al       9.91421285       1.45404697       1.41060506      -0.00407612       0.00242676      -0.00430451      -3.67653177
Ni       8.49493352      -0.04906833       2.74742248      -0.00503993       0.00112119       0.00120726      -5.99060762
Al       9.82844182       1.47205697       4.17242360      -0.00088627      -0.00166415      -0.00421461      -4.33760415
Ni       8.44877725       0.01190471       5.56048839       0.00620460       0.00095444      -0.00207347      -6.17414145
Al       9.76293961       1.43542663       7.08357570       0.00133826      -0.00128986       0.00149700      -4.33740033
Al       9.89975931       1.40357475       9.87104242      -0.00199109      -0.00170401       0.00450183      -4.33747379
Ni       8.44342858       0.05433164      11.32975213       0.00141747       0.00233383      -0.00158149      -6.16154143
Al       9.89365899       1.39798869      12.76936845      -0.00634510      -0.00466212      -0.00049039      -4.12533884
Al       9.77362631       4.16584642       1.43828397      -0.00320958      -0.00588394      -0.00329161      -4.11428350
Al       9.78601849       4.16480825       4.21957637      -0.00395240      -0.00079978      -0.00419113      -4.07849071
Al       9.84035572       4.28670722       7.08450699       0.00782138      -0.00378452      -0.01022486      -4.33434982
Al       9.85240712       4.12962003       9.82257178       0.00695749      -0.00111717       0.00143274      -4.43714557
Ni       8.43359498       2.74743082      11.33744097      -0.00578650      -0.00178160      -0.00034135      -6.08186307
Al       9.87935668       4.10454943      12.74126069       0.00354629       0.00900876       0.00532998      -4.50546211
Ni       8.37786437       5.62714383      -0.02370975      -0.00657197       0.00574591      -0.00235670      -6.04387167
Al       9.86620543       7.00789831       1.45186427      -0.00346914       0.00507622      -0.00065881      -4.58728869
Al       9.80811814       6.99897812       4.10826558      -0.00043910       0.00361950      -0.00113312      -4.48912701
Al       9.78984513       6.95328011       6.99804458       0.00121427       0.00391378      -0.00862391      -4.48263303
Ni       8.36384991       5.67724714       8.51033937      -0.00362390       0.00257198       0.00001021      -6.08861871
Al       9.86896151       7.00762011       9.88042774      -0.00105889      -0.00088195       0.00231502      -4.37826834
Ni       8.45900055       5.46842400      11.28919251       0.00343436       0.00180244       0.00085052      -6.19125026
Al       9.85758468       7.02599845      12.63274457       0.00327661      -0.00726865       0.00167939      -4.66627975
Ni       8.47790183       8.38928396       0.05785319       0.00081857       0.00249782       0.00620562      -6.08552192
Al       9.94965750       9.91999876       1.40828814      -0.00516580       0.00112742      -0.00007527      -4.38794139
Ni       8.40454467       8.53496224       2.75552838       0.00947825       0.00054569      -0.00379446      -6.14739925
Al       9.94551744       9.86631951       4.18922194      -0.00049832      -0.00289896       0.00910293      -4.44947169
Ni       8.44994910       8.47607316       5.54123734       0.00123146      -0.00208408       0.00001219      -6.24796788
Al       9.92491747       9.81642087       7.03468461      -0.00400661       0.00180499       0.00199951      -4.44014410
Ni       8.46425870       8.42085278       8.46218147       0.00017464      -0.00209459      -0.00159316      -6.12910954
Al       9.88650383       9.77168224       9.94023849       0.00484965       0.01067598       0.00405684      -3.87690924
Al       9.73222068       9.89834537      12.61842633      -0.00247701      -0.00710331      -0.00577059      -3.95055314
Al      10.00465734      12.68805155       1.36936341      -0.00120761       0.00017320      -0.00593252      -3.92035184
Ni       8.51137107      11.31026805       2.77425913      -0.00513758       0.00134728      -0.00466410      -6.11927322
Al       9.90699004      12.62632371       4.23259370       0.00159999       0.00914285      -0.00220010      -4.41511505
Ni       8.42211043      11.23287848       5.63073146      -0.00049636      -0.00169086       0.00014330      -6.23456381
Al       9.82524751      12.63932311       7.11106589       0.00380617      -0.00465557      -0.00861977      -4.29664138
Ni       8.42878407      11.09968040       8.47932419       0.00138482       0.00423365      -0.00784694      -6.04041813
Al       9.78878820      12.56900326       9.89732898       0.00043284       0.00126825       0.00081216      -4.17442282
Al       9.79407531      12.58223083      12.76122944       0.00106603      -0.00539661       0.00364955      -3.89644761
Al      12.63550646       1.28953789       1.40208728      -0.00469463      -0.01156672      -0.00696660      -3.42057805
Al      12.59560595       1.40242529       4.10296007      -0.00082341       0.00293439      -0.00392716      -4.27845432
Ni      11.21668210       0.06801654       5.63261740       0.00482547      -0.00363428      -0.00342549      -6.16429091
Al      12.67054553       1.38488701       7.12020844       0.00225805      -0.00705161      -0.01469545      -4.45476773
Al      12.63388345       1.33021811       9.87950287       0.00350811      -0.00124154       0.00536386      -3.92503011
Ni      11.22108430      -0.09663375      11.33142138      -0.00545683      -0.00357265      -0.00476086      -5.90724872
Al      12.63505897       1.36217963      12.71251150       0.00105645       0.00278556      -0.00157392      -3.70887442
Al      12.69782090       4.05666995       1.42989732      -0.00081951      -0.00069121       0.00045946      -4.19586288
Al      12.71622919       4.18635075       4.17264219      -0.00074352      -0.00409009      -0.00215839      -4.36236535
Ni      11.27598297       2.83271559       5.68365275       0.00539643       0.00388011      -0.00156107      -6.20315598
Al      12.70779272       4.25181863       7.04573186      -0.00412586       0.00068432       0.00237502      -4.23962497
Ni      11.27042242       2.77807518       8.41234051      -0.00887625       0.01392514      -0.00656652      -5.91240812
Al      12.66253198       4.15222726       9.84299358      -0.00069020       0.00308624       0.00108135      -3.96730526
Al      12.69897499       4.08141946      12.61084001      -0.00454571       0.00432880       0.00150704      -4.20200857
Ni      11.33575564       5.55241838       0.04581763      -0.00487288      -0.00413913      -0.00944836      -6.24736544
Al      12.66555764       7.07466942       1.41812643      -0.00778100      -0.00685954      -0.00890264      -4.49040141
Ni      11.26305111       5.52293666       2.78844179       0.00941784      -0.00139710      -0.00345398      -6.06953584
Al      12.69717816       7.04242998       4.13162962       0.00590847       0.00078013       0.00999296      -4.38961003
Ni      11.27712750       5.63076437       5.52957191       0.00716115       0.00115983      -0.00509558      -6.16700974
Al      12.68168657       6.98308794       7.06559954      -0.00125696       0.00213892       0.00170991      -4.22093362
Al      12.62732220       6.94328581       9.86963159       0.00610916      -0.00267132      -0.00243400      -4.26288062
Ni      11.24706836       5.55414463      11.29825878       0.00101759      -0.00201971       0.00405109      -5.98726302
Al      12.65562950       7.06863241      12.62509156      -0.00124918      -0.00872089       0.00935240      -4.47566698
Ni      11.18795081       8.50758548      -0.03409700       0.00778922      -0.00285608       0.00491229      -5.95516446
Al      12.74622475       9.84125925       1.31975582      -0.00490777       0.00584122       0.00104105      -4.01996362
Al      12.66161221       9.82278020       4.23248167      -0.00734430       0.00312040      -0.00386195      -4.14915100
Ni      11.22404221       8.32215791       5.62229993      -0.00269207      -0.00388821      -0.00634454      -6.01248180
Al      12.65183140       9.74429383       6.98024366       0.00863381      -0.00126559       0.00931142      -4.37255958
Al      12.56315286       9.81315857       9.83691917      -0.00629751      -0.00159622      -0.00028666      -4.08367050
Al      12.57418794       9.83970013      12.54808320       0.00484242       0.00304498      -0.00093468      -3.97926212
Al      12.71148849      12.58062605       1.49794170      -0.00009959      -0.00481318       0.00047865      -3.38242305
Al      12.55289382      12.58775139       4.19511193      -0.00725991      -0.00269358       0.00293303      -4.10962413
Al      12.54843720      12.62838188       7.12965217       0.00747689      -0.00041231       0.00606142      -4.32444968
Al      12.61191799      12.54061531       9.93426131       0.00009601      -0.00323255      -0.00414093      -4.03522919
Al      12.61786685      12.56778054      12.82084543      -0.00579475       0.00181660      -0.00123436      -3.70927995
