128
Lattice="12.23015912351191 -0.13336968092121362 0.002157539139487364 -0.12767359474701356 11.781173359424582 -0.1808420687372312 -0.015111288947075939 -0.16936730405985606 12.889665140975099" Properties=species:S:1:pos:R:3:forces:R:3:energies:R:1 energy=-602.2497782061157 stress="-0.0003670908243080487 0.00033969393615107676 -2.3082121365233422e-05 0.00033969393615107676 -1.1594375054441838e-05 0.00010118788589349226 -2.3082121365233422e-05 0.00010118788589349226 0.00015754811833396703" free_energy=-602.2497782061157 pbc="T T T"
Al       0.51510459       1.24943073       0.84012566       0.00049114      -0.00771487       0.00330909      -3.81302778
Al       2.29038989       1.09656746       2.75182389       0.00101478       0.00362458       0.00770116      -4.09431938
Al      -0.24985746       0.28114842       3.42161313      -0.00547160      -0.00181621       0.00193940      -3.65078415
Al       1.72440517       1.48360437       5.28487294       0.00055516       0.00342574       0.00210122      -3.95387435
Al      -0.30748905      -0.19032635       6.09542238       0.00219139       0.00311102       0.00429239      -3.87892800
Al       1.24863184       1.43080301       9.10423897      -0.00910244       0.00707956      -0.00012666      -4.16354968
Al      -0.26866206      -1.06182936       9.92725628      -0.00024306       0.00596171      -0.00519764      -4.11599598
Al       2.38118114       0.99582411      11.59885302       0.00076246       0.01162612      -0.00183927      -4.35749068
Al      -0.62315133       3.62849193       0.54759766       0.00511362       0.00398789       0.00516919      -3.91435333
Al       2.30723642       3.58791814       1.21122805       0.00332676      -0.00362914       0.00242716      -4.03968688
Al       0.37644882       3.25769200       3.14136662      -0.00062404      -0.01155926      -0.00724468      -4.09286940
Al       1.37135804       4.34639361       5.35050193       0.00466493       0.00178986       0.00085852      -4.15682575
Al      -0.10219233       2.54579487       6.95376710      -0.00449683       0.00372622       0.00211552      -3.79532913
Al       1.91209491       4.24460352       8.62481048       0.00363545      -0.00463862      -0.00372100      -4.38266328
Ni      -0.27700764       3.38935104       9.23630405       0.00162614       0.00162989       0.00063647      -6.10283025
Al       1.18044571       3.67537163      11.32084978       0.00009042      -0.00517818       0.00264936      -4.28545803
Ni      -0.22270770       5.71210104      -0.54762170       0.00075920      -0.01222260       0.00758569      -6.00059286
Al       0.78158758       5.88502226       1.80030408       0.00428945       0.00629083       0.00238411      -4.10758668
Ni      -0.26606227       5.64705011       3.97427435       0.00391103       0.00101485       0.00024654      -5.92622845
Al       1.51164907       7.14160038       4.93255766      -0.00415551      -0.01106084       0.00596219      -4.43419028
Al      -0.07826797       5.30402329       7.37888550      -0.00110874       0.00621919      -0.00226411      -3.83134227
Al       1.14510689       7.83401210       7.75282049      -0.00400558       0.00728251       0.00334230      -4.49897579
Al       0.18537870       6.05187233       9.98576425       0.00210749       0.00167887      -0.00576863      -4.34093641
Al       1.46625037       8.55145870      10.48112948       0.00344522      -0.00930693       0.00395041      -4.29632314
Al       0.07364756       8.01875535       0.38787213       0.00117447      -0.00362457       0.00051915      -4.05329346
Al       1.21384314      10.22835094       1.94133426      -0.00465147      -0.00355686      -0.00031142      -4.09140984
Ni       0.49619884       8.09386372       2.89050676      -0.00242930       0.00594621       0.00453172      -5.86016649
Al       1.94690512      10.46395924       4.54988432      -0.00139601      -0.00027774       0.00125602      -4.22508901
Ni       0.34348230       9.15429507       5.72622356      -0.00713818      -0.00483218       0.01225621      -5.90502179
Al       1.66571477      10.53914426       7.49011233       0.00606271      -0.00385007      -0.00580601      -4.47829591
Ni      -0.83452920       8.32877279       9.57552980      -0.00089674       0.00156854      -0.01051973      -6.00837256
Al       0.85036007      10.51727187      12.17450398       0.00716212      -0.00326520       0.00586308      -3.97593156
Ni       2.75283752      -0.10911536       0.78152472      -0.01403654      -0.00225962      -0.00136774      -5.91774573
Al       4.42387537       1.72999188       0.85762375      -0.00631394       0.00036311      -0.00698602      -4.12495601
Al       4.06844045      -0.99950966       2.54994356      -0.00577799      -0.00220688      -0.00254920      -4.05087143
Al       4.54497094       1.17095259       4.41115172       0.00747061      -0.00616500       0.00439151      -4.13107698
Ni       3.46939832      -0.02396895       6.29619760       0.00203466       0.00164257       0.00442178      -6.10923473
Al       3.72813087       0.41200100       8.83587116       0.00617221      -0.01052293      -0.00143196      -4.31595134
Ni       2.07223992      -0.81249635      10.08529614       0.00162568      -0.00295628       0.00067548      -5.91858636
Al       5.09893636       1.52266835      11.12013987      -0.00762232       0.00392539      -0.00170528      -4.10750056
Ni       3.42646617       3.20227836      -0.83582242      -0.00355605       0.00246180      -0.00848250      -5.58852803
Al       5.14226357       4.41690935       0.36845911       0.00562443       0.00313561       0.00060350      -4.20523552
Ni       2.83515984       3.17778364       3.71225511       0.00405038      -0.00262202      -0.00306892      -6.03362344
Al       4.00099430       4.70968934       5.30247975       0.00442685      -0.00288846      -0.00393741      -4.12944792
Al       3.51053423       2.35920444       7.04416001       0.00523744       0.00818404      -0.00720870      -4.03030882
Al       4.45293090       4.70080651       7.96857729      -0.00270794      -0.00293048      -0.00052322      -4.18618162
Ni       3.48262599       2.73003484       9.53147388      -0.00870521      -0.00500396       0.00452564      -6.15659317
Al       4.03142043       4.86253764      10.66785020       0.00752143       0.00736499       0.00494072      -4.43760187
Al       2.10494689       6.53671605      -0.84569735       0.01134710       0.00571357      -0.00800776      -3.92627898
Al       4.46438075       7.12456199       0.79095822       0.00320320      -0.00074573       0.00048006      -4.00009864
Al       3.38990146       5.50286359       2.72696713      -0.00558777      -0.00210599      -0.00282094      -3.74358007
Al       4.39651150       7.35832640       4.92318714      -0.00222412       0.00474044      -0.00370352      -4.12738758
Ni       2.48409815       5.92008810       6.87450769       0.00304420      -0.00015384      -0.00537259      -6.01433015
Al       4.48700810       7.32101974       7.72758880       0.00260830       0.00990693      -0.00021594      -4.59683476
Ni       2.56109173       6.53827349       9.43819226      -0.00464849      -0.00809732       0.01032708      -6.09510967
Al       4.42671297       7.63737960      10.54906269       0.01667915      -0.00206334       0.00164538      -4.58098651
Al       3.37078584       9.41793587      -0.00056317      -0.00241849       0.00512856      -0.00599967      -3.99575105
Al       5.74801988      11.19084331       0.36112680      -0.00226738      -0.00395889       0.00879761      -4.13944581
Al       2.95035857       8.20273458       2.70860667      -0.01153929      -0.00594171      -0.00297359      -3.72173349
Al       4.76322974      10.11267947       4.81116843       0.00108441      -0.00164111       0.00649792      -4.29896928
Ni       2.87365972       8.81992077       6.20101438       0.00064312       0.00743713       0.00228991      -6.09977649
Al       4.67328689      10.03017693       7.43746389      -0.00115400      -0.00025543      -0.00010505      -4.42581731
Ni       3.15639310       8.96295709       8.88437561       0.00139317       0.00522185      -0.00421607      -5.91877256
Al       4.39392406      10.36812981      10.51235991      -0.00009301       0.01097428       0.00136307      -4.33103069
Ni       8.10863736       0.28259608       0.08427583       0.00164331       0.00158467      -0.00240766      -5.95307532
Al       7.07965347       1.48428194       2.10051599      -0.00374188       0.00151822      -0.00301473      -4.27993574
Ni       6.24425343      -0.44534402       3.36119949       0.00187158      -0.00549409      -0.00907755      -5.98529221
Al       7.58474848       0.91436441       4.96146119      -0.00525308      -0.00388985       0.00151180      -4.26076257
Al       5.70932719       0.60678962       6.85528595       0.00290299       0.00214231       0.00313410      -4.02603374
Al       8.17814171       1.37964847       7.81322257       0.00001530      -0.00125522       0.00695200      -4.12676230
Ni       6.11858441      -0.08081372       9.23343567       0.00063796      -0.00224973      -0.00263732      -6.23519402
Al       7.65769168       1.20088735      10.65202264       0.00315114       0.00304687      -0.00122892      -4.35719269
Ni       6.74441761       2.49777543      -0.10113877       0.00356643       0.00266614       0.00943545      -5.94034880
Al       7.62657706       4.01324502       1.66044334      -0.00105602      -0.00626092       0.00513136      -4.29554608
Al       5.19160410       3.46674421       3.05912724       0.01314543      -0.00580802      -0.00248622      -3.80207881
Al       7.76963556       4.73701422       4.44705159       0.00325885       0.00011931      -0.00258624      -4.50216428
Al       6.03723284       3.11847429       5.90684506      -0.00707220       0.00133300      -0.00851556      -3.99785633
Al       7.20138596       4.53378889       7.81906664      -0.00070181       0.00134817       0.00288895      -4.31727243
Al       5.78638726       2.45203219       8.76001308      -0.00223169       0.00315503      -0.00055065      -3.98310808
Al       7.28172276       4.35529876      11.35381791      -0.00850554      -0.00128105       0.00181812      -4.32277207
Ni       5.73930597       6.29124834      -0.98522425      -0.00654849       0.01281436      -0.00832285      -5.67738143
Al       7.34425935       7.06956781       0.54799205      -0.00078383      -0.00514816       0.00355096      -4.52460464
Al       5.98653792       6.16747082       2.99541065       0.00220351      -0.00905798       0.00111149      -3.93205715
Al       7.94166085       7.33042550       4.69749010       0.00353114       0.00448709      -0.00154939      -4.43867741
Ni       6.12742251       5.87689378       5.89455954      -0.00259182       0.00625447      -0.00270402      -6.11137200
Al       7.29141868       7.23707106       7.83489035       0.00221021      -0.00599156      -0.00082524      -4.58965960
Ni       5.95166349       5.94473279       9.42106306      -0.00430674      -0.00547635       0.00029119      -6.05232443
Al       7.31002411       7.52048713      10.67913359      -0.00377828       0.00748267      -0.00358214      -4.39567035
Ni       5.80781540       8.86978535      -0.47070042      -0.00408323       0.00076229       0.00042647      -6.22313640
Al       8.12946935       9.59957627       0.24058635      -0.00304629      -0.00340363       0.00051382      -4.35230179
Al       6.14524017       9.04904083       2.19914295       0.00130856      -0.00920839       0.00553869      -4.12420362
Al       7.57018348       9.97553085       4.70993994      -0.00162099       0.00513772       0.00060034      -4.28576769
Ni       6.16912245       8.54281096       6.15156784       0.00187216       0.00092579      -0.00034345      -6.03480445
Al       7.40583170      10.31376288       7.50944733      -0.00689516      -0.00276982       0.00202210      -4.47686309
Ni       6.00317956       8.98800021       9.13295542       0.00300529       0.00088619      -0.00471410      -6.14406206
Al       7.18516491      10.38101724      10.81016092      -0.00263329      -0.00697968      -0.00529450      -4.35523504
Al      10.47657821      -0.03302467       0.30012201      -0.00050851      -0.00116146      -0.00020272      -3.96403398
Al      10.26552436       1.76389492       2.23057455      -0.00341983       0.00331159       0.00461985      -3.86299637
Al       8.65620126      -0.59402359       2.53072132      -0.00446521      -0.00099568      -0.00045257      -4.09160161
Al      10.16617928       1.48556927       5.17852698       0.00550619       0.00844862       0.00602051      -4.20809602
Ni       9.38235630      -0.54554404       6.40046411       0.00001780       0.00072022      -0.00401498      -6.01302925
Al      10.48845544       0.33772268       8.42691788       0.00525503      -0.00948120       0.00869675      -4.10405493
Ni       9.73720754      -0.31730947      10.89686083      -0.00091067      -0.00131846       0.00498244      -6.06435106
Al      11.55272669       1.42915974      11.08531962       0.00770698      -0.00500761      -0.00047112      -4.22453712
Al       9.17221589       2.47727819      -0.42245043      -0.00483542       0.00463344       0.00013004      -4.21193986
Al      10.15626597       4.40734645       2.78803549       0.00897964      -0.00977362       0.00282737      -4.10760506
Ni       8.63341616       2.67406978       3.65560429      -0.00343300       0.00225526       0.00198909      -5.85040297
Al      10.54644938       4.19939021       5.43959763      -0.00044145      -0.00055686       0.00215093      -4.22000238
Ni       8.47380140       3.15220438       6.12006702       0.00259941       0.00914627       0.00002966      -5.95420637
Al       9.76907439       3.83899750       8.12384232      -0.00694527      -0.00139093      -0.00958575      -4.49383840
Ni       9.67188203       2.08506678       9.81651567      -0.00374534       0.00368856      -0.00903372      -5.57780682
Al      10.28164664       4.19225861      10.80423170       0.00174459       0.00355646       0.00736399      -4.31600997
Al       9.67991356       5.42901757       0.38665425       0.00926262       0.00532095      -0.00714851      -4.16435115
Al      10.48700386       7.11817670       2.81710553       0.00488326       0.00535351       0.00314329      -4.47303125
Ni       8.38213522       6.15088356       2.42419575      -0.00369842       0.00947877      -0.00479110      -5.96801870
Al      10.90371447       7.06627648       5.60803621      -0.00165887      -0.00257688      -0.00380044      -4.28856763
Ni       8.86045745       5.77177895       6.49078711      -0.00196877      -0.00478048       0.00098672      -6.09171551
Al      10.03555207       6.83323477       8.24767062       0.00760588       0.00142368      -0.00241910      -4.37533628
Ni       8.49622185       5.55001199       9.58525074       0.00429287      -0.00123660       0.00210042      -5.91185888
Al      10.04341825       6.80840649      11.08546465       0.00055995      -0.00224382       0.00373596      -4.21893019
Ni       9.72930867       7.84730258       0.50216390      -0.00313569       0.00290836       0.00591097      -5.95482944
Al      10.80971004       9.62044245       1.89016710      -0.00136205       0.00487794      -0.00363336      -4.15105602
Ni       8.64249317       8.76862239       2.70054048      -0.00596993      -0.00692510      -0.00417702      -6.07786134
Al      10.25603383       9.55279955       4.59416823       0.00539404      -0.00277464       0.00194029      -4.36536842
Ni       8.88125883       8.56359259       6.56683874      -0.00604576       0.00130334       0.00372055      -6.11421410
Al      10.99583844       9.36650179       7.41297397       0.00908908      -0.00017000      -0.00062347      -4.26579132
Al       9.19210814       9.31168143       9.35286240      -0.00592525       0.00141654      -0.00593373      -4.02437559
Al      10.59647940       9.27967897      11.73780901      -0.00607963      -0.00195160      -0.00772891      -4.14535446
