128
Lattice="12.297800292908486 0.010645449532373265 0.21495221133873452 0.011548452300724479 11.463983655975722 -0.01357243067095508 0.2218059492590571 -0.013825255246731798 12.117867105404972" Properties=species:S:1:pos:R:3:forces:R:3:energies:R:1 energy=-634.3543684432755 stress="0.0005078367112768311 -0.0005786720026164964 0.00029277829502733296 -0.0005786720026164964 0.0005634484483942111 0.00039970115355346945 0.00029277829502733296 0.00039970115355346945 2.8219843594415635e-05" free_energy=-634.3543684432755 pbc="T T T"
Ni       0.56983491       0.00417651      -0.18130951       0.00195581       0.00089004      -0.00273436      -6.13973662
Al       1.44238873       1.05563721       1.87274736      -0.00289509      -0.00529934      -0.00267847      -4.32301986
Ni       0.27492061      -0.31166467       3.59762548       0.01052036       0.00018507      -0.00396162      -5.95543549
Al       1.71912131       1.41357833       4.72114760      -0.00532616      -0.00121132       0.00265051      -4.45857497
Al      -0.14635392       0.00074586       5.94019859       0.00066302       0.00648629      -0.00316820      -4.01365581
Al       1.75031620       1.41158314       7.56124430      -0.00806760      -0.00399878      -0.00106409      -4.52426311
Ni       0.45184902      -0.09157810       9.14544684       0.00398352      -0.00034056       0.00300716      -6.13762997
Al       1.93360426       1.47234894      10.34579126      -0.00934837       0.00460558       0.00649132      -4.39822147
Ni       0.60218177       2.67327347       0.09920076      -0.00056383       0.00072031      -0.00627230      -6.15158447
Al       0.78968229       5.21204022       0.68503704      -0.00066151      -0.00176089      -0.00611137      -4.31880916
Al       0.62353812       3.41728153       2.54075751       0.00252727      -0.00213677       0.00729896      -4.20665034
Al       1.70624614       4.30515462       4.76871814       0.00017454      -0.00173547       0.00438068      -4.47328860
Ni       0.02262669       2.65657613       6.16971888      -0.00106096      -0.00451436       0.00507846      -6.26348398
Al       1.62528569       4.30916065       7.48924081       0.00417192      -0.00334923      -0.00216149      -4.59273630
Ni       0.25977882       2.96552906       9.03631440      -0.00330098       0.00013987       0.00540504      -6.17605768
Al       1.86336030       4.23596370      10.41603072      -0.00422199       0.00420310       0.00054825      -4.39898269
Ni      -0.72150560       6.50888426      -0.68977527      -0.00797881       0.00642313      -0.00080403      -5.96478204
Al       1.95511312       7.22673440       1.97561242       0.00640751      -0.01344310       0.00550770      -4.46463189
Ni       0.25965066       5.77929351       3.21701954      -0.00212854       0.00461716      -0.00693662      -6.09990772
Al       1.79516544       7.15891203       4.64396463      -0.00659302       0.00147598      -0.01058789      -4.51813442
Ni       0.21746028       5.86137847       5.98278268       0.00163662      -0.00429774       0.00167907      -6.11915280
Al       1.57129916       7.16826467       7.54508836      -0.00469048       0.00211630      -0.00146362      -4.54283519
Ni       0.21202332       5.64760459       9.09982600      -0.00352169       0.00691160      -0.00154363      -6.16707143
Al       1.92491519       6.97550445      10.57817041       0.01029462      -0.00774506      -0.00495524      -4.45764547
Al       0.37518798       8.54215660       0.15758328      -0.00782834       0.01058019       0.00514433      -3.95836412
Al       1.83995984       9.88001179       1.97352138       0.00072708       0.00604174      -0.00057142      -4.37367678
Ni       0.13645323       8.55461360       3.16168908       0.00601968       0.00448675      -0.00038370      -6.14666261
Al       1.88936310       9.86525001       4.76791220      -0.00213028      -0.00436464       0.00325075      -4.51852207
Ni      -0.00202872       8.60319129       5.91432698       0.00177079       0.00259121      -0.00359131      -6.13383998
Al       1.71624779       9.90491743       7.49984330       0.00383630      -0.00087859      -0.00474686      -4.41502534
Al      -0.40512720       8.00315420       9.55757820       0.00411352      -0.00031723       0.00122299      -4.09014797
Al       1.85637980       9.79843939      10.31558932      -0.00159846       0.00469886      -0.00543615      -4.36251996
Al       3.03629462      -0.19110506      -0.01445980       0.00144777      -0.00561164       0.00303968      -3.89480990
Al       4.56502822       1.37045278       1.77490628      -0.00423872       0.00430740      -0.00113261      -4.30708976
Ni       3.18043195      -0.05406361       3.30169258      -0.00198708      -0.00024464      -0.00205159      -6.22486786
Al       4.52858017       1.43811182       4.70250783       0.00056373      -0.00506320       0.00356041      -4.35916265
Ni       3.30180476      -0.07615546       6.19051448      -0.00046669       0.00277283      -0.00162988      -6.15316791
Al       4.68305520       1.33841137       7.61998870       0.00302006       0.00071886      -0.00809973      -4.51183013
Ni       3.21866820      -0.15711629       8.92683164       0.00152904       0.00568429      -0.00451466      -6.21359563
Al       4.60356452       1.49807474      10.34636969       0.00241694      -0.00875605       0.00150312      -4.37832525
Al       2.89735097       3.26004739       0.62177658       0.00376031       0.00206595      -0.00130635      -4.32324092
Al       4.86230236       4.45683541       1.84097297      -0.00426446      -0.00341718      -0.00884947      -4.41010999
Ni       3.01935343       2.63577776       3.15094319      -0.00277867      -0.00334008      -0.00056005      -6.17057261
Al       4.36519581       4.39133142       4.46833578       0.00652846      -0.00011471      -0.00157492      -4.39066110
Ni       3.19402573       2.89339113       6.15289699      -0.00085789      -0.00178547       0.00013047      -6.20252578
Al       4.64193027       4.34152308       7.54991076       0.01074382      -0.00656183       0.00070916      -4.43834890
Ni       3.22425667       2.92177558       8.84842837       0.00211248       0.00218544       0.00221081      -6.14942162
Al       4.63888836       4.32149288      10.41682983      -0.00032752      -0.00274444       0.00290523      -4.52900296
Ni       3.15589350       5.75994961       0.09145402       0.00020096      -0.00430009       0.00018416      -6.12120937
Al       4.57440297       7.16240905       1.66792705      -0.00480558      -0.00254608      -0.00420937      -4.32495367
Ni       2.58336110       4.98469750       2.49354452      -0.00232788       0.00580377      -0.00205727      -5.84180490
Al       4.87016551       7.11213064       4.64560868       0.00010366       0.00061357       0.00277148      -4.36463109
Ni       3.14901120       5.75010754       6.17887396       0.00028212      -0.00476794       0.00378400      -6.12223581
Al       4.81297899       7.05125086       7.57110052       0.00352635       0.00122655      -0.00774250      -4.52285008
Ni       3.14805642       5.73311551       8.91358819      -0.00564639       0.00863684       0.00698725      -6.17714920
Al       4.64794794       7.06333480      10.47022782      -0.00996097      -0.00309192       0.00117878      -4.57980663
Ni       2.99816497       8.58870703       0.02489006       0.00052537       0.00328833      -0.00456477      -6.29497796
Al       4.58786141       9.92881806       1.67110678      -0.00202747       0.00061883       0.00876942      -4.38900776
Ni       3.47785045       8.62528906       3.37308087      -0.00414014      -0.00218426      -0.00045599      -6.05217780
Al       4.80905028       9.92846469       4.84648859      -0.00525170      -0.00350805       0.00335050      -4.50304610
Ni       3.34386015       8.43828107       6.14766014      -0.00729129      -0.00286728      -0.00032226      -6.17123950
Al       4.83182741       9.93064876       7.55139474       0.00160081      -0.00327627      -0.00000291      -4.57160239
Ni       3.26402657       8.43994040       8.85226136      -0.00355177      -0.00192577       0.00299784      -6.12716968
Al       4.70160942       9.82501719      10.38230258       0.00465881       0.00011694      -0.00217963      -4.50083955
Ni       5.57330066       0.10667379      -0.12758947       0.00569803      -0.01145078      -0.00435203      -6.19344532
Al       7.20091546       1.65020367       1.20559914       0.00254075      -0.00060828       0.00811492      -4.23501128
Al       6.35800503      -0.02417572       3.34554421       0.00439737      -0.00299901       0.00443002      -3.82858484
Al       8.23372781       1.20497558       4.90298295      -0.00244528       0.00355923       0.00559817      -4.00548553
Ni       6.22367722       0.14372918       6.00804580       0.00200491      -0.00245967       0.00343549      -6.30952519
Al       7.69128189       1.28666670       7.78893147       0.00743399       0.00214260       0.00268075      -4.15822458
Ni       6.14775524      -0.11841424       9.13126020      -0.00219617       0.00584262       0.00329327      -6.17010568
Al       7.25024535       1.51843218      10.57762667       0.00358301       0.00076101       0.00233774      -4.17190998
Ni       5.47375962       2.89513497       0.00416213      -0.00477938      -0.00233978      -0.00572690      -6.12207639
Al       7.56345947       4.40066044       1.46268741       0.00503328       0.00749680      -0.00402027      -4.42919935
Al       6.51464221       2.91426306       3.48220748      -0.00492504      -0.00531695       0.00190555      -3.84631207
Al       8.54884521       4.38327021       4.28829544       0.01096784      -0.00071276       0.00609509      -4.24584354
Al       6.37570555       2.82323141       6.15050051      -0.00320734       0.00624446       0.00431918      -3.80986074
Al       8.10625074       4.28824056       8.07803546      -0.00579578      -0.00379378      -0.00176241      -4.12294409
Ni       6.19593123       2.97412848       8.89135129      -0.00228061       0.00386408       0.00408642      -6.21772307
Al       7.52490536       4.23435456      10.84963706       0.00332917       0.00341218       0.00023162      -4.38083931
Ni       5.77938569       5.67013750      -0.07723507       0.00377952       0.00678310      -0.00234486      -6.07758805
Al       7.21072044       7.07741972       1.34668861       0.01224632       0.00326654       0.00629881      -4.45518421
Ni       6.46032930       5.48289336       3.48549334       0.00433059       0.00520987      -0.00300598      -6.17120341
Al       8.06983350       7.21000854       4.77455161       0.00598408       0.00432874      -0.00601058      -4.29297176
Al       6.62809319       5.49716024       6.05244964      -0.00193950      -0.00329683       0.00110050      -3.88300014
Al       7.99735143       7.10930091       7.77601604      -0.00338691      -0.00566810      -0.00018308      -4.44491791
Ni       6.27469483       5.63185271       9.04503672       0.00032368      -0.00563626       0.00641205      -6.16547978
Al       7.54279744       7.02611697      10.63325850      -0.00699982       0.00126490       0.00264057      -4.32232939
Ni       5.75419366       8.46812265      -0.12360497      -0.00218717       0.00360893      -0.00428496      -6.08415452
Al       7.15067681      10.06911594       1.14352377       0.00687187      -0.00713892       0.00040774      -4.23532367
Ni       6.28347583       8.74777515       3.15057310       0.00567742      -0.00124967      -0.00157889      -6.20151848
Al       7.86173502       9.95448371       4.94620443      -0.00059115       0.00280527       0.00153660      -4.24718994
Ni       6.43718259       8.38118008       6.23064012       0.00231085       0.00021115       0.00211019      -6.17968811
Al       7.66065413       9.93713898       7.67304506      -0.00180034       0.00223472       0.00270948      -4.45160678
Ni       6.24642252       8.42075442       9.03535485      -0.00033364       0.00075760      -0.00341061      -6.16081038
Al       7.53186154       9.85255788      10.61105295      -0.00141787      -0.00082084       0.00097839      -4.29108764
Al       9.07641581       0.54799065      -0.27890600      -0.00600247       0.00745775      -0.00653564      -3.86053028
Al      10.96524674       1.79653406       1.43202925      -0.00232426       0.00200078      -0.00215774      -4.15506768
Al       9.05516712       0.00390620       2.65551420      -0.00921494       0.00626982       0.00089690      -4.03334463
Al      11.03667651       1.62302990       4.17496547      -0.00299947       0.00164468       0.00408398      -4.11487495
Ni       9.55954634      -0.00777636       6.72367293      -0.00431582      -0.00426503      -0.00757367      -6.19557991
Al      11.16645495       1.35037451       8.13829846      -0.00071655       0.00496584       0.00232042      -4.16580778
Al       9.30854019      -0.17048505       9.28348785      -0.00771450       0.00134497      -0.00238450      -3.77969397
Al      11.58197988       1.48376124      10.89852096       0.01310331       0.00121217      -0.00122642      -4.19476487
Ni       9.14249060       2.96147601       0.14169784      -0.00339032      -0.00162084      -0.00015788      -6.12870823
Al      10.30749962       4.36673953       2.03289391       0.00285453       0.00160072       0.00041045      -4.25299416
Ni       8.94568152       2.39951888       2.80262905      -0.00468499      -0.00126998      -0.00508468      -6.11753093
Al      11.21020097       4.33472467       4.86417155      -0.00702887      -0.00916521      -0.00662310      -4.13596255
Al       9.67188522       2.74480123       6.39929468      -0.00026782      -0.00212118      -0.00190427      -3.82128015
Al      11.14887938       4.38863549       7.81502966      -0.00277650       0.00761236       0.00191762      -4.37761868
Al       9.55392383       2.75780750       9.76807605      -0.00224513       0.00108510      -0.00671616      -3.79606982
Al      11.39950335       4.15974025      11.31960812       0.00240198      -0.00358121       0.00806288      -4.48122784
Ni       9.13718491       5.65858616       0.09727356       0.00315061       0.00085077       0.00214181      -6.08189384
Al      11.07252070       6.99155311       1.88369357       0.00664334       0.00074292       0.00366148      -4.33649899
Ni       8.92415975       6.25596716       2.72146803      -0.00497044       0.00139401      -0.00422410      -5.80834497
Al      10.81710786       7.09964023       4.69321359      -0.00311345      -0.00588022      -0.00038598      -4.44121367
Ni       9.35187965       5.39488928       6.33302642      -0.00127688      -0.00622855      -0.00536356      -6.20025801
Al      10.83960176       7.08218276       7.49400588       0.00329960      -0.00144561      -0.00152963      -4.31339273
Al       9.99075961       6.01472787       9.84434917       0.00479671       0.00137044      -0.00036642      -4.19344547
Al       9.84508626       7.99952661      11.69923914       0.00046652       0.00619738       0.00447489      -4.25462298
Ni       9.46249728      10.00707309       0.77644368      -0.00234289      -0.00510200       0.00382386      -5.64896899
Al      11.48108540      10.40314751       1.85515962       0.01308401      -0.00120317       0.00632228      -4.25558918
Al       8.97041296       8.69070870       2.70067705       0.00022777       0.00172578       0.00411244      -4.08785436
Al      10.62177355       9.94035888       4.64404597       0.00035574      -0.01131168      -0.00122628      -4.31196554
Ni       9.42020671       8.72507671       6.39919548       0.00633463       0.00206818       0.00194561      -6.03861843
Al      11.13582772       9.85144832       7.95015224      -0.00635194       0.00074828       0.00038743      -4.30962129
Ni       9.40165581       8.54867512       9.19986852       0.00172295       0.00705912       0.00191659      -6.25529825
Al      11.24525711      10.26421781      10.98410484       0.00108588       0.00182865      -0.00238173      -4.10809545
