143
Lattice="13.619223438917512 0.09034763247114824 0.0915026953643451 0.09470130287782737 13.360676840263288 -0.23798572124439252 0.10010474839584686 -0.23870959493346516 12.971791138534519" Properties=species:S:1:pos:R:3:forces:R:3:energies:R:1 rep=5 n_sites=250 energy=-592.8943481445312 stress="8.041137334657833e-05 -0.00023326234077103436 0.00017112876230385154 -0.00023326234077103436 -0.00010246620513498783 0.00014347162505146116 0.00017112876230385154 0.00014347162505146116 -0.00017305530491285026" free_energy=-592.8943481445312 pbc="T T T"
Al       1.95479704       1.17727205       1.98027016       0.00199799       0.00940953      -0.00374667      -3.83371437
Al       0.64726462       0.11979418       4.29286615       0.00010765      -0.00073068      -0.00361961      -3.65637195
Al       0.31213727       1.49396818       7.03505143       0.00166751       0.00128463      -0.00003294      -3.64376795
Al       1.73232736       0.71063212       9.24228515       0.00114694       0.01248142       0.00646169      -3.90872425
Al       1.04655373       1.23027702      12.06168427      -0.00038570       0.00037238      -0.00194945      -4.08071715
Al       1.18460390       3.71928279       1.70755444      -0.00700533       0.00088440      -0.00016175      -3.82158780
Al       1.27867335       2.69106330       4.37533808      -0.00238159      -0.00101992       0.00978442      -3.92030549
Al       1.76925670       4.13202718       6.68477826       0.00264683      -0.00304979      -0.00167450      -3.89700621
Al       0.79529980       3.31297072       9.19882146       0.00179547      -0.00478832       0.00131281      -3.86623073
Al       1.51158851       4.09425218      11.95071104      -0.00028777      -0.00423372      -0.00260103      -4.08236611
Al       0.63916092       6.23833219       0.75035723      -0.00238946       0.00040916       0.00837005      -3.67474127
Al       2.14325038       5.31327625       3.66568895       0.00124225       0.00005843       0.00031377      -3.89773828
Ni       0.15323805       4.78546777       4.99755728       0.00629657      -0.00039234       0.00766994      -5.80398434
Al       1.13558339       6.92501187       5.74298975       0.00186327      -0.00125214       0.00514713      -3.83077896
Al       1.42804675       6.10669881       8.47191552      -0.00345221       0.00934675       0.00779341      -3.77612197
Al       1.99194395       6.62930600      11.17360429       0.00545624       0.00330172      -0.00612225      -3.90527385
Al       2.21829264       9.83387525       0.83961142      -0.00338528       0.00307835      -0.00688907      -3.93918520
Al       1.56398808       7.99823845       2.93899767      -0.00240336       0.00231570       0.00381817      -3.66468501
Al       1.81859959       9.67018050       5.44344416       0.00164725       0.00124919       0.00249463      -4.04613638
Al       1.67463651       8.77835867       8.19373250      -0.00424822       0.00252587       0.00095339      -4.34520018
Ni       0.23325852       7.71537906       9.87498255       0.00237385      -0.00789124       0.00190932      -5.74461985
Al       1.41580869       9.36450709      11.13441036       0.00076604       0.00283909       0.00435901      -4.05106503
Ni      -0.00791066      10.77305003      -0.12263361      -0.00177628       0.00567035       0.00874718      -5.94771332
Al       0.98391650      12.18140779       1.59778856      -0.00523935      -0.00659682      -0.00114658      -3.80010760
Al       2.69957627      11.67874602       3.67981329       0.00544768      -0.00754824       0.00573254      -3.66623461
Al       1.67456969      12.50849833       6.45250796       0.00145437      -0.00441176       0.00092141      -4.11670411
Ni       0.36206035      10.62050887       7.17228168       0.00736829       0.00178912       0.00489084      -6.04849410
Al       1.53278677      11.41068210       9.21290604       0.00034522      -0.00412481      -0.01019830      -4.05302209
Al       1.83833956      11.94235367      11.87918026      -0.00088094      -0.00122908       0.00542304      -3.83770311
Al       4.50974174       1.49168457       1.28583809      -0.01184248      -0.00007546      -0.00418849      -4.22046775
Al       3.91362481       0.85084109       4.02503018      -0.00210619      -0.00526980       0.00541194      -3.95052230
Al       2.97390118       1.60991462       6.47871724      -0.00199909      -0.00711383       0.00188629      -3.71510637
Al       4.26123054       1.79857913       8.97610115      -0.00339954      -0.00328525       0.00139537      -3.90165508
Al       3.80359207       0.52929185      11.68286380      -0.00569480       0.00158203       0.00167340      -4.34684736
Ni       2.73691147       2.68290422       0.18592846      -0.00094624      -0.00304739       0.01347959      -5.88794893
Al       4.05783842       4.14579418       1.71297012      -0.00241912      -0.00403175       0.00146638      -3.98476130
Al       4.04746132       3.59046748       4.64151162      -0.00259881      -0.00050367      -0.00050044      -3.91711819
Al       4.67176303       4.11502709       7.23245570      -0.00453224      -0.00844194       0.00266239      -3.73853862
Al       3.32800621       4.48764184       9.57053624      -0.00915587      -0.00675946      -0.00004462      -3.93915749
Ni       2.64666502       2.43563176      10.64681222      -0.00707237      -0.00960902      -0.01561908      -5.87232953
Al       4.61921039       3.24923950      11.73793130       0.00772005      -0.00284439      -0.00021562      -4.12950766
Al       3.21883040       7.15954900       0.76123567       0.00293711       0.00252693       0.00234428      -3.67350423
Al       4.47420396       6.52771551       3.08476566       0.00524150      -0.00233075       0.00352839      -3.86151433
Al       3.77628573       6.32541612       5.81167174       0.00920039      -0.00026481       0.00234416      -3.83566260
Al       4.13777087       6.97430676       8.70755719       0.00018138       0.00366615      -0.00883105      -3.69221163
Al       4.74207561       5.93559145      11.46092269       0.00268442       0.00287654       0.00125922      -3.62873578
Al       4.94631971       9.37745567       0.82178566       0.00080322       0.00647840       0.00206137      -3.64917052
Al       3.86566845       9.24770403       3.56093657       0.00161648      -0.00809467       0.00113067      -3.79615557
Al       4.47682842       9.07221299       6.53947664       0.00961254      -0.00211924      -0.00551395      -4.18844360
Al       4.35728365       9.66514632       9.15537403       0.00155044       0.00110516      -0.00294137      -3.85973060
Al       3.93978524       8.47527064      11.49106488      -0.00249646      -0.00049938      -0.00538606      -3.64354134
Al       3.90269054      12.10990332       1.26917143       0.00207183       0.00282374      -0.00403504      -3.96240944
Al       5.45149957      11.66404251       3.64562770      -0.00137195      -0.00102976      -0.00163516      -3.61832917
Al       4.36052973      12.32240324       6.06718875      -0.00482070      -0.00562525       0.00265954      -3.80884445
Ni       2.96367502      10.70679831       7.39244806      -0.00552815       0.00325632       0.00348841      -5.88825876
Al       4.15829879      12.35185323       8.88327484      -0.00360388      -0.00685507      -0.00298612      -3.78924203
Al       4.44545796      11.17553879      11.54132921       0.00417168      -0.00553164       0.00118093      -3.89038211
Ni       5.51425400      -0.22950513       0.04041525       0.00168015      -0.00325975       0.00520384      -5.75474995
Al       7.14290346       0.91242042       1.55347814       0.00041225       0.00007829       0.00053605      -4.29456496
Al       6.73837594       0.70008228       4.24055897      -0.00131962       0.00256953      -0.00533012      -4.09243166
Al       5.71384841       1.61339898       6.62727786      -0.00446758       0.00280985      -0.00106692      -3.71598876
Al       6.71817432       2.57806560       9.69730512       0.00129957      -0.00124149      -0.00191158      -3.89777815
Al       6.87282443       1.40044718      12.06379315       0.00286588       0.00074443       0.00007757      -4.13031709
Al       6.84615583       4.21386709       1.98925054       0.00553517       0.00121605      -0.00172157      -4.17663753
Ni       5.59435271       2.51675549       3.13696420      -0.00059772      -0.00249229       0.00303099      -5.82513034
Al       6.89959700       3.62060704       4.78588616       0.00272423      -0.00526392      -0.00229833      -4.29613066
Al       7.57205412       3.78972675       7.38819863       0.00092939      -0.00397308       0.00489259      -3.97354490
Al       6.20056336       5.29695762       9.27904376       0.00284502      -0.00365601       0.00112155      -3.74241924
Al       7.07781333       4.24604465      12.14567576       0.00357915      -0.00034374       0.00060540      -3.96757060
Al       5.97107733       6.64633660       0.81599164      -0.00281454       0.00605530      -0.00258564      -3.71145582
Al       7.24327757       6.46867162       3.87231051      -0.00189647       0.00180604       0.00179923      -4.10234863
Al       6.37904324       6.36650987       6.55563133      -0.00451502       0.00173275      -0.00438792      -4.10294992
Al       6.86101489       7.96554960       8.74992883       0.00144097       0.00679007      -0.00320526      -3.74297488
Al       7.36024249       6.87348747      11.27137858      -0.00111209      -0.00101549      -0.00198875      -3.69488919
Al       7.72228907       8.90174070       0.47998753      -0.00848217       0.00482230      -0.00775862      -3.74353755
Al       6.49967850       9.09416738       2.99890946       0.00096659      -0.00301746      -0.00322220      -3.91304892
Ni       5.45887772       7.84644847       4.80007107       0.00313943      -0.00393342      -0.00273906      -5.74526078
Al       7.16725602       9.34590697       5.76473878      -0.00053979      -0.00619856      -0.00280072      -3.90766871
Al       6.85641702      10.63744331       8.33059791       0.00211756      -0.00192207       0.00102255      -3.56573486
Al       6.54579353       9.43323169      11.06768371       0.00088315       0.00057118      -0.00529013      -3.66906345
Al       6.70073874      11.46640135       1.13916047      -0.00524098       0.00171088       0.00167859      -3.86449564
Al       8.18639264      11.23126031       3.67158512       0.00220408       0.00219406       0.00125512      -3.76491177
Al       7.10120749      12.13890791       5.99886806       0.00251001      -0.00168448       0.00225991      -3.66997623
Al       6.65610443      13.36464471       8.36623522      -0.00121018       0.00590169      -0.00429288      -3.88486689
Al       7.04386042      12.07108039      10.91602391       0.00715728       0.00444379      -0.00265876      -4.02353489
Al       9.95166716       1.37405613       1.33798415       0.00027916       0.00033596      -0.00527302      -3.97605950
Al       9.44102362       0.33899976       3.72593860       0.00224273       0.00082195       0.00440688      -3.89663070
Al       8.45904546       1.16024116       6.33648425       0.00424739      -0.00424995       0.00091826      -3.66170287
Al       9.21400572       2.02675790       8.73434915      -0.00328800       0.00083739      -0.00436455      -3.82841134
Ni       8.21104107       0.50978573      10.23496891      -0.00255445       0.00371894      -0.00304777      -5.71555722
Al       9.61885588       1.97884045      11.51686346       0.00179926       0.00271927       0.00737634      -4.06150097
Ni       8.37182439       3.00450746       0.54941216      -0.00951852       0.00368384      -0.00176762      -5.90502942
Al       9.80382313       4.09332296       2.27384157       0.00149459       0.00419304       0.00125458      -4.05886799
Ni       8.22926191       2.36326112       3.05671095      -0.00153746      -0.00005569       0.00111578      -6.01309061
Al       9.67666167       3.29922943       4.92148992       0.00354305       0.00395140       0.00035020      -4.05070633
Al      10.11782411       5.07417098       7.32559509      -0.00312981       0.00302621       0.00012194      -3.88552451
Al       8.75897201       4.49649837       9.89891730      -0.00595039      -0.00070459       0.00025642      -3.94768238
Al      10.01506270       4.45017677      12.59701656      -0.00260829      -0.00461987      -0.00050224      -4.17232144
Al       8.60725570       6.49652940       1.44136844       0.00357316       0.00035854      -0.00046655      -3.74121428
Al      10.01551608       6.23611428       4.07313988       0.00435531      -0.00122893      -0.00244789      -3.93449312
Ni       8.38794917       5.28776582       5.68141216       0.00621621       0.00397985      -0.00305039      -5.75682241
Al       8.91086781       7.41496145       6.73530099       0.00032469      -0.00241065      -0.00112924      -3.86377829
Al       9.48831817       7.10898617       9.39431602      -0.00072277      -0.00187977      -0.00093324      -3.80035532
Al      10.03122115       7.10537543      12.07553578       0.00199650       0.00079773       0.00333956      -3.86473376
Al      10.53599604       9.34631587       0.92765684       0.00780327       0.00619477      -0.00169054      -3.95758688
Al       9.10454300       8.68019188       3.07665055       0.00104417       0.00229160      -0.00296768      -3.70064902
Al       9.98635523       9.54242085       5.54024838      -0.00134744       0.00019845      -0.00011918      -3.88008761
Al       9.46313823       9.60294108       8.36339048      -0.00217474       0.00301060      -0.00568451      -4.01068681
Al       9.33628999       9.65438347      11.19834857      -0.00489193       0.00860474       0.00066647      -4.08082426
Al       9.32981676      11.93754731       1.11041826      -0.00189556      -0.00153581       0.00453901      -3.84863931
Al      10.91113476      11.15775304       3.34492533       0.00346680       0.00064417       0.00266662      -3.66175342
Al       9.97167336      12.27359254       5.74993537       0.00333241      -0.00038724      -0.00571233      -3.87087339
Al       9.56211131      12.40704105       8.50136989      -0.00021948       0.00457823       0.00247627      -4.27894306
Al       9.92114186      12.63247505      11.25919163       0.00238416       0.00045642       0.00247659      -4.32316029
Al      12.82163498       1.48450701       2.24543957      -0.00082725       0.00503355      -0.00161817      -3.69564819
Al      11.76601778       1.16944276       4.86559093       0.00276318      -0.00127677      -0.00482955      -3.64508605
Al      11.30005124       1.07094753       7.48858184      -0.00221026       0.00294673      -0.00135618      -3.68035972
Al      12.68109448       1.27871514       9.93356269      -0.00071330       0.00059377      -0.00070286      -3.70849323
Al      12.05294135       1.25370655      12.57815862       0.00065453      -0.00257139      -0.00178582      -3.58465528
Al      12.27628739       4.06796590       1.07775255       0.00276220      -0.00360931       0.00524959      -3.65794289
Al      12.15184202       3.66075501       3.72820132      -0.00791621      -0.00620136      -0.01053788      -3.84015691
Al      12.26831227       3.58170055       6.43654195       0.00014536      -0.00190903       0.00089535      -3.87872589
Al      11.46603685       3.50610890       8.99312904      -0.00334353       0.00528076      -0.00527747      -3.84871787
Al      12.48025654       3.67030595      11.38810334      -0.00047877      -0.00059453      -0.00567500      -3.81450510
Al      11.32464196       6.67881316       1.36993353       0.00359093       0.00174561       0.00211161      -3.77809143
Al      13.11856893       6.19688942       3.26203365       0.00104462       0.00749324      -0.00068015      -3.95520186
Al      12.08949196       6.47909337       5.94402484       0.00151169      -0.00143528       0.00234382      -3.74645197
Al      12.23326393       6.44188328       8.79609777      -0.00809926       0.00317997       0.00005811      -3.94948548
Ni      10.88522245       5.36104153      10.50383787       0.00834261      -0.00000564       0.00351207      -5.87243146
Al      12.76359501       6.44753665      11.65321987      -0.01000797      -0.00520982       0.00031051      -4.08271998
Al      13.23381804       8.81317723       1.20584074      -0.00187492       0.00110810       0.00357743      -3.87460214
Al      11.71441789       8.47327365       3.52180134       0.00599210       0.00096460      -0.00432990      -3.72899938
Al      12.71761533       9.14105238       5.95124325      -0.00374341      -0.00274459       0.00454839      -4.01534021
Al      12.49926586       9.32532266       8.71933363      -0.00223241       0.00382200       0.00260909      -4.34749681
Al      12.31317431       9.18209644      11.40298280      -0.00252891       0.00027439       0.00474842      -4.34807789
Ni      10.94929405      11.15098257      -0.58035697       0.00134268      -0.00149737       0.00009452      -5.68802911
Al      12.00833652      12.41924391       1.11827251       0.00831778      -0.00408459       0.00495848      -4.01422131
Al      13.66163308      10.47343336       3.47006170      -0.00039153       0.00746734       0.00298039      -3.61584449
Al      12.69197196      12.03525260       5.65353289       0.00004424      -0.00217196      -0.00028688      -4.11442018
Ni      11.26428123      10.79413978       7.23967401      -0.00031640       0.00027378      -0.00101069      -6.00964534
Al      12.59319501      12.27537435       8.53984765       0.00194514      -0.00484657      -0.00678323      -4.17533296
Ni      10.98317653      10.87884743       9.84804510      -0.00011850       0.00278127      -0.00167059      -6.01883686
Al      12.77159384      12.11949637      11.21540652      -0.00000367       0.00168782       0.00147706      -4.23294330
