184
Lattice="14.051305263359199 -0.032415541469593113 0.08007501940808122 -0.03238833598757732 14.064655495128855 0.054468108578606796 0.08005468384262504 0.05446886148711025 14.06664477309551" Properties=species:S:1:pos:R:3:forces:R:3:energies:R:1 energy=-891.2545266545804 stress="-0.00011785414728900181 0.00014560410543272264 -0.00021493598349451397 0.00014560410543272264 -5.42111485013847e-05 -0.0001137570367450801 -0.00021493598349451397 -0.0001137570367450801 -7.256494244432441e-05" free_energy=-891.2545266545804 pbc="T T T"
Ni      -0.12622901      -0.01943139      -0.00260215      -0.00320884       0.00083395      -0.00067091      -6.16776189
Al       1.40921284       1.42768156       1.39043488       0.00023724      -0.00178833       0.00204448      -4.58709415
Ni      -0.03594484       0.07131519       2.84051229      -0.00360332      -0.00580113       0.00097184      -6.06680242
Al       1.32820272       1.44994392       4.35466750       0.00080771      -0.00488388       0.00344729      -4.60816123
Al       1.41644348       1.42322749       7.11969415       0.00402384      -0.00281721      -0.00386785      -4.32491927
Al       1.34526251       1.38248196       9.94689519      -0.00334018      -0.00472380      -0.00237016      -4.05402480
Al       1.40516252       1.50789435      12.71264993       0.00927096       0.00295549      -0.00340719      -4.16718562
Ni      -0.09767677       2.94725521       0.09073665       0.00057218       0.00580443       0.00201207      -6.12864981
Al       1.33102937       4.29200952       1.52803511      -0.00116871       0.00672081      -0.00033028      -4.49381465
Ni      -0.08353171       2.76088261       2.84273515      -0.00171894       0.00277521       0.00128405      -6.05857807
Al       1.27047421       4.27461498       4.31568089       0.00077183      -0.00572662       0.00433736      -4.46579839
Al       1.42290749       4.37464553       7.13420235      -0.00025640      -0.00176842      -0.00305482      -4.35156164
Ni      -0.00803746       2.86729548       8.47491771       0.00428273      -0.00528835       0.00104850      -6.10028151
Al       1.35357448       4.33482814       9.97448561       0.00241588       0.00146126      -0.00411433      -4.06965430
Al       1.53467332       4.27976147      12.74928407       0.00378657      -0.00342418      -0.00411693      -4.19793005
Ni      -0.09139154       5.60704133       0.07489661      -0.00190148       0.00139200      -0.00104474      -6.07624431
Al       1.45046137       6.97024015       1.43574196       0.00128747      -0.00213423      -0.00005236      -4.31195677
Al       1.46934927       7.13341200       4.19653729      -0.01260207      -0.00343641       0.00563005      -4.24142179
Al       1.55724929       7.12209633       7.00085398      -0.00408898      -0.00074114      -0.00480573      -4.11145183
Al       1.41187398       7.02658612       9.74459036       0.00072683      -0.00131722      -0.00563671      -4.15309290
Al       1.44571236       6.96226804      12.64990688      -0.00043147      -0.00135063       0.00004870      -4.45035812
Ni      -0.05576371       8.34860871       0.04796096       0.00418288       0.00092247      -0.00157052      -6.13559216
Al       1.35863210       9.77436541       1.49649592       0.00090641       0.00355846      -0.00387449      -4.44389969
Al       1.35528286       9.88398968       4.23283417      -0.00191987      -0.00297799      -0.00317912      -4.24282861
Ni       0.01152155       8.45487694       5.63929433      -0.00633215      -0.00542767      -0.00009969      -5.91095157
Al       1.44829873       9.82827514       7.12166929      -0.00234221      -0.00283913      -0.00463691      -4.38046249
Al       1.43701251       9.95250045       9.82047453      -0.00216313      -0.00084844      -0.00737418      -4.35993347
Ni       0.10087972       8.46494399      11.27615023      -0.00441264      -0.00559730      -0.00137961      -6.00058429
Al       1.42227188       9.94145023      12.64710402       0.00855632       0.00453239       0.00461644      -4.60939681
Ni       0.00445717      11.27027502       0.03451855       0.00097881       0.00018917      -0.00458833      -6.12579213
Al       1.33217046      12.66186932       1.51848654       0.00864227       0.00235655      -0.00326226      -4.62953152
Al       1.31732463      12.61480294       4.34710262      -0.00086112      -0.00629836       0.00209111      -4.38589398
Ni      -0.07206270      11.13758633       5.76356443      -0.00200178      -0.00822942      -0.00138265      -6.08937751
Al       1.40642568      12.69491977       7.06590820      -0.00619050      -0.00277654      -0.00102097      -4.25053519
Ni       0.00278547      11.35775781       8.42614962      -0.00075764      -0.00846622      -0.00284885      -5.99310602
Al       1.47564429      12.72886984       9.91332902      -0.00003807      -0.00046120      -0.00594208      -3.66614791
Al       1.47098274      12.78762258      12.68047400      -0.00388545      -0.00013121       0.00048661      -4.08166478
Al       4.19432089       1.45355094       1.51131427      -0.00008087       0.00493085       0.00158863      -4.45901215
Ni       2.75952939       0.00899628       2.94164837      -0.00502668      -0.00481094      -0.00532602      -6.24251509
Al       4.26046288       1.46347322       4.25664907       0.00417803       0.00173072       0.00642965      -4.65593744
Ni       2.82648657       0.03062994       5.68404705      -0.00059931       0.00246509       0.00034025      -6.03978589
Al       4.19180823       1.44557287       7.13471339       0.00085198      -0.00279750       0.00799974      -4.66802892
Al       4.24707051       1.39340206       9.91467141       0.00792550       0.00050074      -0.00265594      -4.33944949
Al       4.21402187       1.47921687      12.68680791      -0.00352785      -0.00090146       0.00042902      -4.17122254
Al       4.21021396       4.20715100       1.37938226      -0.00092726       0.00077908      -0.00063496      -4.18952004
Ni       2.73117332       2.89043365       2.90050501       0.00130923      -0.00102174       0.00204522      -6.16742629
Al       4.35661230       4.21288233       4.23366660       0.00152160      -0.00209628       0.00244318      -4.42733141
Ni       2.83428230       2.90991743       5.70307786      -0.00089515       0.00242899       0.00326664      -6.24881107
Al       4.24535996       4.34463132       7.10536485      -0.00130263      -0.00323920       0.00595134      -4.56335947
Ni       2.72854596       2.87529671       8.58954838       0.00194163      -0.00286653      -0.00104956      -6.25202324
Al       4.26679755       4.27907206       9.92088426      -0.00167346      -0.00224306      -0.00176851      -4.51303567
Ni       2.81131908       2.82517009      11.25125352       0.00090950       0.00073463      -0.00043615      -5.92689446
Al       4.32044574       4.21380569      12.66296970       0.00552951       0.00816058      -0.00548505      -4.03580060
Al       4.23412824       7.00458901       1.39865131      -0.00075109       0.00533933       0.00426314      -3.88607906
Ni       2.86683854       5.60351317       2.91010005      -0.00342921      -0.00423759       0.00305370      -6.01152615
Al       4.41947693       7.03272369       4.19401601      -0.01022087       0.00217214       0.00909946      -3.89501873
Ni       2.85351340       5.64311228       5.55021433      -0.00616048      -0.00677397      -0.00009165      -6.01617158
Al       4.27477401       7.04228556       6.97803125      -0.00068999      -0.00888270       0.00283135      -4.36887024
Al       4.27887578       7.08243436       9.91762129      -0.00580733       0.00601788       0.00489539      -4.51406841
Al       4.25641752       7.02126119      12.64407571       0.00752235      -0.00568431       0.00175733      -4.20924343
Ni       2.77889788       8.40442985      -0.05590404       0.00224762       0.00652388       0.00589358      -6.05214472
Al       4.18723600       9.74576610       1.42749961      -0.00217465       0.00349344       0.00015443      -4.43830170
Al       4.14276485       9.70987846       4.31104892       0.00021125       0.00692309       0.00302491      -3.86602782
Al       4.24991539       9.97222317       6.99716557      -0.00231033      -0.00292516      -0.00094821      -3.92837074
Ni       2.96361301       8.52697793       8.49946341      -0.00298842      -0.00085032       0.00301662      -6.03061222
Al       4.30701749       9.94782140       9.91235633       0.00321149      -0.00255123      -0.00405177      -4.33702685
Ni       2.75308188       8.46653162      11.22408287       0.00044770      -0.00618749      -0.00384544      -6.15717153
Al       4.20925159       9.90590166      12.61291857      -0.00528916       0.00220457      -0.00251750      -4.50105105
Ni       2.73908131      11.20980052       0.07745927      -0.00396068      -0.00198074       0.00158186      -6.18389112
Al       4.12897013      12.70841528       1.47354815      -0.00279799      -0.00149714       0.00163150      -4.66355122
Ni       2.83558025      11.21174950       2.87553420      -0.00180082      -0.00023077       0.00085866      -6.04774057
Al       4.17105212      12.57993850       4.39167580       0.00312332       0.00254509       0.00002590      -4.61797664
Al       4.17130962      12.66577564       7.23614161       0.00025801       0.00109855       0.00266592      -4.08060362
Al       4.27607621      12.72703345       9.95174189      -0.00318203      -0.00063509      -0.00229560      -3.87999751
Al       4.19668491      12.78104156      12.69612646      -0.00446196      -0.00090122       0.00043380      -4.19959079
Ni       5.56965223       0.06711945       0.03340609       0.00153424       0.00277355       0.00474077      -6.11821352
Al       7.08225296       1.37154155       1.47248292       0.00292264      -0.00421184       0.00178364      -4.49562236
Ni       5.65985527      -0.06021208       2.89786244       0.00756205       0.00040120      -0.00481937      -6.24325174
Al       7.08733657       1.37809803       4.29109405       0.00610665      -0.00238524      -0.00329718      -4.49965421
Ni       5.57891450      -0.01047758       5.72593009       0.00829148      -0.00044079       0.00074383      -6.17197176
Al       7.17587865       1.46125341       7.06585814       0.00004194      -0.01364503       0.00957608      -4.58646238
Ni       5.75650616       0.07240466       8.46558871       0.00072018       0.00193898      -0.00216363      -6.08014437
Al       7.12285259       1.51859584       9.90568355       0.00213767       0.00244985      -0.00782116      -4.35404271
Al       7.09084581       1.38508814      12.62241332      -0.00151920       0.00165377       0.00158894      -4.32555453
Ni       5.67474272       2.75518154       0.06770610       0.00299393      -0.00171652      -0.00168036      -6.02025247
Al       7.03924040       4.24985569       1.46856760       0.00136295       0.00821152       0.00102161      -4.18871886
Al       7.03540112       4.26187875       4.22794073       0.00225249       0.00237100       0.00113305      -4.33560141
Ni       5.71872715       2.81907928       5.70723167      -0.00598015      -0.00279826      -0.00092628      -6.14300882
Al       7.10092940       4.29528975       7.05459286       0.00572324       0.00587722       0.00688469      -4.63597516
Ni       5.62169624       2.86017151       8.44773984       0.00269487      -0.00157514      -0.00609840      -6.15925643
Al       7.16577133       4.21487597       9.83530977       0.00120204      -0.00277263       0.00151004      -4.58955850
Al       7.06272872       4.26078889      12.66620398      -0.00539470       0.01074179      -0.00786854      -4.51582652
Al       7.02073410       7.01124427       1.50534353       0.00028253       0.00342936       0.00619661      -3.89487546
Al       7.13374957       7.10828942       4.28254936      -0.00991977      -0.00620803       0.00093194      -3.87076178
Al       7.13277510       7.15692462       6.97970545       0.00218873      -0.00579425       0.00276139      -4.35339342
Ni       5.74439279       5.72860910       8.51751702       0.00052237      -0.00024627       0.00088038      -6.16331109
Al       7.14346958       7.17283512       9.85341214       0.00170531       0.00581233      -0.00530393      -4.56543849
Ni       5.73276803       5.68981586      11.26772300       0.01130640      -0.00706981       0.00961283      -5.98375830
Al       7.07365332       7.02640866      12.76659017      -0.00642406      -0.00310918      -0.00137399      -4.35269505
Al       6.92860673       9.73908963       1.50015982      -0.00161609      -0.00190320      -0.00104190      -4.44317916
Al       6.91449710       9.75995706       4.35981357       0.00344250      -0.00504706      -0.00016942      -3.86696166
Al       7.09013815       9.94131217       7.07589827       0.00302070      -0.00105970      -0.00590243      -3.66034761
Ni       5.61909202       8.47767113       8.37106317       0.00369517      -0.00155472       0.00315131      -6.00543820
Al       7.03149319       9.83355470       9.90059338      -0.00086845      -0.01096556      -0.00445122      -4.31970627
Al       6.97748526       9.79132194      12.75233290       0.00281933       0.00176834       0.00210664      -4.58636253
Ni       5.51404393      11.28769801       0.01913499       0.00529606       0.00342451       0.00329477      -6.26314454
Al       6.99931452      12.62245985       1.46084898       0.00210133       0.00778114      -0.00319853      -4.68602814
Ni       5.54946737      11.16465853       2.90344759      -0.00303835       0.00250273      -0.00261564      -6.14311723
Al       6.97315805      12.56814676       4.41589368       0.00117617       0.00070185       0.00259144      -4.43162559
Al       7.05717751      12.63660714       7.09957165      -0.00227194       0.00804521       0.00223511      -4.09028453
Al       7.09085832      12.68289895       9.94387629       0.00534657       0.00298500      -0.00232244      -4.43613786
Ni       5.71132008      11.32219834      11.35212267      -0.00846244       0.00204377       0.00206735      -6.00307052
Al       7.11910716      12.75601669      12.78049372       0.00129666       0.00177845       0.00097830      -4.43425006
Al       9.78332163       1.31316652       1.40301578       0.00658441      -0.00314060      -0.00082851      -4.13680929
Ni       8.41702244      -0.09830000       2.90587301      -0.00155879       0.00944440       0.00912851      -5.98252338
Al       9.85194965       1.40250003       4.20810403      -0.00037184       0.00286155       0.00297382      -3.94131414
Al       9.92282637       1.45322103       7.05540665       0.00493784      -0.00239621       0.00031983      -4.16813305
Ni       8.46973221       0.00451780       8.47105137      -0.00825012       0.00093913      -0.00655030      -5.90447090
Al       9.90786814       1.46688810       9.83354724      -0.00438515       0.00573821      -0.00226046      -4.16609084
Al       9.95802155       1.38938728      12.67918744      -0.00163181       0.00096821       0.00375445      -4.25921320
Ni       8.38060568       2.79679373      -0.02516677      -0.00078529      -0.00552646      -0.00312034      -6.01747819
Al       9.78772866       4.13341741       1.46108182       0.00140426       0.00300492      -0.00343218      -3.95424410
Al       9.97105947       4.19868711       4.18962975      -0.00532628      -0.00336005      -0.00395856      -4.13357258
Ni       8.51322082       2.89490159       5.61040310       0.00610795       0.00654433       0.00111067      -5.99934311
Al       9.99869762       4.20425043       7.06681602       0.00307020      -0.00042153      -0.00124903      -4.40875447
Al       9.94814259       4.21953149       9.79585245      -0.00063567      -0.00688782      -0.00575983      -4.46133731
Ni       8.56599225       2.85257617      11.36816558       0.00172401      -0.00669322      -0.00547155      -6.00408204
Al       9.93595881       4.27775293      12.77103523       0.00856378       0.00584351      -0.00864886      -4.38283318
Al       9.85993677       6.94809565       1.41062759      -0.00507061       0.00324716       0.00170795      -3.91521087
Ni       8.49612906       5.64268339       2.93260952       0.00127944      -0.00010551       0.00349100      -5.92610594
Al      10.05735865       7.06838344       4.17121151      -0.00298945       0.00441585      -0.00218312      -3.95621491
Ni       8.61100963       5.65058672       5.61873893      -0.00572514      -0.00623934       0.00051148      -6.15719058
Al      10.07965015       7.09984595       6.95996352       0.00582244      -0.00393217       0.00587082      -3.94822758
Ni       8.56452268       5.74429896       8.33199022      -0.00827126      -0.00527339      -0.00173103      -6.10017736
Al       9.96047972       7.12746503       9.79888779      -0.00055814       0.00457851       0.00053733      -4.27341792
Ni       8.56500417       5.68492106      11.22086747       0.00292644       0.00354772      -0.00222017      -6.27652594
Al       9.95199051       7.06619129      12.75183973      -0.00014684      -0.00075606      -0.00753977      -4.34879278
Ni       8.42496976       8.41877300       0.05243476      -0.00390113       0.00511738      -0.00263146      -5.99789631
Al       9.79673295       9.69809295       1.59419479       0.00182480       0.00440822      -0.00388169      -4.37413193
Al       9.64842818       9.74011167       4.50397992       0.00190007       0.00618104      -0.00479658      -4.11538469
Al       9.80701849       9.79199783       7.21783150       0.00456762       0.00228905       0.00368719      -3.86293310
Al       9.87834975       9.82165898       9.90165046      -0.00797470       0.00093105      -0.00189064      -4.34206884
Ni       8.51804074       8.46361191      11.37590551      -0.00091351       0.00373896      -0.00379846      -6.15395525
Al      10.01059667       9.85161793      12.78338865       0.00420416       0.00673251       0.00154503      -4.44789537
Ni       8.37446430      11.09910894       0.11718626      -0.00655582       0.00107151       0.00588634      -6.17159483
Al       9.83793327      12.58861048       1.49773854       0.00822565       0.00529659      -0.00876089      -4.44240631
Ni       8.37579263      11.20311524       2.94511928       0.00802968       0.00605723      -0.00146926      -6.17328790
Al       9.80192867      12.66047160       4.41510919       0.00120286       0.00132197      -0.00054220      -4.36887263
Al       9.84911846      12.69528076       7.15914288      -0.00126508       0.00513674       0.00390828      -4.23506867
Al       9.83003976      12.72885290       9.92223422       0.00190576      -0.00077107      -0.00423487      -4.36628146
Ni       8.47037621      11.21863608      11.37850468      -0.00180401       0.00144522       0.00168219      -6.18876975
Al       9.89969573      12.66104132      12.81945807       0.00031737       0.00211294       0.00027642      -4.35676409
Ni      11.28259691      -0.02583081       0.02582364      -0.00933155       0.00032045      -0.00023399      -5.91544373
Al      12.51278503       1.39879735       1.51917146       0.00942575      -0.00192066       0.00438709      -4.50670160
Al      12.53092736       1.30573784       4.38392056       0.00914288      -0.00648422       0.00195323      -3.91080785
Al      12.74441320       1.32733668       7.07794301      -0.00343006      -0.00414989       0.00615200      -3.91676197
Al      12.66967605       1.39688172      10.02385361       0.00507984      -0.00223050       0.00620097      -3.90341601
Al      12.69140774       1.51917887      12.71379667      -0.00234428       0.00378023      -0.00342977      -4.08084588
Al      12.47787752       4.23964140       1.60183544       0.00315897       0.00320208      -0.00155915      -4.11698290
Al      12.60998570       4.13278695       4.35726204      -0.00125009      -0.00543888       0.00075291      -3.67471939
Al      12.75612223       4.27904204       7.02247941       0.00652050      -0.00427403      -0.00386217      -3.89436158
Ni      11.46307886       2.81651418       8.45009380      -0.00133156       0.00417813       0.00360759      -5.93359898
Al      12.69041444       4.31716228       9.91770578      -0.00711531      -0.00044871      -0.00045977      -4.25639071
Al      12.66951168       4.26171698      12.70868912      -0.00968983       0.00891434      -0.00288794      -4.21936373
Al      12.57936572       7.00459475       1.66001944      -0.00172007       0.00090143       0.00207081      -3.90938772
Al      12.73230903       6.83503330       4.42329803      -0.00797731       0.00093819       0.00207955      -3.68928814
Al      12.80779197       6.96593733       7.24480261       0.00348587      -0.00377939      -0.00041889      -3.71874866
Al      12.69489846       7.09580806       9.94038650      -0.00436179       0.00587229       0.00499229      -3.95525806
Ni      11.26435298       5.65717977      11.30743708       0.00302164       0.00213514       0.01016333      -5.91267625
Al      12.66846726       7.02854982      12.73447062      -0.00705955       0.00028266      -0.00151386      -4.33718599
Al      12.58623872       9.82153981       1.54430734      -0.00192790       0.00637750       0.00609353      -4.19526560
Al      12.51202877       9.63771881       4.36577845       0.00328834      -0.00773535       0.00221767      -4.40052036
Al      12.61437658       9.68811961       7.23300756       0.00329937      -0.00659687      -0.00402127      -4.50392200
Al      12.75664437       9.86603870       9.99677494       0.00112427      -0.00136631       0.00609725      -4.36379838
Al      12.69456884       9.89453179      12.72031731      -0.00305821       0.00837456      -0.00200786      -4.31618088
Al      12.53441194      12.56878663       1.60917629      -0.00217309      -0.00082176       0.00121186      -4.41573144
Ni      11.10407107      11.08749446       3.07158546      -0.00463590      -0.00269589      -0.00050867      -6.01809138
Al      12.66332675      12.54210871       4.30501240       0.00214700       0.00048043      -0.00126396      -4.36213719
Ni      11.21937853      11.20634680       5.79016243       0.00593822      -0.00544390      -0.00045429      -6.15572751
Al      12.63451820      12.73793075       7.09763222       0.00058790      -0.00067202       0.00373210      -4.27030874
Ni      11.33248298      11.25775802       8.55300567       0.00390101       0.00385303      -0.00804889      -6.16539713
Al      12.70995291      12.78681624       9.94195770       0.00489311       0.00039357      -0.00333470      -4.12626158
Ni      11.23420171      11.31870550      11.23985908      -0.00193809       0.00537787       0.00969632      -6.02696894
Al      12.67142682      12.64127726      12.70451852      -0.00575466      -0.00196375       0.00046710      -4.36826723
