121
Lattice="11.42449931852044 -0.003154817592735119 0.000948231756054062 -0.003154800782690677 11.418022625296032 -0.001698961840017975 0.0009481590685015607 -0.001698788014839457 11.424434826671643" Properties=species:S:1:pos:R:3:forces:R:3:energies:R:1 energy=-654.9586409558267 stress="-0.00037528946315685456 0.0004164851257663682 -0.00021640610529592312 0.0004164851257663682 0.0007382250826512379 0.0003643618327495846 -0.00021640610529592312 0.0003643618327495846 3.0124822025186305e-05" free_energy=-654.9586409558267 pbc="T T T"
Ni      -0.01062870       0.01902419      -0.00322082      -0.00508822       0.00126491      -0.00512955      -6.07770461
Ni       0.00009111       0.02403108       2.83781181       0.00751920       0.00109085      -0.00205188      -6.06756228
Al       1.44257037       1.43903698       4.26577416      -0.00522776      -0.00386941       0.01027195      -4.62505372
Ni       0.01251547       0.00344648       5.73921130       0.00819556      -0.00093117       0.00290871      -6.28166546
Al       1.45123274       1.50208116       7.18072367      -0.00883792      -0.01046467       0.00221894      -4.58909314
Ni      -0.00510952       0.00234612       8.57092269      -0.00189445      -0.00202541       0.00430845      -6.30200550
Al       1.46495184       1.44255671      10.03399393      -0.00374551      -0.00793693       0.00013250      -4.58280824
Ni      -0.02263942       2.87657099      -0.03319685      -0.00048388      -0.00471302       0.00139753      -6.01836491
Al       1.45291597       4.18307817       1.38060020       0.00402496       0.00807165      -0.00370844      -4.63524116
Ni       0.00188327       2.85171599       2.83585956       0.00518534      -0.00338810      -0.00275748      -6.07812312
Al       1.47003881       4.23201801       4.27999514       0.00050187       0.00231396      -0.00103750      -4.63270207
Ni       0.02303212       2.88558009       5.73718518       0.00173591      -0.00519057       0.00179406      -6.09521666
Ni      -0.00415675       2.88475382       8.58515882       0.00354457      -0.00783531      -0.00366921      -5.82613583
Al       1.48897008       4.19896890       9.95737840       0.00077075       0.00637892       0.00407537      -4.62501871
Ni       0.01569238       5.64351497      -0.03753620       0.00981224       0.00376223       0.00351076      -6.08840022
Al       1.40563823       7.11187363       1.39764726       0.00242121       0.00177171       0.00353877      -4.66457859
Ni       0.00963642       5.68487256       2.83305489       0.01035616      -0.00683115       0.00247000      -6.27730841
Al       1.42537401       7.11789733       4.29007060       0.00460070       0.00084674       0.00210851      -4.63744588
Ni       0.01775248       5.67208580       5.72352492       0.00210306      -0.00530077      -0.00605837      -6.07528483
Al       1.41902647       7.08096125       7.16009995       0.00283785       0.01156257      -0.00073693      -4.59148293
Ni       0.02435678       5.64669242       8.59213334       0.00481841       0.00675650       0.00216289      -5.82246791
Al       1.41885182       7.10428557       9.98921377      -0.00199108       0.00710560      -0.00088616      -4.67494388
Ni       0.03507554       8.59018031      -0.01784462       0.00125908       0.00044479       0.00004413      -6.27666604
Al       1.46271198      10.08116589       1.39933198      -0.00275128      -0.01315665      -0.00373117      -4.59503645
Ni       0.01556979       8.56697240       2.83416050       0.00623417       0.00339556       0.00663692      -6.26070177
Al       1.46756983      10.04999918       4.26520092      -0.00309995      -0.00595189      -0.00038695      -4.67809753
Ni       0.02385009       8.58098994       5.72868438      -0.00005627       0.00573586      -0.00588472      -6.26121381
Al       1.46874078      10.03538098       7.17288974      -0.00238563       0.00005247       0.00388272      -4.67751201
Ni       0.04095657       8.59198940       8.58419909      -0.00178810       0.00898999       0.00130134      -6.28196332
Al       1.49904993      10.07984405      10.01112226      -0.00423139      -0.00390773      -0.00119538      -4.71608900
Ni       2.93877295       0.13947355       0.05954575      -0.00540215      -0.00401466      -0.00108898      -5.55148834
Ni       2.88220650       0.08654558       2.78570021      -0.00250049       0.00653638       0.00008891      -5.85838980
Al       4.27079801       1.44023292       4.28955544       0.00077596      -0.00238138       0.00171854      -4.48172354
Ni       2.87986709       0.04247253       5.76011459      -0.00182417      -0.00191884      -0.00031097      -6.10729751
Ni       2.93930579       0.09729107       8.55655380      -0.00352030       0.00138437      -0.00320641      -5.87294615
Ni       2.93320350       2.73705675       0.04606071       0.00229195      -0.00255198      -0.00116144      -5.56436574
Al       4.28558750       4.23816740       1.40292531       0.00128127       0.01440292       0.00290232      -4.63332831
Ni       2.87130141       2.77052203       2.77210856      -0.00214218      -0.00337059      -0.00298290      -5.87543263
Al       4.25316767       4.23625832       4.26464866       0.00052508       0.00475844      -0.00451408      -4.70330064
Ni       2.86743369       2.83639229       5.75390484       0.00187756      -0.00372404      -0.00044765      -5.84431046
Al       4.23997275       4.23947967       7.17320602       0.01172068       0.01131373      -0.00312661      -4.56757737
Ni       2.96367520       2.74610700       8.58863710       0.00004279       0.00297547       0.00033505      -5.71979052
Al       4.27212306       4.19884330      10.01385843       0.00093329       0.01415814       0.00280417      -4.66838531
Ni       2.85695735       5.70442396      -0.00458014       0.00001113       0.00570837      -0.00107991      -6.31547042
Al       4.29225599       7.13588836       1.40985328       0.00096023       0.00307657       0.00530817      -4.66779375
Ni       2.84843552       5.70402057       2.82171907      -0.00251278      -0.00309980      -0.00329429      -6.28593450
Al       4.26087280       7.11788632       4.29192099       0.00018132      -0.00291352      -0.00067051      -4.65326988
Ni       2.84481853       5.67140025       5.72772570       0.00383739       0.00347407       0.00243588      -6.07780039
Al       4.27494047       7.12465564       7.15075337      -0.00189259       0.00183733      -0.00307296      -4.68029256
Ni       2.86072089       5.68947732       8.58023899       0.00141497      -0.00010937       0.00019392      -6.09155181
Al       4.29000344       7.12338725       9.99061511      -0.00726723      -0.00441748      -0.00050831      -4.60515742
Ni       2.83923675       8.54730805      -0.01204839       0.00432057      -0.01299924      -0.00260228      -6.29959737
Al       4.28299367      10.02002492       1.40152967      -0.00492063      -0.00604202       0.00272047      -4.62194589
Ni       2.84478097       8.55366585       2.84014357       0.00145701      -0.00185307       0.00001280      -6.27451046
Al       4.25842220      10.03314631       4.26402762      -0.00112051      -0.00354289      -0.00200597      -4.68205462
Ni       2.84824776       8.57749435       5.71604546      -0.00006632       0.00442474       0.00193981      -6.27311103
Al       4.28797528      10.00748451       7.17177001      -0.00099979      -0.00627437      -0.00018630      -4.60685480
Ni       2.84453533       8.55966859       8.58941774       0.00350916      -0.00232027       0.00135406      -6.29420544
Al       4.27040245      10.06857310      10.01682764      -0.00087684      -0.01146035      -0.00175665      -4.63632736
Ni       5.65347724       0.08986553       0.02422565      -0.00166506       0.00461877      -0.00020713      -5.86592423
Al       7.15410034       1.44121106       1.40375992       0.00386960      -0.00068713       0.00189112      -4.62324867
Ni       5.69888602       0.03510828       2.82182194      -0.00392159       0.00402763      -0.00029865      -6.10062598
Al       7.12415797       1.42683641       4.29339120       0.00312758       0.00029836      -0.00042963      -4.67021575
Ni       5.68121080       0.02329176       5.74325722      -0.00473804       0.00298365      -0.00967908      -6.09331645
Al       7.12406991       1.43941719       7.16335780       0.00715386      -0.00325308       0.00014563      -4.61735500
Ni       5.63187125       0.08887052       8.55961918       0.00136128      -0.00142392       0.00774792      -5.85906247
Al       7.09183168       1.43409953       9.99260313       0.01687130      -0.00275752      -0.00091086      -4.63577746
Ni       5.63713499       2.75803620       0.01678075      -0.00095386       0.00164883      -0.00532518      -5.87604598
Al       7.11649846       4.25483902       1.38012191      -0.00489648       0.00019003       0.00319253      -4.69913044
Ni       5.69730167       2.81884840       2.81871228      -0.00265846      -0.00356566       0.00346678      -6.10321023
Al       7.09849168       4.24737308       4.28257511       0.00039521      -0.00214673      -0.00218679      -4.67506398
Ni       5.68183401       2.83564160       5.74511969      -0.00250600      -0.00034328      -0.00438508      -6.10251740
Al       7.10378890       4.25578875       7.18812026      -0.00232997      -0.00346890      -0.00361510      -4.71263168
Ni       5.63033851       2.77087792       8.56119152      -0.00422768       0.00024355       0.00635873      -5.88397005
Al       7.08955593       4.24168963       9.99429347      -0.00156514      -0.00028432       0.00330548      -4.61773803
Ni       5.70082042       5.71282980      -0.03109010      -0.00613571      -0.00355316      -0.00058751      -6.10057550
Al       7.14727325       7.11754651       1.37067470      -0.00182114      -0.00030301       0.00979828      -4.58595872
Ni       5.70288948       5.69607449       2.84958732      -0.00263746      -0.00280014       0.00127042      -6.27761074
Al       7.13095064       7.12638273       4.28675892      -0.00384973      -0.00053690      -0.00291059      -4.63291019
Ni       5.69849011       5.68661836       5.71679422       0.00481286       0.00182446      -0.00029551      -6.28256941
Al       7.13433293       7.11560598       7.19364032       0.00339352       0.00484750      -0.00917061      -4.59447812
Ni       5.69240851       5.70549577       8.59555048       0.00286684      -0.00074949      -0.00098650      -6.10727236
Ni       5.71357641       8.55004178      -0.03336148      -0.00757959       0.00040108       0.00495136      -6.08978527
Al       7.11358807      10.01005656       1.39036452      -0.00234263       0.00036892       0.00335559      -4.67658354
Ni       5.70637868       8.56552757       2.85684480      -0.00399584       0.00300789      -0.00076114      -6.27151699
Al       7.10721912      10.02372977       4.28515515       0.00263098       0.00090731      -0.00227119      -4.65645649
Ni       5.69845471       8.56658507       5.70886747       0.00053938      -0.00229071      -0.00130596      -6.27200396
Al       7.10476966      10.00895626       7.18054407      -0.00259091       0.00705497      -0.00588805      -4.66936944
Ni       5.70720915       8.54340030       8.60234726      -0.00545704      -0.00029490      -0.00409587      -6.08734859
Al       7.07906374      10.03648913       9.99236321       0.00113366       0.00142580       0.00088054      -4.64120417
Ni       8.58332437       0.01086839      -0.02250707       0.00059800      -0.00134352       0.00105993      -6.30351332
Al      10.02193253       1.44765169       1.41020201      -0.01010371      -0.00277565       0.00242413      -4.59913607
Ni       8.57375534       0.00158105       2.85226518      -0.00571629       0.00160847      -0.00327260      -6.27901761
Al      10.01983276       1.44313937       4.30088227      -0.00133435      -0.00651757      -0.00057979      -4.67130783
Ni       8.57642100      -0.00256802       5.72912694      -0.00191527       0.00656989      -0.00031541      -6.27024715
Al      10.00851277       1.45603971       7.15215756      -0.00207349      -0.00653048      -0.00251425      -4.68866403
Ni       8.58769231       0.01130606       8.58178629       0.00643209       0.00249829       0.00427566      -6.29614292
Al      10.02078829       1.47170875       9.98502397      -0.00199026      -0.00739140      -0.00093674      -4.61232185
Ni       8.58554151       2.86279271      -0.04461063      -0.00219952      -0.00493073       0.00505101      -6.11216700
Al       9.98165474       4.28318106       1.37238120       0.00067083       0.00109278       0.00614969      -4.59723389
Ni       8.56747661       2.86176560       2.86388779       0.00067187      -0.00081146      -0.00251195      -6.28778896
Al      10.01572699       4.27213048       4.28409483       0.00078003      -0.00702902      -0.00280502      -4.66897227
Ni       8.56054780       2.86973974       5.71793374       0.00159559      -0.00558772       0.00123136      -6.28640804
Al      10.00458662       4.29363298       7.19959160      -0.00515833      -0.00313985      -0.00704785      -4.54865724
Ni       8.57621430       2.86326770       8.59767707      -0.00104825      -0.00339752      -0.00318608      -6.11296046
Ni       8.54268392       5.67976087      -0.05706796       0.00210337       0.00678329       0.01093300      -5.81109128
Al       9.98918626       7.11625539       1.37988203       0.00306441       0.00471780       0.00911606      -4.66235466
Ni       8.56128050       5.69295375       2.85876371      -0.00297863      -0.00415459       0.00608422      -6.27738917
Al      10.01584323       7.12029216       4.29567507       0.00039514      -0.00048684       0.00005168      -4.64784151
Ni       8.55094662       5.69161820       5.71561663      -0.00660128      -0.00637714      -0.00719360      -6.28342593
Al      10.00026791       7.11023659       7.17959033       0.00298020       0.00224557      -0.00653530      -4.66776998
Ni       8.53199740       5.68408191       8.61111233       0.00017579      -0.00120145      -0.00642301      -5.82043348
Al       9.99174849       7.08324434       9.98373224      -0.00093824       0.00251645       0.00205466      -4.56644179
Ni       8.53516428       8.56373430      -0.04537808       0.00388190       0.00524152       0.00523413      -6.06990520
Al       9.98725580       9.97917239       1.40462340       0.00421959       0.00277057       0.00617743      -4.65797880
Ni       8.55994441       8.56097125       2.85226875      -0.00324729       0.00200053       0.00784567      -6.25955948
Al      10.01342631       9.99416895       4.27882592      -0.00101036       0.00865173      -0.00246164      -4.63350850
Ni       8.55604767       8.55772614       5.71971520      -0.00438248       0.00758939      -0.00952837      -6.25923799
Al       9.98291697       9.96613802       7.16573164      -0.00131711       0.00406717      -0.00700530      -4.65266224
Ni       8.52971738       8.55425289       8.60766538       0.00526875       0.00973853      -0.00280159      -6.07014980
Al      10.00201406       9.98550879       9.99940483       0.00245953      -0.00090511       0.00104820      -4.67277320
