91
Lattice="11.217368337074472 0.0010513958444950842 -0.001149940034221821 0.0010481518140100724 11.241604280475547 -0.0006690567785976833 -0.00115100324731407 -0.0006689039323537391 11.235193450308074" Properties=species:S:1:pos:R:3:forces:R:3:energies:R:1 energy=-433.6221787128648 stress="0.0008883135557935695 -0.00040709276600961816 -0.00019688836670639267 -0.00040709276600961816 -0.0008392163977700524 0.00010679208675701312 -0.00019688836670639267 0.00010679208675701312 -0.00047411104770011706" free_energy=-433.6221787128648 pbc="T T T"
Ni       0.11918318       0.00207748       0.01866277      -0.01548024       0.00621666      -0.00450729      -5.93941743
Al       1.36472599       1.47593915       1.46867746      -0.00125788       0.00905459      -0.00546778      -3.90948729
Al       1.47783877       1.42219806       4.13768826      -0.00753761      -0.01131013       0.00388071      -4.11046096
Ni       0.10600679       0.07741397       5.57719010      -0.00254305      -0.00389866      -0.01445407      -6.03236764
Al       1.50085279       1.40582815       6.99744589      -0.00600905       0.00512133       0.00857983      -4.54538751
Al       1.39571515       1.39602411       9.78505621       0.00480483       0.00227535      -0.00467705      -4.47065498
Al       1.45465121       4.15652473       1.47446030       0.00475706      -0.00581551      -0.00186272      -4.09797450
Al       1.37335550       4.15403786       4.19981297       0.00088063      -0.00182570       0.00203121      -3.92975632
Ni      -0.04054964       2.73684739       5.62689852      -0.00074305       0.01034246      -0.00958842      -6.01252319
Al       1.47308597       4.26375196       6.89106546      -0.00277235      -0.00541489      -0.00454681      -4.50353353
Ni       0.05471754       2.88581291       8.34391990       0.00242085      -0.00473289      -0.00629119      -6.09277702
Al       1.42823086       4.15445594       9.90711565      -0.00389672       0.00080834       0.00102856      -4.62880800
Ni       0.05219207       5.61718571       0.05892330      -0.00579259      -0.00252737      -0.00775087      -6.27303424
Al       1.43188175       7.08113183       1.46780614      -0.00568192       0.00294527       0.00505894      -4.07086063
Ni      -0.01706537       5.61508442       2.80567165      -0.00071178       0.00195703       0.00562556      -6.00700569
Al       1.43349640       6.95615875       4.24151124      -0.00063270      -0.01011040       0.00088781      -4.06230235
Al       1.46600697       7.06603249       7.07807244      -0.00202652       0.00309897       0.00080352      -4.21896856
Ni       0.08507662       5.60653670       8.43174090      -0.00435784      -0.00745143       0.00097834      -6.05959625
Al       1.45422585       7.07706629       9.86063509       0.00209694       0.00187790      -0.00130414      -4.26417124
Al       1.38479137       9.77348755       1.46790228      -0.00484258      -0.00236916       0.00059419      -3.89352037
Al       1.37056306       9.78150768       4.15122018      -0.00247346      -0.00645269      -0.00033083      -4.12329605
Al       1.38154303       9.82875779       7.06740989       0.00027790      -0.01157120       0.00431092      -4.12076543
Al       1.37182340       9.75762636       9.78382526      -0.00306783      -0.00433105      -0.00374811      -3.90640610
Ni       2.73591742       0.00312315       0.03573482       0.00265622       0.00122283       0.00195962      -6.10464227
Al       4.12155767       1.46212269       1.43833141      -0.00091910       0.00341500       0.00672260      -4.24622230
Al       4.16391529       1.45773045       4.20201803       0.00926536       0.00557684       0.00138736      -4.28385891
Ni       2.83838981      -0.09767689       5.57827546       0.00467668       0.00179517      -0.00229355      -6.18496016
Al       4.17730788       1.40047250       7.07166025      -0.00576999       0.00154603       0.01211163      -4.24662693
Al       4.14461783       1.42185289       9.81162448      -0.00378952       0.00632917      -0.00451731      -4.24187370
Al       4.22193730       4.25254389       1.40614979       0.00068814       0.00631506       0.00299876      -4.07606689
Al       4.11360848       4.27961830       4.25115282       0.00614042       0.00350906      -0.00378425      -3.70090643
Al       4.27076918       4.13860221       6.93571213      -0.00355060       0.00025519       0.00203720      -4.12854981
Ni       2.81347225       2.84887798       8.41600521      -0.00307841      -0.00748685      -0.00075100      -5.99867841
Al       4.29122865       4.15421016       9.90262425      -0.00371350       0.00768925      -0.01066424      -4.26538895
Ni       2.78780215       5.60822014       0.03356659      -0.00145339       0.00101959       0.00239324      -5.99724725
Al       4.15917236       7.02092772       1.40530687       0.00587634      -0.00085198      -0.00464900      -4.24372230
Al       4.22564411       7.00076869       4.20874311       0.00459797       0.00319871      -0.00365216      -3.92060752
Al       4.20361207       7.01324594       6.97250148       0.00768308      -0.00755302       0.00081079      -4.25763795
Ni       2.89977056       5.55058858       8.46331850       0.00657089       0.00356371      -0.01478437      -6.19319838
Al       4.27525135       7.00162936       9.87689945       0.00103980       0.00743308       0.00606463      -4.37528420
Al       4.12264631       9.85300821       1.48325914       0.00263230      -0.00144618      -0.00712019      -4.38507652
Al       4.24651547       9.77731692       4.18282907       0.00337554       0.00425560       0.00707248      -4.39752841
Ni       2.77920978       8.42419624       5.61310909       0.00006200       0.00010658      -0.00367036      -5.92320034
Al       4.21927875       9.76775546       7.10077946      -0.00296987       0.00108337      -0.00477092      -4.13830695
Al       4.08304548       9.75737606       9.80279925      -0.00336139      -0.00184039       0.00325607      -4.11972876
Ni       5.41622581      -0.00298576      -0.03067766       0.00314240      -0.00910649       0.00080444      -6.01209285
Al       6.89091034       1.37044137       1.43284814       0.00090558       0.00514357      -0.00223472      -4.16292882
Al       6.95267863       1.41546188       4.21458053       0.00225683      -0.00367332       0.01233168      -4.20297890
Ni       5.48375500       0.05257955       5.65523871       0.00433412      -0.00457062      -0.00873973      -5.90621092
Al       6.97600818       1.46721224       7.01772309       0.00006628      -0.00879139       0.00929677      -3.97746799
Al       6.97905691       1.42783671       9.88967639       0.00207718       0.00431336      -0.00330532      -3.97684653
Al       7.04660906       4.12426212       1.39264394       0.00231978      -0.00655755       0.00718164      -4.26123892
Ni       5.53070955       2.87376738       2.82070035      -0.00417505      -0.00587248      -0.00117350      -5.78430978
Al       6.98326408       4.23823482       4.19483718       0.00437871       0.00379676       0.00738166      -3.95424821
Al       7.06710740       4.19029689       6.93664310       0.00090676      -0.00672205       0.00562086      -3.66362442
Al       7.04799518       4.20753039       9.78049101       0.00179599      -0.00083587       0.00048838      -3.93625188
Al       7.00876381       6.96569676       1.40030414      -0.00457138       0.00385982      -0.00667796      -4.66245770
Al       6.99884547       6.97723524       4.24490887       0.00139560      -0.00256570       0.00222278      -4.28990205
Al       6.97880831       7.03081236       7.03228378       0.00468612      -0.00316610      -0.00101477      -4.25469373
Ni       5.58479044       5.58081281       8.34352887       0.00492996      -0.00437158      -0.00571882      -5.90792601
Al       6.98279520       6.98311411       9.77179652       0.00264849      -0.00300204       0.00494838      -4.42596834
Ni       5.61023327       8.49026431       0.04108855      -0.00792923      -0.00143390       0.00889387      -6.07599194
Al       7.00137442       9.92215715       1.38238464      -0.00716340       0.00669022      -0.00340610      -4.63289421
Ni       5.60213579       8.38461271       2.74976408      -0.00227519      -0.00444766       0.00272183      -5.98879296
Al       6.94582023       9.88208202       4.26007372      -0.01391564       0.00739283       0.00844417      -4.47754997
Al       6.97244255       9.91100266       6.95836379       0.00103063      -0.00155192       0.00332038      -4.37630205
Al       6.91738123       9.88948572       9.78259451      -0.00177000       0.01155818      -0.00164466      -4.57134622
Al       9.76441232       1.40360100       1.32475657      -0.00326168      -0.00381129      -0.00151998      -3.99028556
Ni       8.41578967       0.02138863       2.80874702       0.00180681       0.00898372      -0.00040643      -5.87453661
Al       9.78869651       1.41828963       4.16831370       0.01323570      -0.00317836      -0.01340645      -4.30492347
Al       9.79190100       1.39559716       7.04923691      -0.01682110      -0.00491114      -0.00225730      -4.41557604
Ni       8.37520015       0.04629190       8.43031156      -0.00713142      -0.00195724       0.00020923      -5.88421042
Al       9.87385140       1.41708263       9.79683064       0.00158782       0.00337672      -0.00258543      -4.12779313
Al       9.87989603       4.08249402       1.41171954       0.00545866       0.00647113      -0.00888538      -4.26475379
Al       9.79690872       4.18219011       4.25888123       0.00237686      -0.01333450      -0.00300990      -4.23823471
Al       9.78689560       4.26897171       6.98558550      -0.00058225      -0.00253995       0.00360350      -4.09852260
Al       9.83057744       4.16465031       9.83282688       0.00858897       0.00204736      -0.00017277      -4.37892199
Ni       8.47979688       5.56133645       0.04571711       0.00986375       0.00365037      -0.00154468      -6.04264527
Al       9.85843045       7.12115115       1.40091479      -0.00277598       0.00256651       0.00270368      -4.61682000
Ni       8.50262235       5.58293508       2.79306166       0.00223839       0.00405564       0.00202760      -6.05244326
Al       9.87178495       7.05365225       4.24279325      -0.00590506      -0.00174148       0.00360181      -4.36254614
Al       9.89486290       7.02926756       7.04264926       0.00690734       0.00602613       0.00498556      -4.19764368
Al       9.85119141       7.02787573       9.77948158      -0.00147708       0.00268094       0.00681324      -4.51362162
Ni       8.37114254       8.38388677      -0.10027843      -0.00016878      -0.00544793       0.00305566      -6.15512836
Al       9.81494708       9.86348052       1.35630645       0.00607017       0.00864474      -0.00410196      -4.36311797
Ni       8.38476626       8.49845014       2.88480636      -0.00030852      -0.00593652       0.00133113      -6.24651654
Al       9.83959750       9.89656376       4.26440744       0.00062270       0.00542713       0.00258631      -4.36943095
Ni       8.43650174       8.38847787       5.67813613       0.00447078       0.00428928       0.00028748      -6.05314131
Al       9.87210196       9.93423495       6.98828284       0.00499025       0.00437142      -0.00030429      -4.35246845
Ni       8.43570402       8.54460364       8.37488818      -0.00453749      -0.00199750       0.00452344      -6.14813519
Al       9.82207519       9.91815414       9.86690151       0.00760661       0.00115613       0.00731739      -4.36634861
