174
Lattice="13.892193887538046 0.00020010847928958816 -0.05975692283602558 -0.00022158449400253296 13.963382451833 0.09808402416836093 -0.05996728409315628 0.09819427759192263 13.896156081667606" Properties=species:S:1:pos:R:3:forces:R:3:energies:R:1 energy=-817.9939196242321 stress="0.00021549254425025182 -0.0003771677478999266 -0.0007870133237333137 -0.0003771677478999266 7.9543570621631e-05 -0.0005944281784224798 -0.0007870133237333137 -0.0005944281784224798 -4.157576690658788e-05" free_energy=-817.9939196242321 pbc="T T T"
Al       1.59909433       1.42733471       1.42974063       0.00099218       0.00021220       0.00028603      -4.52107319
Ni       0.12755502       0.00038745       2.88447309       0.00778247       0.00139481      -0.00588935      -6.24236453
Al       1.54920667       1.41983145       4.28588370       0.00375533      -0.00552173       0.00299315      -4.43556487
Ni       0.17217489      -0.02158817       5.65858653       0.00068904       0.00398888       0.00789776      -6.09149927
Al       1.50991555       1.26859466       7.09813429       0.00346214       0.00095732      -0.00560639      -4.21572662
Al       1.46000994       1.34550041       9.81672609      -0.00048857      -0.00250860      -0.00161966      -4.25879121
Ni      -0.06629604      -0.01449784      11.09287726      -0.00050111      -0.00423192       0.00605681      -5.91681633
Al       1.28102129       1.52004829      12.48423942       0.00254039       0.00851355      -0.00250413      -4.33228210
Ni       0.01899639       2.77647487       0.12298408       0.01003583       0.00191350      -0.00273545      -5.98717794
Al       1.21379960       4.40382460       1.28728095      -0.00917014      -0.01003760       0.00464677      -4.31643228
Ni       0.12074991       2.80813933       2.77209749       0.00050018      -0.00312998      -0.00364522      -5.99332282
Al       1.96797442       4.01707640       3.84696813      -0.00464639       0.00932955       0.00348550      -4.12426203
Al       1.41526075       4.05968002       6.69114679       0.00475770      -0.00901062       0.00345239      -3.93207625
Al       1.14678446       4.32279278       9.52989704      -0.01182445      -0.00118889      -0.00191719      -3.95046530
Al       1.15686704       4.34656635      12.35963011      -0.00478121      -0.00459773      -0.00076023      -4.27198458
Al       1.52905339       7.00685116       1.53658615      -0.00344553       0.00350582      -0.00236342      -4.29395468
Al       1.25890886       6.74845143       4.23638279       0.00742086      -0.00469919       0.00545310      -4.35280777
Al       1.53442665       6.75616409       7.06601515       0.00387345      -0.00034371      -0.00533928      -4.30675165
Al       1.66556752       7.02964427       9.76959225       0.00064094       0.00224714      -0.00052254      -3.77925942
Al       1.08275744       7.02283304      12.41908231      -0.01401563       0.00525047       0.01139036      -4.07128110
Ni      -0.03471849       8.33008896       0.11589904      -0.00210617      -0.00144333      -0.00040402      -6.15993768
Al       1.44624640       9.71637978       1.50395621      -0.00590315      -0.00180598      -0.00008942      -4.54394952
Ni      -0.07863346       8.30914105       2.97375793       0.00193151       0.00383810      -0.00722536      -6.15236957
Al       1.42673094       9.72003673       4.31525322      -0.00183326       0.00233584      -0.00139729      -4.49438125
Ni       0.07960317       8.23903785       5.76373086       0.00475019       0.00140638      -0.00389332      -6.12805920
Al       1.71402747       9.57135479       7.16573014      -0.00383710      -0.00276592       0.00239448      -4.38716493
Ni       0.06084128       8.30184939       8.38272331       0.00224967       0.00518656       0.00094621      -5.88826639
Al       1.19761967       9.83021107       9.83910180       0.00822608      -0.01206841      -0.00490483      -3.96559195
Al       1.24002478       9.85874405      12.50363861      -0.00310016      -0.00153295      -0.00281421      -4.42932284
Ni      -0.01932531      11.14606949       0.10961380       0.00123569      -0.00369055      -0.00231024      -6.26044884
Al       1.53860240      12.57729206       1.49916748       0.00547361       0.00364316      -0.00269820      -4.46770151
Ni       0.08046275      11.13385670       2.86457515       0.00330102      -0.00313679       0.00154858      -6.11327573
Al       1.56861571      12.40911838       4.27546370       0.00522665      -0.00595304       0.00722120      -4.52731584
Al       1.47933675      12.29903599       7.03825440       0.00063270       0.00098561       0.00132318      -4.10944165
Al       1.22683652      12.58200994       9.65401885       0.01148137       0.00101510      -0.00318128      -3.93792852
Ni      -0.16389840      11.34457475      11.18411020      -0.00418670      -0.00166888       0.00644789      -6.01439225
Al       1.34941261      12.69217242      12.60335425       0.00160622      -0.00155383       0.00539663      -4.33980606
Al       4.28230942       1.62516474       1.45040838      -0.00745833       0.00185104      -0.00357636      -3.92222811
Ni       3.02185996       0.01250569       2.88400188       0.00258642       0.00035738      -0.00151362      -5.95348264
Al       4.39595602       1.36687333       4.37508728      -0.00095720       0.00378164       0.00371263      -3.99109825
Ni       2.95124835      -0.18677662       5.60516646      -0.00458127       0.00066975      -0.00099924      -6.05958178
Al       4.22173553       1.25254402       7.16915495       0.00223171      -0.00255193       0.00241438      -3.96869448
Al       4.42577319       1.96869393       9.81912682       0.01133056      -0.00055040      -0.00092426      -4.31417382
Al       4.08808672       1.53143788      12.48815643       0.00422814      -0.00316859       0.00144735      -4.20680814
Ni       2.77324772       2.97490188      -0.13188385      -0.00774351      -0.00361677      -0.00245037      -6.07081206
Al       3.95148339       4.36465744       1.57593605       0.00049936       0.00297935      -0.00142727      -3.98236212
Al       4.75018743       4.16372666       4.24649943      -0.00226361      -0.00588781      -0.00183188      -3.82965066
Al       4.21067483       4.11546891       7.04491590       0.00307358       0.00070749       0.00786182      -4.16393062
Ni       2.71714306       2.86033191       8.44391378       0.00139316      -0.01205151      -0.00177696      -5.87961256
Al       3.87933026       4.83459190       9.73278197       0.00375556       0.00470195       0.00000621      -4.30990719
Ni       2.71409117       3.05209351      11.03614815      -0.00288787      -0.00537676      -0.00234718      -6.06145329
Al       4.22525522       4.41487770      12.44590305       0.00658471       0.00807311      -0.00414805      -4.13289079
Ni       2.74879254       5.65509637      -0.14115244       0.00524270       0.00268974       0.00789050      -6.08116006
Al       4.45747239       6.94413570       0.89575673      -0.00689147       0.00073611      -0.00482491      -3.97095395
Al       4.03840008       6.82471789       3.62940898       0.00202275      -0.00081414      -0.00164895      -3.99690330
Ni       2.92304112       5.51522385       5.40990371      -0.01131742       0.00017049      -0.01156051      -5.86338209
Al       4.59803826       6.77425522       6.44896306       0.00433634       0.00377907       0.01056507      -4.31442110
Al       4.35991489       7.60594776       9.19258821      -0.00588995       0.00756802       0.00249563      -3.85156948
Al       3.83704219       7.10450361      11.91662011       0.00421251      -0.00288205      -0.00416750      -4.00191707
Ni       2.71416799       8.26352851      -0.16861164       0.00146904      -0.01147393       0.00525595      -6.12337670
Al       4.14287655       9.61060261       1.35200523       0.00664987       0.00002485       0.00137098      -4.03030817
Al       4.30782984       9.58194682       4.04199888      -0.00052625       0.00318439       0.00575756      -3.91702729
Ni       2.89796833       8.19444975       5.52871396      -0.00203212       0.00322717       0.00186806      -6.13922701
Al       4.55154034       9.47765153       6.97989490      -0.00133713      -0.00529051      -0.00298688      -4.00518662
Al       3.82033800      10.35494652       9.44412069      -0.00458751      -0.00100629       0.00695652      -3.85865422
Al       3.97028361       9.84311420      12.24844288       0.00423625       0.00202494       0.00001192      -4.33784909
Ni       2.83262940      11.11720513       0.01824895       0.00490454       0.00511222      -0.00098280      -6.13600254
Al       4.31473931      12.60871432       1.50608116      -0.01045666       0.00048867       0.00046049      -4.22687374
Al       4.45909977      12.40993542       4.30093485      -0.00455971       0.00081642       0.00371277      -4.13291887
Ni       3.05311346      10.93603803       5.68031183       0.00005720      -0.00190811      -0.00003865      -6.05800392
Al       4.38498643      12.32574370       7.15261112      -0.00009527      -0.01087134       0.00266148      -4.00150191
Al       3.84477256      13.08053115       9.65494296       0.00790819       0.00221794       0.00180353      -3.93414740
Al       3.99931701      12.78407803      12.50973227      -0.00993281      -0.00367743      -0.00090438      -4.31125615
Al       6.92431752       1.09648312       1.31113965      -0.00036316       0.00203137       0.00847768      -3.73172915
Al       6.86781305       2.09543315       3.80505052      -0.01661835       0.00451910      -0.00047758      -3.83760075
Al       6.91802520       1.63571266       6.66024374       0.00036577       0.00519529      -0.00699202      -3.92739451
Al       6.91570422       1.31126339       9.50943205      -0.00352728      -0.00502732       0.00791489      -3.94304845
Ni       5.44691085       0.09888433      10.99167538       0.01369389       0.00662550      -0.00346632      -5.88813174
Al       6.86156616       1.48448315      12.34423565      -0.00184807      -0.00516905      -0.00026062      -4.12828075
Al       6.57208044       3.87227527       1.43623572      -0.00531532      -0.00072458       0.00413656      -3.84114176
Al       7.51391448       4.81184150       3.80201080       0.01049292       0.00773094      -0.00305438      -3.89752360
Al       6.90366928       4.53411834       6.56631805      -0.00388668       0.01026247       0.00433021      -4.29432382
Al       6.69877890       3.94906741       9.59515872      -0.00014053       0.00165863       0.00017800      -3.99829147
Al       6.90313778       4.32692982      12.38179123      -0.00679708      -0.00564559      -0.00012283      -3.73740204
Al       6.92760470       6.78977953       1.78378005      -0.00257630       0.00506683       0.00571206      -3.99959774
Al       6.60750715       7.35140904       4.48184104      -0.00035676      -0.00096737       0.00303396      -4.05381557
Al       6.95316487       7.54159282       7.44118404       0.00228738       0.00253317      -0.00105754      -4.35370385
Ni       5.65051433       5.68825716       8.30906640      -0.00902765      -0.00075141      -0.00065797      -5.88850665
Al       6.79304061       6.67929442      10.21888813       0.00829187       0.00784978       0.00630672      -4.34236411
Al       6.54321065       6.98001668      12.86280200       0.00170013      -0.00755982       0.00012445      -3.88480700
Al       6.75582942       9.80525348       1.50502860      -0.00663807      -0.00220483      -0.00322762      -4.33176005
Al       6.88349611      10.27247184       4.50285885      -0.00082730       0.00330437       0.00262473      -4.18309837
Al       7.25566704      10.27322331       7.27848448       0.00623256      -0.00026229      -0.00484076      -3.85094705
Al       6.50477206       9.55938563       9.81484585      -0.00358588      -0.00143189       0.00490641      -4.04044989
Al       6.77251273       9.89178355      12.54425712      -0.00702792       0.01050316       0.00301729      -4.42965364
Ni       5.39446567      11.16364417      -0.10304784       0.00110834      -0.00814561       0.00400488      -5.99423988
Al       7.07346155      12.44846939       1.04315262      -0.00346858       0.00555947       0.00845354      -3.97574022
Al       6.96987777      13.24560205       3.67902283       0.00400431       0.00018105       0.01351924      -3.84150884
Al       6.93943416      12.83420260       6.39979398      -0.00050164       0.00333244       0.00400651      -3.77160462
Al       6.59404431      12.46820128       9.26737389       0.00163890      -0.00143468       0.00373516      -4.32057484
Ni       5.37052656      11.40117495      11.02165137       0.00288045      -0.00148083       0.00664168      -5.99209735
Al       6.94886722      12.65819193      12.27582284      -0.00160619       0.00144850       0.00078872      -4.08087559
Al       9.76370497       1.49923363       1.38102494      -0.00651867      -0.00009784      -0.00167906      -4.09666545
Al       9.70757733       1.48710967       4.12217725      -0.00649924       0.01059439       0.00196136      -4.37891722
Al       9.61825156       1.47650568       6.86562077      -0.00866886      -0.00050166      -0.00372395      -4.57361220
Ni       8.22879972      -0.02392183       8.12034703      -0.00676269       0.01279409       0.00233546      -5.87701649
Al       9.55517366       1.42141602       9.73251795      -0.00413255      -0.00217569      -0.00425850      -4.36259987
Al       9.62003207       1.42475677      12.52114382       0.00603687      -0.00453545      -0.00268382      -3.95511676
Ni       8.16164594       2.69681290       0.00870594       0.00294630       0.00212637      -0.01178041      -5.77253188
Al       9.35670856       4.26199996       1.45798627       0.00468919      -0.00025942       0.00589764      -4.01255726
Al      10.20401116       4.40295404       4.05881170      -0.00270190      -0.00115848      -0.00499490      -3.96429221
Ni       8.42634883       3.07382680       5.33070936       0.00237453       0.00010028      -0.01429568      -5.88429775
Al       9.60905156       4.23113429       6.99406996      -0.00035703       0.01263139       0.01323427      -4.50919435
Al       9.45542183       4.19510785       9.85176107      -0.00411936       0.00635729      -0.01087734      -4.39246758
Al       9.62808049       4.18790520      12.59807837      -0.00534544      -0.00290876       0.00022803      -4.14044611
Al       9.61799073       6.95896911       1.56685963      -0.01401393      -0.00281015       0.00731262      -4.42715264
Al       9.51831629       7.01315236       4.30529065       0.00499179       0.00529220       0.01173629      -4.12839594
Al       9.60346962       6.99898678       6.95377164       0.00076239      -0.00619317       0.01339695      -4.16568187
Ni       8.16163974       5.62403544       8.41596754       0.01501607       0.00249223       0.00585758      -6.06086798
Al       9.53536577       7.05118555       9.77275420       0.00375033      -0.01281256      -0.01039787      -4.46913085
Al       9.45354816       6.91078168      12.61961944       0.00149760      -0.00813836       0.00325650      -4.50639159
Ni       8.14665624       8.30613189       0.15185176       0.00062324      -0.00986838      -0.00567557      -6.09370122
Al       9.63892655       9.84429237       1.48423756       0.00803940       0.00787649      -0.00851799      -4.61777644
Ni       8.20075607       8.58327411       2.99157253      -0.00181277      -0.01028833       0.00732500      -6.15340825
Al       9.76354132       9.91178821       4.29784193       0.00848618       0.01013193       0.00105298      -4.44130050
Ni       8.23906965       8.59357083       5.71079077      -0.00005969       0.00159107       0.00497129      -5.91097116
Al       9.96138970       9.67839299       7.12928407      -0.00443008       0.01031552      -0.00147366      -3.94297455
Al       9.36090607       9.91261651       9.76536863      -0.00506838       0.00230540      -0.00128027      -3.91639492
Ni       8.11846683       8.38783059      11.29877842       0.00039451      -0.00409672      -0.00464722      -5.96723709
Al       9.52252601       9.90633038      12.60990826       0.00208629       0.00055175       0.01269099      -4.45312635
Al       9.75725340      12.62709399       1.51520937       0.00202452       0.00228433      -0.00742865      -4.12925145
Ni       8.22421668      11.28422249       2.84503226      -0.00936505      -0.00038720       0.00085476      -5.89961820
Al       9.65649757      12.60009398       4.27854879       0.00590134      -0.00432170       0.00596621      -4.39652703
Al       9.62403891      12.43111483       7.06365418       0.00701747      -0.00851842      -0.01130344      -4.41347066
Al       9.38025482      12.60498420       9.89461645       0.00776101      -0.00280072       0.00403656      -3.87894970
Al       9.56334372      12.69233002      12.59770081       0.00505665      -0.00076158      -0.00337683      -3.71808998
Al      12.55323949       1.32936733       1.33748295      -0.00363320       0.00081364       0.00017514      -4.35660967
Ni      11.12781440       0.08921757       2.82483718      -0.00297916      -0.00001039      -0.00801468      -5.96644649
Al      12.60081665       1.47902360       4.21898498      -0.01204536      -0.00659592      -0.01156741      -4.57341912
Ni      11.15916007      -0.01676104       5.55323149       0.00388496       0.00082295       0.00138861      -6.26075434
Al      12.58385784       1.43168446       6.99543577      -0.00467911      -0.00416832      -0.00162342      -4.46333818
Ni      10.90717532       0.04499628       8.28380475       0.00331120      -0.00032243      -0.00491109      -6.06909312
Al      12.46169197       1.39434631       9.72549480      -0.00213510      -0.00303013      -0.00445851      -4.37837390
Al      12.45449766       1.48242138      12.47024591       0.00616013      -0.00463798      -0.00367247      -4.13141916
Al      12.23097367       4.08808065       1.61009637       0.00145355       0.00521480      -0.00759891      -4.25737969
Al      12.96644380       4.17775793       4.42234823       0.00254439       0.00271961      -0.00086443      -3.93936970
Ni      11.14925275       2.87729425       5.65532327       0.00586098       0.00121487      -0.00929852      -6.05936625
Al      12.60488685       4.26736781       7.11488478       0.00100162      -0.00192928       0.00273783      -4.11475800
Ni      11.09522691       2.87051562       8.42161928      -0.00327680       0.00528036      -0.00145343      -6.25276588
Al      12.42676311       4.33645798       9.92200868       0.00870094       0.00421558       0.00128661      -4.14772486
Ni      10.97794519       2.83325325      11.08428547       0.01030837      -0.00366046      -0.00052242      -5.91328108
Al      12.34084585       4.22692507      12.65932079      -0.00063090       0.00136851      -0.00621930      -4.15451639
Ni      10.98513104       5.55453114       0.14503393       0.00263414      -0.00383628      -0.00058503      -5.90281991
Al      12.51293463       6.84231847       1.48382961      -0.00072153      -0.00172972       0.00092138      -4.46145489
Al      12.34417142       6.84472207       4.34140011       0.01003989       0.00505756       0.00439271      -4.10026351
Al      12.37080428       7.00156457       7.04976994       0.00800582       0.00577392      -0.00313584      -4.21525778
Ni      10.94133491       5.58679423       8.42267749      -0.00961448      -0.00505109      -0.00087403      -6.02435092
Al      12.40019289       7.06556933       9.79761048      -0.00425498       0.00863754       0.00846506      -4.09549516
Al      12.30682489       6.99094282      12.50201779      -0.00075987      -0.00472286      -0.00314851      -4.27760994
Ni      11.02252754       8.30266079       0.06568761      -0.00317513       0.00588965      -0.00618789      -6.31019930
Al      12.41454072       9.76159772       1.49339410       0.00065201      -0.00188436      -0.00414047      -4.68728391
Ni      11.05747287       8.31406133       2.90382797       0.00287900       0.00291355       0.00355983      -6.10489167
Al      12.48096344       9.77659897       4.32841122      -0.00222523      -0.00504216      -0.00341790      -4.41618185
Al      12.76283181       9.93257832       7.02871837       0.00220016      -0.00844288      -0.00310574      -4.26647777
Al      12.32201691       9.79041391       9.73691074       0.00359946       0.00247059      -0.00154897      -4.09122009
Ni      10.81883305       8.45355306      11.16036334       0.00355689      -0.00362077      -0.00313914      -5.98529970
Al      12.35594844       9.83847618      12.47617014       0.00425672      -0.00160750       0.00307679      -4.59976947
Ni      11.07666203      11.18616685       0.03912835      -0.00768980      -0.00771599       0.00017117      -5.97227227
Al      12.49331690      12.56396024       1.51034928      -0.00572884       0.00491871       0.00269211      -4.47887472
Al      12.59883078      12.50083031       4.29293783      -0.00883456       0.00199988      -0.00358095      -4.59768190
Ni      11.16319984      11.24908021       5.74846869      -0.01412372       0.00573141       0.00356092      -5.89064206
Al      12.60639127      12.62803141       7.17877661       0.00019837      -0.00001202      -0.00745148      -4.25879860
Al      12.13597852      12.59229180       9.86504769       0.00077194       0.00089287      -0.01572660      -4.25227971
Al      12.36065186      12.75218124      12.62922304       0.00037324       0.00140910      -0.00491749      -4.34325701
