128
Lattice="12.16046014017546 -0.37086874568727507 0.08552434138059427 -0.3779515505603338 13.033592511179943 -0.16322416648019986 0.08218245781746683 -0.15767718268004985 12.071202317050934" Properties=species:S:1:pos:R:3:forces:R:3:energies:R:1 energy=-596.239978691638 stress="9.831958294800771e-05 -0.00015363961104578497 2.982797168945555e-05 -0.00015363961104578497 -8.396747516460508e-05 0.00016557504260706653 2.982797168945555e-05 0.00016557504260706653 0.0004546682846038504" free_energy=-596.239978691638 pbc="T T T"
Ni      -0.17590590       0.70819059       0.31045528       0.00067751       0.00408643       0.00487539      -5.86385742
Al       2.07294383       2.13451036       1.12035506       0.00441747      -0.00097060      -0.00324236      -4.49186264
Al       0.61628901       0.18841780       2.53216059      -0.00224103      -0.00247022      -0.00202648      -4.35968899
Al       1.78946678       2.54011237       3.97401856      -0.00199276      -0.00124066      -0.00501537      -4.34324215
Ni      -0.94145193      -0.05665048       6.42607655       0.00573853       0.00197992       0.00399228      -5.91054303
Al       1.04612394       1.46198425       6.49443078      -0.00232783      -0.00041231       0.00344257      -4.17444511
Al       0.46583607      -0.23943921       8.54545276      -0.00275983      -0.00683811       0.00261163      -4.13911160
Al       1.62606334       1.33228957      10.67719118       0.00411410       0.00429397       0.01479958      -4.41461600
Ni       0.15047666       3.19171843      -0.16283557      -0.00264235      -0.00628060      -0.00014380      -6.00009852
Al       1.16559508       4.64112660       1.94643823       0.00157399       0.00295961       0.00112339      -4.25630895
Ni      -0.04119304       2.51616477       2.35235327      -0.00198270       0.00497020       0.00395558      -5.81044425
Al       0.97096170       5.07107130       4.71279103      -0.00500575      -0.00300555       0.00757349      -3.95558110
Ni       0.04420086       3.71305569       6.48742460      -0.00030794       0.00143905       0.01087425      -5.91320827
Al       1.02114869       5.83224430       7.39862515      -0.00475701       0.00181191       0.00657677      -4.15052558
Al       2.00494696       3.47317690       8.21872372       0.00772087       0.00444402      -0.00277541      -3.68105310
Al       2.23247929       4.05669155      11.18629900       0.00045383      -0.00213328       0.00191009      -4.20757827
Al       0.00367636       5.80882234      -0.38721371       0.00301992       0.00798727      -0.00127683      -4.11688441
Al       0.71426764       8.01660125       1.06920342       0.00167893      -0.00580179      -0.00224780      -4.08877427
Al      -0.52180806       6.97746168       3.31257779      -0.00044995      -0.00900642      -0.00139294      -3.85744505
Al       1.28597009       9.67973117       3.69214991      -0.00425214       0.00030846      -0.00177904      -4.24936004
Al       0.59132615       7.94190429       5.58904066       0.00031140      -0.00248962      -0.00068221      -3.91256292
Al       2.67347737       8.10686845       7.22860235       0.00422871      -0.00472617      -0.01754421      -4.17144303
Ni      -0.34489289       6.40947977       9.41468676       0.00399257       0.00007986       0.00680223      -6.00146074
Al       0.75274344       8.57625578      10.00034433       0.00307784      -0.00155916       0.00052377      -4.32104786
Ni      -0.63425029       9.79818524      -0.27093565      -0.00427445      -0.00341977      -0.00023846      -5.93956766
Al       1.12273176      10.69282965       1.24755508      -0.00034616       0.00261721      -0.00018938      -4.25611904
Ni      -0.55708373      11.10840510       3.08836896       0.00084159      -0.00754515      -0.00184047      -5.84400473
Al       0.71198794      12.13612973       4.91640667       0.00038052       0.00271641      -0.00432200      -4.27451531
Al      -0.35410416      10.50493782       6.70855629       0.00369570      -0.00600046       0.00665602      -4.03892629
Al       1.74900994      10.49286626       8.39304356      -0.00587154       0.00787862      -0.00182902      -4.24078932
Ni      -0.66510659      10.32298747       9.08781989       0.00135352      -0.00535823      -0.00264293      -6.08387027
Al       0.52081506      11.66032703      10.85365058      -0.00893201      -0.00270178      -0.00285516      -4.50137705
Ni       2.27215612      -0.22772619       0.65166791       0.00197838      -0.00015519      -0.00391109      -5.92968762
Al       4.99576239       1.79365422       1.72735439       0.00164017      -0.00039659       0.00482297      -4.07961203
Al       3.37764879       0.14360061       2.87336913      -0.00020574       0.00278012      -0.00259887      -4.31181584
Al       5.49147928       0.68492317       4.85396250      -0.00229623      -0.00305343      -0.01378853      -4.35080517
Ni       2.90284769       0.65974635       5.11603432      -0.00598368      -0.01169087       0.00540067      -5.85554868
Al       3.43547228      -0.43596306       7.13203058      -0.00508959      -0.00275870      -0.00544854      -4.31027200
Ni       2.84272901      -0.33358822       9.44708075       0.00350078      -0.00187231       0.00152042      -5.98042807
Al       4.31669267       0.27011428      11.42953333       0.00651952       0.00383563       0.00151107      -4.31463027
Ni       3.96159315       2.76974914      -0.42277788      -0.00291096       0.00602043      -0.00243592      -5.92883664
Al       3.97299986       4.63879279       1.15706688       0.00425600       0.00259472       0.00641754      -4.13820095
Ni       4.20893156       2.49727927       3.99771257       0.01127109      -0.00180768      -0.01073330      -5.90756587
Al       3.71061292       4.80451373       4.33394786       0.00149622      -0.00048500       0.00058781      -4.06075012
Al       3.67340037       2.47188299       6.42070180      -0.00839714       0.00380882       0.01599643      -4.21124648
Al       4.08033963       5.39296096       7.16914727       0.00932615      -0.00324889       0.00100868      -4.27312799
Al       4.10630719       1.83745657       9.23393513       0.00125674       0.00076553       0.00995319      -4.21442610
Al       4.54050079       4.46633924       9.97374007      -0.00488004      -0.00002537       0.00486825      -4.22261360
Ni       2.28174261       6.28859009       0.55521160      -0.00390884       0.01316964      -0.00042503      -6.06149239
Al       4.47168557       7.23997299       1.22948895       0.00144580      -0.00682581      -0.00328901      -4.25695550
Al       2.30103860       6.90105205       3.04100498       0.00039479      -0.00857678      -0.00320325      -4.24569907
Al       3.68457257       8.57453451       4.60929417      -0.00816488       0.00111909      -0.00092002      -4.09029204
Ni       2.63735106       6.50919403       5.53368996       0.00149478       0.01084416       0.00261979      -5.74557243
Al       5.36170026       7.89753324       7.88587337      -0.00198447       0.00691712      -0.00362016      -4.11229127
Al       2.25464630       6.38936042       9.87028955      -0.00566695      -0.00167769       0.00673235      -4.11104599
Al       5.08732030       7.37503346      10.40830104       0.00237749       0.00335821       0.00289460      -4.18768855
Al       2.83779553       8.61923699      -0.32116195      -0.00202205       0.00286249      -0.00711179      -4.31815919
Al       3.84520099      11.29605943       1.01776827      -0.00623836      -0.00055839      -0.00250875      -4.42065676
Ni       2.99887865       9.07008130       2.06956060      -0.00706303      -0.00297289       0.00267111      -6.08089844
Al       3.85238705      11.38339198       4.65263374      -0.00133465      -0.00616018       0.00610795      -4.15231927
Ni       2.13038361      10.18958197       5.96221475      -0.00229060      -0.00222635      -0.01170296      -6.15953666
Al       4.37238858      10.21016385       7.13706911      -0.00992732       0.00064720      -0.00076066      -4.29706209
Ni       3.21960976       8.62337492       9.40093909      -0.00140459       0.00144231       0.00663991      -5.96433818
Al       3.45799381      10.75052009      10.41650202      -0.00192455       0.00188108      -0.00193423      -4.43969936
Ni       5.86617835      -1.34491860      -0.64873655       0.00703110      -0.00107628      -0.00408637      -5.76347778
Al       7.05539312       0.39654009       0.53037681      -0.00537500       0.00481725      -0.00389417      -4.31231476
Ni       5.89627989      -0.49811446       2.64605970       0.00154788       0.00279111      -0.00036501      -6.06532788
Al       7.56291029       1.42442157       3.07679439       0.00191052      -0.00083099      -0.00345886      -4.23090669
Ni       6.11811617      -0.91229976       6.60935939      -0.00249051      -0.00378180      -0.00371757      -5.98162822
Al       6.47423797       1.31334902       7.49496832       0.00192784      -0.00426110      -0.00341441      -4.07574831
Al       5.47069666      -0.74636396       9.04503713       0.00555919      -0.00265695       0.00040029      -4.31062952
Al       7.08371354       3.22292809       9.62220677       0.00054885      -0.00260243      -0.00546047      -4.02321784
Al       6.19635301       3.43405354       0.03074819       0.00308834       0.00265824      -0.00441635      -3.89301172
Al       8.14243953       4.00504550       1.68940693      -0.00075742       0.00034275       0.00557109      -4.18611092
Al       5.85711107       3.95817126       3.00366504       0.00538511       0.00622147       0.00107348      -4.01281750
Al       8.00148585       4.65096067       4.51948244       0.00580994       0.00004700      -0.00107342      -4.17662944
Al       5.98834742       3.34664892       5.57124879       0.00575046       0.00548973      -0.00359726      -4.00691232
Al       7.94241347       4.14950537       7.41311064       0.00423386      -0.00707437      -0.00036275      -4.32543587
Ni       5.38173534       3.42236200       7.89076792       0.00344321      -0.00089356      -0.00836629      -5.94389236
Al       7.11103063       5.69374040      11.03932036       0.00104895       0.00221860      -0.00150771      -3.98304279
Ni       6.32158271       5.64162320       1.33354358      -0.00083198       0.00200056      -0.00282247      -6.00269304
Al       6.97902564       8.01787195       1.23683654       0.00053514       0.00584309       0.00416984      -4.21242394
Al       5.90703393       6.67860773       3.58681189       0.00466240       0.01120001       0.00121806      -3.74174170
Al       8.71525537       7.26315896       4.06851803       0.00017921      -0.00285058      -0.00247159      -3.98333179
Al       6.69479871       6.36086596       6.23041094       0.00178857      -0.00665864       0.00176168      -3.96945408
Al       8.29726182       6.82290351       8.60319474      -0.00311828       0.00187533      -0.00049194      -4.17051161
Ni       6.11827708       5.70653658       8.67901131      -0.00338698       0.00051474      -0.00540623      -6.02688230
Al       7.46100978       8.72289262      10.62453682      -0.00241884       0.00396245       0.00113600      -4.35374691
Ni       5.17799997       9.34304926       0.15332091      -0.00241808      -0.00663352      -0.00719899      -6.12527799
Al       7.26464040      10.77943516       0.62617417      -0.00214208      -0.00362889      -0.00518006      -4.52487186
Al       5.30125165       9.82148512       2.66852189      -0.00871453      -0.00193162       0.00275185      -4.08920928
Al       6.83562922      11.58540923       4.30823468      -0.00169833      -0.00222744       0.00303432      -4.17489191
Al       6.43207578       8.93400472       5.03936672       0.00169319      -0.00350528       0.00676217      -3.58229612
Al       7.08074686      10.27877200       7.49271801      -0.00022950       0.00261038      -0.00017732      -4.12819402
Ni       5.56508197       9.78924212       9.42410092       0.00244313       0.00411741       0.00435794      -5.97093874
Al       7.53515432      11.40915258       9.96701509      -0.00714453       0.00066025       0.00116067      -4.12782072
Ni       9.30881269      -0.10426926      -0.25085321       0.00403853      -0.00221603      -0.00158539      -5.98537002
Al      10.03533806       1.04745498       1.81308438       0.00186910       0.00176590       0.00095580      -4.55126188
Ni       8.47559974      -0.77266035       2.47604492      -0.00153504      -0.00055995      -0.00060179      -5.87215062
Al      11.24799298       1.72137329       4.72644744       0.00336651       0.00487014       0.00842170      -4.30188083
Al       8.61951261      -0.31587115       6.56306694       0.00289550      -0.00332505       0.00498931      -3.90993663
Al      10.64330445       1.72201968       7.55870866       0.00050164      -0.00380945      -0.00564540      -4.32223130
Al       8.59008393       0.73875075       9.25278844       0.00422203      -0.00178950      -0.00442201      -3.89199827
Al      10.99275887       1.05859746      10.49852533      -0.00038671      -0.00290228       0.00255226      -4.16069609
Al       8.69258889       2.43299541      -0.47785593      -0.00132191       0.00291595      -0.00404143      -3.89624845
Al      10.69256567       3.83900562       1.38344963      -0.00325268       0.00514301      -0.00660478      -4.31104924
Ni       9.54232772       2.87375962       3.40011532       0.01044262       0.00400579       0.00572964      -6.00932061
Al      10.53688579       4.42170477       5.12495339      -0.00481268       0.00209767      -0.00620875      -4.31923568
Al       8.49909497       2.14485876       5.51960418       0.00182792      -0.00527660      -0.00584493      -3.75666611
Al      10.53217515       4.75627752       7.80086081      -0.00095172      -0.00061210       0.00259774      -4.25248319
Ni       9.49867834       2.94200833       9.27870029       0.00555104      -0.00075104      -0.00170545      -5.99808593
Al      11.91361817       3.47456045       9.73104057       0.00507601       0.00271907      -0.00170416      -4.25839843
Al       9.16976228       6.50588545       0.90615775      -0.01085679      -0.00052604       0.00175357      -4.09118747
Al      10.74454182       8.76239819       2.01829028      -0.01054349       0.00052771       0.00094534      -4.09136703
Ni       9.68591460       5.35455341       2.96822880      -0.00104891       0.00602750       0.00684271      -5.63371768
Al      10.67004197       9.05701858       4.63952675      -0.00428796       0.00137713       0.00199897      -3.78984882
Ni       9.04427041       6.04627811       6.36556879       0.01214569       0.00208372      -0.00685830      -5.98016735
Al      10.96470015       7.67020717       7.90840078      -0.00146457      -0.00688500      -0.00074908      -4.26017547
Al       9.71288168       5.01983107      10.53884467       0.00201136      -0.00135414       0.00558705      -3.98253630
Al      10.20797926       7.76374374      10.56019883      -0.00535582       0.00036287       0.00206466      -4.43146480
Ni       9.02209517       8.97233788       0.46129559       0.01249606       0.00378202       0.00447025      -6.01414410
Al      10.21337066      11.40795700       1.22464873       0.00562841       0.00073664      -0.00106122      -4.54536053
Al       8.38065965       9.79286199       2.93297912      -0.00406084       0.00212495       0.00194523      -4.00601356
Al       9.80595183      11.98071768       4.15946756      -0.00486215       0.00098279      -0.00135714      -4.19301244
Al       8.79211772       8.52848410       6.45332230       0.00046540       0.00100852       0.01108712      -3.95857578
Al       9.73348106      11.44582485       8.17934157       0.00252047       0.00034497      -0.01079236      -4.16162891
Ni       8.99970618       9.23816216       8.79752411      -0.00604943      -0.00081867       0.00064081      -6.06440173
Al       9.83770834      10.53486606      10.82052727       0.00347376      -0.00197491       0.00163809      -4.46038599
