82
Lattice="10.895475227916451 0.12054695814664411 -0.16878992795974687 0.12082864740637626 10.972813538675833 0.14203319427053618 -0.17058961182010346 0.14302011347155058 10.917835139305923" Properties=species:S:1:pos:R:3:forces:R:3:energies:R:1 energy=-368.1773019214335 stress="-0.0003430319253104557 -0.00047997626273467854 -0.00012011013841064784 -0.00047997626273467854 0.00010342642544809697 -0.0002817941390454742 -0.00012011013841064784 -0.0002817941390454742 0.00013308297534900636" free_energy=-368.1773019214335 pbc="T T T"
Al       0.79778765       0.90712407       1.42564003       0.00220276       0.00557236      -0.00104782      -4.27160800
Al       0.93704466       1.05487001       4.07750472      -0.00816258       0.00089627       0.00620291      -4.19459754
Al       1.72726694       1.59769929       6.59968535      -0.00061166       0.00702978       0.00287336      -4.24464875
Al       1.35985327       1.43192598       9.79185607      -0.00262787      -0.00210041      -0.00222543      -4.13276610
Ni      -0.11747050       2.75271884       0.23390948      -0.00257771       0.01177704      -0.01105043      -5.97144738
Al       1.68213685       3.74801470       1.41146028       0.00624969       0.00004604      -0.01020422      -4.16492855
Ni      -0.17597533       2.86208592       2.80726032      -0.00308295      -0.00879638       0.00770502      -6.06145714
Al       1.66617556       4.15484624       4.08002278      -0.00246891       0.00476144      -0.00464694      -4.05994951
Ni       0.02070896       2.86906841       5.33385298       0.00397506      -0.00806910      -0.00975246      -5.89647034
Al       1.36874615       4.20386804       6.87868826       0.00352870      -0.00267129      -0.01336419      -4.07220734
Al       1.25772838       4.06579850       9.55631696      -0.01223428       0.01200957       0.00773275      -4.36017827
Ni       0.18925321       5.30679476       0.08341082      -0.00055831      -0.00505843      -0.01260879      -5.99565636
Al       1.98649392       6.42674351       1.38150579      -0.00169637      -0.00215892       0.00109138      -4.08868002
Al       0.74549138       6.82238777       3.81887065      -0.00315351      -0.00493389      -0.01136311      -3.86541958
Al       1.48979081       6.89532411       6.68787837      -0.00267680      -0.00157052      -0.00076380      -4.30739851
Ni      -0.14649185       5.53451573       8.27177352      -0.00144915       0.00663573       0.00759910      -6.02252708
Al       1.34219371       6.92582481       9.62004210      -0.01280417      -0.00721349      -0.00267761      -4.57828196
Al       1.49317274       9.16000732       1.55742440       0.00287899      -0.00260486       0.00326132      -4.00702106
Al       1.90924886       9.23687400       4.35496949       0.00008430       0.00484587      -0.00133098      -4.17606364
Ni      -0.04831932       8.40800525       5.46774871      -0.00710004      -0.00503106       0.01099737      -5.89136274
Al       1.14911063       9.96441560       6.93268928      -0.00057752      -0.00619272       0.00285155      -4.40861226
Ni       0.01515129       8.22812761       8.08774132       0.00290753      -0.00423195      -0.00109206      -6.07158307
Al       1.37251781       9.71161769       9.72353965       0.00380660       0.01454481      -0.00576933      -4.23548488
Al       3.83034426       1.75940046       1.55664936      -0.00188316       0.00092058       0.00077874      -3.87934961
Ni       2.59919388      -0.07137119       2.66715251       0.00604782      -0.00388807       0.00559130      -5.76616117
Al       3.61875315       1.46420476       4.29019208       0.00614702      -0.00564841      -0.00720724      -4.00748036
Al       4.51277841       1.76044398       6.98885945       0.00114506      -0.00736524       0.00843107      -4.33900038
Ni       2.74222407       0.15246438       8.22611353      -0.00232278      -0.00251398      -0.00125443      -6.03810900
Al       4.29016156       1.19771065       9.82405868       0.00114692      -0.00261292       0.00380186      -4.09123196
Al       4.18779049       4.49065690       2.25570878      -0.00599207      -0.00049211      -0.00032537      -3.68617830
Al       4.26076196       4.13258422       4.96757529       0.00016307       0.00119249       0.00582454      -3.58496289
Al       4.06641165       4.58646654       7.71003379       0.00299004      -0.00818268      -0.00174475      -3.84642626
Ni       2.86664293       2.69080390       8.44594716       0.01139271      -0.00793397      -0.01008258      -5.87223757
Al       3.94413574       3.85225571      10.42807213       0.00342267      -0.00054861       0.00283245      -3.89661159
Al       4.66437754       7.19772846       1.57959831      -0.00015155      -0.00284076      -0.00090666      -3.87300756
Al       3.44224275       6.63046646       4.01688544      -0.00093316       0.00320010       0.00663156      -3.67156883
Al       4.18552820       7.08423778       6.63153046      -0.00382034       0.00102535      -0.00296092      -3.72300065
Al       4.17330760       6.67676743       9.55251974      -0.00152945      -0.00297061       0.00304786      -4.02274822
Ni       3.11199599       8.08842747      -0.01171771       0.00388166       0.00116419       0.00213117      -5.88059756
Al       4.22219600       9.96039949       1.13914474      -0.00072096      -0.00443669       0.00475836      -4.08026269
Al       4.54046766       9.55803431       3.86553303       0.00025072       0.00346847       0.00701386      -4.04668169
Al       3.84788714       9.87621306       6.54716389       0.00623884      -0.00175889       0.00015988      -4.30392828
Ni       2.75287892       8.39339397       8.20813203      -0.00443827       0.00665137      -0.00075752      -6.06041983
Al       4.44428537       9.49712171       9.39374203       0.00084327       0.00042917       0.00603998      -4.22757973
Al       6.34369816       0.89649310       0.89845553      -0.00447803       0.00447425       0.00363053      -3.89945513
Al       6.26714371       1.66356982       3.54625918       0.00622929      -0.00135187       0.00322094      -4.04263792
Ni       5.37577984       0.24366418       5.33960991       0.00243940       0.00127864       0.00150166      -5.75318669
Al       7.14494329       1.65336685       6.27880615       0.00211988       0.00030409      -0.00442038      -4.00775254
Al       6.83888704       2.12579584       9.22557958       0.00182322       0.00373363      -0.00380628      -3.86464704
Al       6.57845026       3.63820809       0.93927562      -0.00567756       0.00178553       0.00553038      -3.69355212
Al       6.74045697       4.35961316       3.58843724      -0.00678337      -0.00189873      -0.00058783      -3.81793751
Al       6.49354218       4.28588977       6.59563502      -0.00625183       0.00261204      -0.00080218      -4.01412551
Al       6.34402647       4.86911331       9.40483017      -0.00108966      -0.00635031       0.00391678      -3.86036543
Al       7.21371291       6.36757952       1.12059858       0.00517803       0.00246351      -0.00480101      -3.84016435
Al       6.19362707       7.11097866       3.88092447      -0.00533863       0.00634585      -0.00489505      -3.89017553
Al       6.85966024       7.46357835       6.50980669      -0.00286164      -0.00589313       0.00757479      -4.02708661
Al       6.74214119       7.56713738       9.22971802      -0.00171033       0.00065493       0.00466768      -4.05226786
Al       6.88886507       9.13821177       1.87403283      -0.00059474      -0.00367490       0.00010773      -4.14762763
Al       7.18429008       9.79043583       4.54628620       0.00132465      -0.00079169       0.00740836      -4.08517312
Al       6.52335701       9.99610968       7.30073455       0.00631100       0.00054336      -0.00091055      -4.09601688
Al       6.93343085      10.30044158       9.97498868       0.00514115       0.00266441       0.00218685      -4.09139580
Al       8.90220874       1.89557090       1.28147593      -0.00822370       0.00289097       0.01011387      -4.32455690
Ni       7.95965828       0.16222060       2.59703913       0.00589889      -0.00672215       0.00602870      -5.78423661
Al       8.99285443       1.91451194       4.05586970       0.00564795       0.00134063      -0.00202051      -4.26934627
Al       9.89228278       1.35959222       6.66819635       0.00437799       0.00618740      -0.00276329      -4.06825743
Ni       8.16168793       0.40639782       8.06083373       0.00062271      -0.00105131       0.00544562      -5.75680908
Al       9.55216394       1.37781029       9.65836383      -0.00053772      -0.00021783       0.00126966      -4.18058112
Al       9.31424920       4.52577065       1.30581013       0.00061044       0.00261186      -0.00407046      -4.11633928
Al       9.71334277       4.78463484       3.97122669       0.00077192       0.00025870      -0.00962167      -4.27638848
Al       9.34350319       4.12500334       6.59469774      -0.00266151       0.00622308       0.00208322      -4.35664723
Al       9.17822758       4.20824757       9.41572969      -0.00041649       0.00224610      -0.00452321      -4.37036392
Al      10.06995059       7.20061441       1.33421891       0.00017213       0.00433244       0.00060447      -4.09410087
Al       8.96027139       7.52117389       3.91099097       0.00449851       0.00065748       0.00130904      -4.03111806
Ni       7.85513188       5.73591129       5.20176527      -0.00765986       0.00199561       0.00198536      -5.87915734
Al       9.59653255       6.88162157       6.45920874       0.00399369       0.00740775      -0.00562960      -4.59220041
Ni       7.99730082       5.73517509       7.86963819       0.00519862      -0.00430742      -0.00066338      -5.99153822
Al       9.37927380       7.00684644       9.50105694       0.00117782      -0.00282979      -0.00513038      -4.46809071
Ni       8.30586656       8.30186488       0.08531574       0.00453881      -0.00999937      -0.00070803      -5.77375929
Al       9.60385383      10.01851396       1.18805132       0.00114638       0.00247889      -0.00055743      -4.07225531
Al       9.94741356      10.21855501       3.95427551      -0.00378239       0.00312099      -0.00312084      -4.11493590
Al       9.17132871       9.67589762       6.65731866       0.00517358      -0.00240581      -0.00706445      -4.32721903
Al       9.54975073       9.66465028       9.39582191      -0.00205847       0.00453748       0.00329009      -4.16993857
