128
Lattice="11.350580618333264 0.08953778739253096 0.2868639214238268 0.09903111815234719 12.375795832896763 0.44712254845072924 0.28618621263252847 0.44806074601962 12.399723591170023" Properties=species:S:1:pos:R:3:forces:R:3:energies:R:1 energy=-627.3196237273528 stress="-0.00038176987328080423 -0.0005012114549820864 -0.0011571485108954223 -0.0005012114549820864 0.0005257961646135525 0.0006781007150830517 -0.0011571485108954223 0.0006781007150830517 -0.00034631784505778055" free_energy=-627.3196237273528 pbc="T T T"
Ni       0.39555928       0.35518579       0.53832005       0.00640947       0.00239275      -0.00023041      -5.92798580
Al       1.56732604       1.80091796       2.13119576       0.00631389      -0.00047911       0.00028029      -4.49730855
Ni      -0.02271819       0.31154589       3.56480464       0.00393958       0.00551711       0.00002731      -6.08894155
Al       1.46918831       1.78462372       4.87811430       0.00236877       0.00520622      -0.00070921      -4.49208519
Ni      -0.26997306      -0.05177861       6.19715702       0.00322685       0.00455039       0.00119658      -6.14679051
Al       1.32675683       1.43166497       7.56458278      -0.00502818      -0.00392941      -0.00092815      -4.42732534
Ni      -0.16820258       0.06803472       8.99953689       0.00186882      -0.00020704       0.00218571      -6.17980055
Al       1.37293946       1.31395523      10.42302306      -0.00091628      -0.00423977      -0.00217992      -4.22752901
Al       0.17134109       2.63607854      -0.21685044       0.00102931      -0.00064120      -0.00302742      -3.95444879
Al       1.59889435       4.89183776       1.86540747       0.00668841      -0.00165951      -0.00575696      -4.38532496
Ni       0.17756470       3.45653582       3.40918238      -0.00158473      -0.00220558       0.00169305      -6.10044696
Al       1.54429619       5.09447473       4.68840534       0.00204176      -0.00177365      -0.00189049      -4.44203141
Ni       0.38135473       3.48142582       6.42540347      -0.00314139       0.00241550       0.00051608      -6.17731608
Al       1.46883923       4.95063827       8.35093237      -0.00563579       0.00153624      -0.00008442      -4.44718612
Ni       0.23214888       3.04921265       9.16124001      -0.00112531       0.00281529       0.00091787      -5.98909505
Al       1.75070485       5.22768776      11.30141139       0.00523632       0.00436655      -0.00165185      -4.20144279
Ni       0.23395156       6.32027180       0.39157538       0.00284393       0.00270134      -0.00044482      -6.09822369
Al       1.71169182       8.00271468       1.72009834      -0.00286445      -0.00106544      -0.00046329      -4.31154474
Al      -0.25776316       6.64280251       2.89554499       0.00414459      -0.00645074      -0.00018245      -3.84803348
Al       1.47091095       7.77934597       4.93106392      -0.00906164       0.00344703       0.00775358      -4.31763405
Ni       0.17790135       6.19595319       6.39286986       0.00187837       0.00054678      -0.00361696      -6.08709192
Al       1.64196536       7.78927282       7.73499750      -0.00434701       0.00328899       0.00030898      -4.55686375
Al       0.00334686       6.88748121      10.10364137       0.00146295      -0.00236567       0.00188307      -4.02420116
Al       1.79472884       8.40212523      11.41790992       0.00062709       0.00193562      -0.00300176      -4.47936634
Ni       0.91640920      10.08554907       0.73539083      -0.00513498      -0.00402985       0.00277303      -5.82557606
Al       1.70828011      11.37028590       2.62264066      -0.00582645       0.00248970      -0.00425365      -4.44134400
Ni      -0.13078968       9.08812067       3.19484680       0.00514184       0.00019099      -0.00549571      -6.12603323
Al       1.69721458      11.31915900       5.31776285       0.00344638      -0.00121601       0.00037813      -4.39036785
Ni       0.26637143       9.42069974       6.47455589      -0.00438786      -0.00238555       0.00316387      -6.09421321
Al       1.57105005      10.85866379       7.91891364       0.00010138      -0.00352945       0.00079236      -4.52402846
Ni       0.46633828       9.11130937       9.30177863      -0.00314233      -0.00397894      -0.00476519      -5.94469905
Al       1.63138363      10.88621385      10.67766669      -0.00195545       0.00032607       0.00219742      -4.32861669
Ni       3.11595635       0.36693495       0.78510867       0.00468696       0.00206932       0.00921473      -5.99374146
Al       4.57013201       1.93260319       2.04277074      -0.00776297      -0.00340578      -0.00096561      -4.45755787
Ni       3.15246875       0.54117565       3.56629860      -0.00396823      -0.00067422       0.00000614      -6.16704855
Al       4.44940706       2.21350951       4.73684078       0.00876284      -0.00043226       0.00818247      -4.42721218
Ni       3.23303175       0.47182891       6.30112599      -0.00708446       0.00487479      -0.01135688      -6.19545939
Al       4.26493056       1.83568095       8.16922223      -0.00049154      -0.00025944      -0.00179167      -4.34191795
Ni       2.79094976      -0.03498492       8.79627942       0.00100229       0.00162296       0.00483952      -5.99875713
Al       3.86951861       1.00049520      10.72875388      -0.00187576      -0.00963620      -0.00319436      -3.99857615
Al       3.11513060       2.63530098      -0.09176379      -0.00082206       0.00554045       0.00288207      -4.09129366
Al       4.24406388       4.71666280       1.70487562       0.00293837      -0.00453755       0.00171084      -4.44822222
Ni       2.84268132       3.43869486       3.42192994      -0.00195325       0.00117955      -0.00546634      -6.10502902
Al       4.39554421       4.88349223       4.83844139       0.00302530      -0.00660368       0.00139826      -4.26771119
Al       2.87748985       3.45480279       6.49676354      -0.00655284       0.00331182       0.00500482      -3.90825392
Al       4.34234495       4.77959052       8.34475478       0.00057623       0.00603683       0.00057833      -4.43720124
Ni       2.96314831       3.38602219       9.93044615      -0.01016559      -0.00267093       0.00412102      -6.17088472
Al       4.41480468       5.25612302      11.18259428      -0.00328017       0.00114413       0.00010111      -4.33449353
Ni       2.90347364       6.33689380       0.33247855      -0.00636720      -0.00050574       0.00581862      -6.11235066
Al       4.51417237       7.89642781       1.35647581       0.00013582      -0.00029394       0.00315537      -4.19574989
Ni       3.26356697       6.65886228       3.13208188      -0.00180968      -0.00249150      -0.00029149      -6.22384857
Al       4.34894494       7.52089645       5.23259102       0.00792548       0.00674108       0.00284816      -4.39346822
Ni       2.93606075       5.99650333       6.66525563       0.00159615       0.00056683       0.00149817      -6.16760221
Al       4.36066455       7.79222918       7.90181402      -0.00192693      -0.00586280      -0.00264755      -4.58331120
Ni       2.93700626       6.55316158       9.54001658      -0.00028083       0.00069757       0.00440099      -6.13859239
Al       4.48649430       8.01567346      10.95529151       0.00700160       0.00318893      -0.00658259      -4.43536564
Al       3.34836970      10.28391875       0.60594565       0.00591970      -0.00189731       0.00451506      -4.06128314
Al       4.66135258      11.45271728       2.68327337       0.00049647      -0.00213544      -0.01383213      -4.21594100
Al       3.18941239       9.26025742       3.59869821       0.00075180      -0.00179681      -0.00042183      -3.81793526
Al       4.44910400      11.15549204       5.25547711       0.00155044      -0.00386451       0.01138888      -4.22207206
Ni       2.96656456       9.32391363       6.19021816      -0.00040984       0.00101635      -0.00469910      -6.17226347
Al       4.28366449      10.67268080       7.79308680       0.00212029      -0.00307686       0.00044717      -4.36375198
Ni       2.99902408       9.23042979       9.36392800      -0.00132953      -0.00275385      -0.00032327      -6.14060815
Al       4.45543134      10.92080918      10.41513347       0.00300548       0.00008741      -0.00237544      -4.05478884
Al       5.47245430      -0.31047950      -0.12365668       0.00024959      -0.00177093       0.00021872      -4.02039276
Al       7.34959167       1.99231958       2.03374948      -0.00019182      -0.00257086       0.00271557      -4.41879024
Ni       5.95082680       0.58232321       3.68314503      -0.00423607       0.00879891      -0.00086313      -6.22807342
Al       7.33179571       2.24559898       4.81621125       0.00387326       0.00089944      -0.00219234      -4.48022979
Al       5.76123250       0.60268964       6.28164310      -0.00280152       0.00415690       0.00282352      -3.85678084
Al       7.16899710       1.91395534       8.20246330      -0.00814578       0.00049771      -0.00656046      -4.24873741
Ni       6.24873838       0.61545836      10.00781667      -0.00370553      -0.00288796       0.01272814      -6.08634894
Al       7.53068242       2.08716041      11.59561219       0.00616122       0.00143441      -0.00717248      -4.33677897
Ni       5.68989010       3.37217201       0.30040108       0.00347475       0.00472255       0.00240796      -6.08853104
Al       7.37926424       4.70313726       1.37875296      -0.00321405      -0.00117083       0.00036136      -4.36255198
Ni       6.01918677       3.72360562       3.21949037       0.00371237       0.00203232      -0.00062712      -6.20144800
Al       7.22967278       4.83624700       5.26794962       0.00653182       0.00104514      -0.00006298      -4.40938841
Ni       5.74677426       3.28945634       6.63343700       0.00525661      -0.00256226       0.00242429      -6.23108540
Al       7.20767271       4.85583585       8.18623581       0.00460634       0.00024263      -0.00193095      -4.53924287
Al       5.50127489       3.02026793      10.25572224      -0.00246110       0.00260884       0.00010826      -3.99539781
Al       7.34480299       4.96690403      11.02200742      -0.00545408       0.00407718      -0.00116559      -4.44051719
Ni       5.68301089       6.08896006       0.09620291      -0.00169727      -0.00576832       0.00311090      -6.14543929
Al       7.24483853       7.75053234       1.21919187      -0.00250187       0.00417147      -0.00175751      -4.01693029
Al       5.84980556       6.32724238       3.14307057       0.00177318      -0.00636944       0.00409761      -3.88978785
Al       7.25081129       7.54517330       5.32710939      -0.00884270       0.00405366      -0.00124245      -4.13060595
Ni       5.63993426       6.04059146       6.72874351      -0.00253883       0.00111662       0.00319520      -6.11615204
Al       7.18785210       7.61014739       8.07104174      -0.00415634      -0.00019247      -0.00219327      -4.45588528
Ni       5.74704559       6.41968913       9.51932591      -0.00208035      -0.00107203      -0.00196272      -6.14605651
Al       7.34071190       7.78491180      10.79083491      -0.00059504       0.00091019      -0.00342054      -4.27355406
Ni       6.03252024       9.89383757       1.29178954       0.00416314      -0.00343015      -0.00078949      -6.07288832
Al       7.36034767      11.65743670       2.52339821       0.00126898      -0.00299088      -0.00570325      -4.25599349
Al       5.98798009       9.11459861       3.57256576      -0.00054549       0.00548707       0.00751331      -3.99105510
Al       7.18907805      11.05898428       5.10691442       0.00487916       0.00113524       0.00890925      -4.09947407
Ni       5.77926999       9.27712655       6.23316052      -0.00481004       0.00035906      -0.00124429      -6.14786797
Al       6.83052522      11.38565098       8.57574181       0.00203441      -0.00489548      -0.00259186      -4.11271859
Ni       5.75931614       9.23162795       9.29326837      -0.00047727       0.00456932      -0.00130278      -6.15465238
Al       6.83529804      10.39100194      11.22790385       0.00374704       0.00152622       0.00468896      -4.16317760
Ni       8.91270474       0.41376548       0.63880744       0.00054695      -0.00069111       0.00259942      -6.02598838
Al      10.11399718       1.83890647       2.30546259       0.00177797       0.00667459      -0.00161074      -4.56117528
Ni       8.67713205       0.38746319       3.78143035      -0.00282487      -0.00080414      -0.00274850      -6.19157273
Al      10.08588647       2.14078768       5.11498250       0.00896630       0.00193483       0.00004029      -4.50204522
Al       8.59853134       0.22258682       6.35812408       0.00112774       0.00095292      -0.00351262      -3.90084476
Al      10.06445997       1.93369383       7.96181035      -0.00203029      -0.00776244       0.00087223      -4.46444787
Al       8.66495183      -0.30603015       9.89320841      -0.00203837       0.00145838       0.00386798      -4.01964931
Al      10.03635212       1.87245551      10.84913932      -0.00652335      -0.00474691       0.00480156      -4.28773934
Ni       8.95948127       2.98237059       0.43057844       0.00026389       0.00332662      -0.00147754      -6.10243356
Al      10.28116386       4.57652453       1.70700663      -0.00128672      -0.00200102      -0.00062478      -4.28288077
Ni       8.69971133       3.76869210       3.38056787      -0.00094931      -0.00057093       0.00059929      -6.18641847
Al      10.06468216       4.84392968       5.25172275       0.00556710       0.00189063      -0.00116564      -4.50112700
Ni       8.50875085       3.34042329       6.75607865       0.00634781      -0.00170533      -0.00368604      -6.13269755
Al      10.12804369       4.77993127       8.11367316       0.00171739       0.00139457       0.00109370      -4.49940617
Ni       8.65609176       3.41514738       9.49179698       0.00609634       0.00520461      -0.00032590      -6.07365123
Al      10.21973087       4.63420611      10.91492382      -0.00451944      -0.00363043      -0.00529243      -4.18286415
Al       9.19190273       6.40443542      -0.07768738       0.00546398      -0.00262352      -0.00378486      -3.82765756
Al      10.44882662       8.56341938       1.17664756       0.00241174      -0.00121434       0.00216419      -4.11458768
Al       8.50650120       6.29160384       3.25884840       0.00360483       0.00122598       0.00075994      -3.71713434
Al      10.10868895       7.94726987       5.45733707       0.00438897      -0.00074383      -0.00479722      -4.20161666
Ni       8.82292285       6.30332935       6.77331070       0.00209526       0.00436099      -0.00362489      -6.12274416
Al      10.07449365       7.95548307       8.22169319       0.00297663       0.00004878      -0.00038604      -4.43746630
Ni       8.90557144       6.25247401       9.65240319      -0.00224661      -0.00004393      -0.00328981      -6.15229687
Al       9.83412599       9.34972631      11.00345454      -0.00341976      -0.00452343      -0.00029376      -3.94809611
Al       8.38046884      10.25712526       0.66879137      -0.00497559       0.00364471       0.00249535      -3.83509493
Al      10.34154577      11.35008518       2.55875107      -0.00110706      -0.00942138       0.00159904      -4.45559332
Al       8.77472514       9.01940218       3.31212368      -0.00875705       0.00558155      -0.00198160      -3.80256544
Al      10.22480721      10.82591285       5.19619303       0.00157017      -0.00283357       0.00184053      -4.38176507
Al       8.31332062       9.63383248       6.87235655      -0.00449883       0.00082197      -0.00953302      -3.81193180
Al      10.23005173      10.74236163       8.44656995       0.00610270      -0.00507804       0.00084169      -4.43064340
Ni       8.23067699       9.59583021       9.29128739      -0.00783418      -0.00060154       0.00327151      -6.04608346
Al      10.84925993      11.82796569      12.15579388      -0.00132326       0.00356264       0.00322071      -4.27768178
