89
Lattice="10.983798459685838 -0.027652920569194946 -0.0794078304094953 -0.02789717098935941 11.198697680759551 0.007316044820526004 -0.07914547656075681 0.007442396815735196 11.161706474894778" Properties=species:S:1:pos:R:3:forces:R:3:energies:R:1 energy=-418.864643627509 stress="-0.00042148854053210435 0.0005256894625763556 0.0004810389561419104 0.0005256894625763556 0.0004915279832589056 -0.0002301693228117439 0.0004810389561419104 -0.0002301693228117439 2.6423086727334577e-05" free_energy=-418.864643627509 pbc="T T T"
Al       1.19773909       1.31397017       1.19922620      -0.00069709      -0.00085427      -0.00282378      -4.37483279
Ni      -0.16339306      -0.02092501       2.70879853       0.00484033       0.00189872      -0.00016008      -5.90247708
Al       1.16096232       1.47386800       4.07569482       0.00348350      -0.01588182       0.00662503      -4.60823559
Al       1.36316528       1.34298160       6.97130760       0.00059247       0.00688240       0.00132104      -4.25703175
Al       1.25709746       1.38244240       9.65047902       0.00493547      -0.00855252       0.00221040      -3.93066152
Al       1.14157420       4.09613529       1.33257629       0.00998081      -0.00644052      -0.00778438      -4.46041779
Al       1.23337200       4.19059463       4.15082095       0.00003021       0.01475421      -0.01005354      -4.56643125
Ni      -0.16452838       2.76260730       5.62216479      -0.00443928      -0.00124156       0.00949246      -5.86707840
Al       1.28505617       4.22890113       6.98066804       0.00585922      -0.00450434      -0.00131857      -4.29754335
Al       1.19740642       4.26880525       9.66138777       0.00579677      -0.00459342      -0.00109085      -4.10186719
Al       1.20103747       6.93406312       1.26969610      -0.00505185       0.00391541       0.00125413      -4.34748059
Ni      -0.21653905       5.54944087       2.72499488      -0.01251226      -0.00060284       0.00186845      -6.05531569
Al       1.22204493       7.04845399       4.12809934      -0.00631829      -0.01294988       0.00042511      -4.36402139
Al       1.32776145       6.98763466       6.89522004       0.00294251       0.00117799      -0.00166779      -4.14213924
Al       1.23433305       7.02126056       9.69313872      -0.00608826      -0.00181320       0.00540611      -4.14343137
Ni      -0.19806061       8.37716710      -0.07772675       0.00757915       0.00459210      -0.00395296      -5.90926589
Al       1.21848944       9.65311957       1.42267722      -0.00074546       0.00001382      -0.00308723      -4.25218334
Al       1.13608782       9.82583702       4.27777612       0.00802824       0.00858950      -0.00406343      -4.39846380
Ni      -0.23474999       8.37214020       5.62188457      -0.00537850       0.00000150      -0.00258037      -5.79044822
Al       1.20497071       9.82004931       6.98226862      -0.00175617       0.00025919       0.00627477      -4.14903507
Al       1.21878851       9.84548978       9.79165299      -0.00038010      -0.00177313      -0.00032466      -3.96265691
Al       4.07217046       1.27268774       1.30816291       0.00908431      -0.00331753       0.00248917      -4.32327933
Ni       2.57481799      -0.03579349       2.78440846      -0.00358638       0.00530594       0.00300810      -6.05592712
Al       4.18723623       1.39100002       4.08124571      -0.00016709       0.00656870       0.00250476      -4.26386088
Ni       2.71092411       0.09280606       5.46216962      -0.00230832       0.00355171       0.00298590      -6.00388989
Al       4.26275153       1.39928756       6.93469881      -0.00289862       0.00330078      -0.00220225      -4.38370887
Al       4.17232430       1.39885523       9.82679132      -0.00212979       0.00148111       0.00121677      -4.30896598
Ni       2.68106776       2.83773930      -0.06579439      -0.00117229       0.00553580       0.00410464      -6.14527150
Al       4.26518869       4.13954630       1.35766389      -0.00643946       0.00065133       0.00139113      -4.43245959
Ni       2.71790519       2.73333826       2.63590398       0.00209014       0.00465126      -0.00404003      -6.21545429
Al       4.21131111       4.12653956       4.10945139      -0.00300527      -0.00252309       0.00618771      -4.60663263
Ni       2.69499954       2.77414598       5.54390898      -0.00048682      -0.00540046       0.01756337      -6.26131969
Al       4.18519336       4.20309519       6.89518994      -0.00855571       0.00181251      -0.00215232      -4.51833251
Ni       2.79894470       2.80121975       8.39400102       0.00116055       0.00433583       0.00368512      -6.16968940
Al       4.13329283       4.31909318       9.75775115      -0.00559295       0.00957823       0.00710885      -4.33981667
Ni       2.70559395       5.52165207       0.00701470      -0.00198474      -0.00531629       0.00509962      -5.99862120
Al       4.24519808       6.93495147       1.33274039      -0.00070068       0.00382006      -0.00575470      -4.28212306
Ni       2.63632194       5.57285300       2.69339185      -0.00610232      -0.00587973       0.00256428      -6.22084322
Al       4.08053075       7.08259065       4.04475010      -0.00456176       0.00061921       0.00283068      -4.40626020
Ni       2.75272399       5.55982874       5.46993469      -0.00291487       0.01141203       0.00809402      -6.06916693
Al       4.01879273       7.05580093       6.90421032      -0.00955154      -0.01394573      -0.00008937      -4.54228558
Al       3.98990638       7.01596191       9.78510207       0.00469329       0.00758809      -0.00279118      -4.35474888
Al       4.01618210       9.68535184       1.38712983      -0.00316989      -0.00372904      -0.00486929      -4.17707543
Al       4.05173224       9.78807177       4.10733966       0.00769957      -0.01175036       0.01472868      -4.20205101
Al       3.94074538       9.87493558       6.86510984       0.00291485       0.00120502      -0.00236656      -4.34415582
Ni       2.66272704       8.45436083       8.35856083      -0.00153831      -0.00296863       0.00169512      -5.89400550
Al       4.00537865       9.88812217       9.73616945       0.01305810       0.00060612       0.00436462      -4.41082553
Ni       5.55899023      -0.13998162       0.07712050       0.00790711      -0.00266699      -0.00671721      -5.88673648
Al       6.85871842       0.92220025       1.75148664      -0.00262116       0.00695059      -0.00517399      -3.78262169
Al       6.84435025       1.77634691       4.28492360       0.00437663      -0.00590999       0.00152119      -3.49940481
Al       7.03679311       1.73579927       7.01145454      -0.00677821      -0.00929380       0.00168151      -3.94969853
Al       6.89703386       1.39854066       9.87808771      -0.00047803      -0.00275711       0.00915566      -4.12124259
Al       6.96158093       3.63192324       1.86143809      -0.00699478       0.00092199      -0.00145681      -4.09405736
Al       7.13546890       4.43977439       4.62068489      -0.00379241       0.00884838       0.00336723      -4.18991447
Al       6.82061812       4.60244780       7.38602782       0.00681044       0.00663799      -0.00747937      -4.01561922
Ni       5.52978327       2.90597125       8.47950930       0.00345625       0.00452201      -0.00013342      -5.88128664
Al       6.91919681       4.18776672      10.16814396      -0.00210362      -0.00718488       0.00817690      -3.78737797
Al       6.93096470       6.49167055       0.95669310      -0.00157986       0.00499409      -0.00180230      -4.50772577
Ni       5.71223324       5.53232450       2.83242852      -0.00328365      -0.00466759      -0.00171535      -6.10835805
Al       6.93145652       7.34257629       3.88251640      -0.00029916       0.00547086      -0.00071283      -4.38765127
Ni       5.47351847       5.79090080       5.52528460       0.00370432      -0.00337121      -0.00471124      -6.04174947
Al       7.00037378       7.22330764       6.79373477      -0.00202784      -0.00618333       0.00610407      -4.06306548
Al       6.84738292       6.92854717       9.43741608      -0.00610669      -0.00263109      -0.00755256      -4.19351202
Ni       5.64190563       8.38240237      -0.11668170       0.00447350       0.00141791       0.00309786      -6.08044328
Al       6.94819988       9.43664180       1.56548491       0.00360899      -0.00052989      -0.01051732      -4.16015465
Al       6.87374850      10.20488877       4.19157279      -0.00550242      -0.00123362       0.00044997      -3.79162463
Ni       5.54681699       8.52911715       5.50928543      -0.00512428       0.00140555      -0.01513231      -5.98211434
Al       6.65880000      10.12866355       6.98390106       0.00128003      -0.00170904      -0.00134143      -4.26426204
Ni       5.35352122       8.47597786       8.27225569       0.00118303      -0.00192294       0.00527209      -6.14855192
Al       6.89025632       9.86587919       9.69863498      -0.00688143      -0.00137307      -0.00066333      -4.46233886
Al       9.41978842       1.70434331       1.60331073      -0.00275097      -0.00552203       0.00091140      -3.79058959
Al       9.45699880       0.97011033       4.43820709       0.00296530       0.00268745      -0.00089306      -4.03461891
Al       9.76739744       1.71356480       7.41199446       0.00639135       0.00329060      -0.00708238      -4.15917789
Ni       8.31383446       0.07128506       8.29623129       0.00489910       0.00226797      -0.00388018      -5.77386204
Al       9.62171607       1.09129157      10.10871529       0.00780811      -0.00495815      -0.00008792      -3.74590330
Al       9.42437649       4.41121199       0.88065201      -0.00335947      -0.00044847      -0.00240433      -4.03772780
Al       9.55143754       3.67517163       3.70922889      -0.00252174      -0.00421973       0.00014913      -4.34169972
Al       9.39516370       4.38226844       6.59426010       0.00091331       0.01252283      -0.00799354      -3.80349751
Al       9.50025939       3.82213978       9.34777562      -0.00113060       0.00286241      -0.01038286      -3.49331167
Al       9.49061778       7.37650686       1.72729061      -0.00047123      -0.01455375       0.01220481      -4.49519069
Ni       8.25308157       5.53039566       2.76102080       0.00809218       0.00550776       0.00098817      -6.03994799
Al       9.51636418       6.55253439       4.54398191       0.00617897      -0.00036558      -0.00095815      -4.32043082
Al       9.59949106       7.08462495       7.29590443       0.00903355       0.00240465      -0.00235017      -3.76979581
Al       9.51523310       6.48799512       9.97580869      -0.00513015      -0.00184143      -0.00478205      -4.03381532
Ni       8.27156562       8.25150373      -0.13053867      -0.01381636       0.00448096      -0.00475738      -6.05210358
Al       9.50140294      10.15837573       0.87756843       0.00408422       0.00478655      -0.00306571      -4.32676968
Al       9.42479159       9.42453746       3.75404557       0.00503477       0.00024022       0.00041872      -4.00845994
Al       9.38260950      10.08999610       6.49326505      -0.00277629       0.00259920      -0.00465571      -4.11229420
Al       9.49985002       9.38346328       9.20296478       0.00879378      -0.00154649       0.00157748      -4.31414667
