179
Lattice="14.006543156037361 0.0055684644939181255 -0.0010454332754186231 0.0055671408590482335 14.048030552676895 -0.003298494997670239 -0.0010416933289536907 -0.0032990841209157057 14.040367571165305" Properties=species:S:1:pos:R:3:forces:R:3:energies:R:1 rep=5 n_sites=250 energy=-854.4998336879021 stress="0.001063364453910667 -0.00043702315563662856 0.0002741573093129262 -0.00043702315563662856 -0.0010641322066826783 0.0003273491372310237 0.0002741573093129262 0.0003273491372310237 -0.000836460926692362" free_energy=-854.4998336879021 pbc="T T T"
Al       1.46731406       1.43655754       1.39863871       0.00208978       0.00071192       0.00133840      -4.09804946
Ni      -0.00273346       0.09269583       2.83631711       0.00202254       0.00308759       0.00358277      -6.14981471
Al       1.48658691       1.43949107       4.24025929      -0.00299602       0.00518760      -0.00001877      -4.25337684
Ni      -0.03492715       0.07051141       5.66543142      -0.00115841      -0.00216534       0.00114173      -6.14204962
Al       1.45401452       1.42462443       7.09844215      -0.00378743      -0.00620983       0.00749133      -4.22936528
Al       1.38278885       1.51813647       9.83137826      -0.00069183       0.00668865       0.00205924      -3.92028817
Al       1.32995984       1.40065711      12.62792943      -0.00111591      -0.00646245       0.00482369      -4.06912518
Ni       0.05357353       2.88633032       0.01057065       0.00751942      -0.00273784       0.00737807      -5.99389776
Al       1.50452660       4.20179649       1.52989267       0.00135332      -0.00151469       0.00253367      -4.34866232
Ni      -0.02981343       2.83668115       2.84711114       0.00035600       0.00407900      -0.00040059      -6.17593167
Al       1.36193044       4.29728270       4.26049131       0.00556036       0.00183595       0.00270614      -4.22274477
Ni       0.05114456       2.80633778       5.66422302      -0.00505682      -0.00548894       0.00097405      -5.99450942
Al       1.41379047       4.27875511       7.07245288       0.00229219       0.00587228      -0.00479834      -3.95552883
Al       1.31141507       4.22944264       9.83488115       0.00827183       0.00640682       0.00391498      -3.40067317
Al       1.52294102       4.11419411      12.55752611       0.00267946      -0.01012301       0.00276478      -4.09814943
Ni       0.15203286       5.53401785       0.01510119       0.00461382      -0.00337931      -0.00627562      -6.13645259
Al       1.46036333       7.05132701       1.42137301      -0.00070227       0.00880385      -0.00713141      -3.89055452
Al       1.32095969       7.04060659       4.12140108       0.00198640       0.00324312      -0.00922514      -3.88931959
Al       1.20581103       7.04996341       6.99479689      -0.01182880      -0.00040476       0.00001455      -3.92273185
Al       1.49818558       6.92614151       9.65934023      -0.01172700       0.00151236      -0.01568050      -3.89466910
Al       1.44936249       6.89953284      12.55374516      -0.00033132      -0.01018246      -0.01204999      -4.46103069
Al       1.38626399       9.70673731       1.39580949       0.00093464       0.00119438       0.00220046      -4.22813342
Al       1.35690327       9.74744827       4.18411598       0.00000493      -0.00852177       0.00612713      -4.45249023
Al       1.38296261       9.81969048       7.05418626      -0.00829565       0.00449248       0.00489737      -4.23623735
Al       1.44493576       9.91444276       9.75296709      -0.00203767       0.00851508      -0.00058665      -4.22463100
Ni       0.17147656       8.39824024      11.11885104      -0.00257067       0.00490787       0.00555718      -6.06427945
Al       1.44101933       9.79798730      12.65194340      -0.00940014      -0.01204064       0.00317018      -4.45723434
Ni       0.07379389      11.26834501      -0.00444267      -0.00503851      -0.00364728       0.00235308      -6.13672610
Al       1.42486292      12.80287517       1.39320481      -0.00065796      -0.00208630       0.00157767      -4.43339829
Ni       0.06563165      11.23097568       2.75381220      -0.00349642      -0.00609794      -0.00234860      -6.16459686
Al       1.42387845      12.70399500       4.22166954       0.00509573       0.00815819      -0.00540110      -4.58842408
Ni      -0.04512471      11.22460446       5.59826533       0.00712282       0.00742994      -0.00233377      -6.16835810
Al       1.45116265      12.70227667       6.99739571      -0.00603391       0.00264272       0.00064882      -4.51603564
Al       1.37957156      12.65764981       9.82282754      -0.00707499      -0.00174669      -0.00150956      -4.10230019
Al       1.37084299      12.68655016      12.56198046       0.00558418      -0.00239553      -0.00284765      -4.21476323
Al       4.19803136       1.40633308       1.30155990      -0.00755195      -0.00334231      -0.00457742      -3.69464517
Al       4.15790577       1.46236236       4.14226494       0.00831951      -0.00107856       0.00299279      -3.97623727
Al       4.23782194       1.40035146       7.02621366       0.00783748       0.00495343      -0.00375178      -4.26217152
Ni       2.87695900       0.03146116       8.52946709      -0.00157187       0.00849122       0.00346726      -6.08313785
Al       4.28560219       1.47332485       9.89191737      -0.00102678       0.00226224       0.00122535      -4.12592824
Ni       2.76099867       0.09469822      11.20715989       0.00023293       0.00175588       0.00270723      -5.91766217
Al       4.17122163       1.48305382      12.64612559      -0.00172422       0.00529712      -0.00103674      -3.67932081
Al       4.26401281       4.10032646       1.41735662       0.00638244      -0.00339955      -0.01294988      -3.90069027
Al       4.10480388       4.24338490       4.14054906      -0.00302055       0.00154721       0.00401417      -4.14765911
Al       4.10679517       4.19141217       7.08385241       0.00187243       0.00356867      -0.00676446      -4.27149255
Al       4.06120586       4.18828885       9.81459904       0.00106641      -0.00484503      -0.00963290      -3.69622441
Al       4.25640082       4.20215177      12.53528951       0.00270718       0.00399257      -0.00278169      -3.91160165
Ni       2.85905481       5.54507455       0.00413159       0.00670787       0.00752697       0.00640847      -6.08247637
Al       4.18213037       6.94371876       1.46926416       0.00491176      -0.00835154       0.00531580      -4.37535221
Al       4.24670318       7.05395293       4.20730759       0.01034522       0.00047281      -0.00560036      -4.35442274
Ni       2.76681843       5.74940216       5.61326233       0.00292048      -0.00825026      -0.00840237      -6.02324821
Al       4.13191443       7.04158765       7.14347044      -0.00357696      -0.00275215      -0.00892736      -4.37822814
Al       4.26460236       6.98942371       9.93410324       0.00001003      -0.00718929      -0.00162025      -4.07652403
Al       4.16506681       7.10264830      12.67938724      -0.00817795       0.01352874      -0.00476579      -4.36354917
Al       4.12733327       9.79005238       1.36053148      -0.00027849      -0.00572285       0.00650973      -4.46671648
Al       4.18672511       9.76317028       4.12967387      -0.00431756      -0.00396792       0.00454357      -4.33901320
Ni       2.74408513       8.36053201       5.62912317      -0.00104148       0.00120408      -0.00021371      -6.08391095
Al       4.25389057       9.76614045       6.99461650      -0.00134456       0.00491832      -0.00091142      -4.34175597
Al       4.22299576       9.80819748       9.89853818      -0.00566836       0.00048785       0.00366808      -4.25210765
Ni       2.76033799       8.38962834      11.17126257       0.00675692      -0.00015220       0.00296166      -5.91075717
Al       4.18480401       9.84459961      12.65724788       0.00318720      -0.00089873       0.00318394      -4.11918464
Ni       2.74362085      11.28682760       0.05076073       0.00130433       0.00395262      -0.00349165      -5.99549587
Al       4.25103703      12.64959820       1.38437099       0.00217212      -0.00099110       0.00409496      -4.25174633
Ni       2.76477146      11.23775019       2.76957173       0.00039540       0.00452885       0.01077728      -6.13719669
Al       4.21947843      12.64427023       4.20204850       0.00372667      -0.00344634      -0.00560172      -4.22439893
Ni       2.78647707      11.14467929       5.57285683      -0.00170314       0.00255547      -0.00117506      -6.19077571
Al       4.24783962      12.64634203       6.92976908      -0.00114088       0.00318081       0.00176355      -4.43975428
Ni       2.88240791      11.28586195       8.38844102       0.00606454       0.00282257      -0.00465066      -6.08560606
Al       4.23731470      12.62313207       9.96508782       0.00316432       0.00129730      -0.00022924      -4.50103753
Al       4.14209141      12.69622317      12.66253069      -0.00957094       0.00637363       0.00193065      -3.96085966
Al       7.01403468       1.41605559       1.43483507       0.00001026       0.00595387      -0.00306693      -4.18644825
Ni       5.53849811       0.02895914       2.77788170       0.00528930      -0.00809393       0.00378918      -5.78408096
Al       6.99331900       1.41152155       4.23813324       0.00053849      -0.00541486       0.00411980      -4.27846601
Al       6.98008077       1.43784973       6.99528607      -0.01078294       0.01024444      -0.00436011      -4.46295086
Ni       5.62528574      -0.08393235       8.47656002       0.00334417      -0.00109230       0.00542676      -6.16083004
Al       6.96342786       1.34633936       9.89369496       0.00410132       0.00386768       0.00351960      -4.40290967
Al       6.89836513       1.40919123      12.67318578       0.00155449      -0.00090864       0.00075023      -3.96795342
Al       6.99885497       4.19536236       1.43547917       0.00088728      -0.00471091       0.00971674      -4.23333748
Al       7.01812397       4.20674466       4.22626522       0.00341884      -0.00444873      -0.00594827      -4.40445232
Ni       5.50487971       2.85736639       5.59894587       0.00031871      -0.00984865       0.01258184      -5.90618823
Al       7.00117844       4.10912825       7.04408066       0.00117637      -0.00756906      -0.00772690      -4.63227891
Al       6.88073469       4.17188414       9.88211452      -0.00071541       0.00081978      -0.00505245      -4.41902138
Al       7.00465671       4.20591915      12.62212413       0.01130911      -0.00523880      -0.00050572      -4.23377277
Ni       5.61305581       5.62369531      -0.03468075       0.00222789      -0.00176953      -0.00242133      -6.15289179
Al       7.07904264       7.02143182       1.45968391       0.00012084       0.00896040      -0.00330600      -4.35178546
Al       6.93106505       7.02208390       4.20047748      -0.00178777       0.00156950      -0.00364922      -4.35485200
Ni       5.53384372       5.52596061       5.67273866      -0.00603208       0.00115883      -0.00240800      -6.18867611
Al       6.89415740       7.10729568       7.04176611       0.00466420       0.00403439      -0.00486656      -4.48134767
Ni       5.58948019       5.63527846       8.47818812      -0.00362640      -0.00824278       0.00519375      -5.98246572
Al       7.03103419       7.07757127       9.89922144      -0.00133125      -0.00015154      -0.00179710      -3.90946318
Al       7.01030514       7.07557901      12.58536908       0.00131199      -0.00073170      -0.00368122      -4.10897456
Ni       5.63993539       8.42873996       0.05521517      -0.00081386       0.00392269      -0.00955816      -6.00075064
Al       6.99337171       9.92978722       1.35223879       0.00235646       0.00300502       0.00621336      -4.25676296
Ni       5.59262978       8.41550502       2.69356679      -0.00024187      -0.00330649       0.00659125      -5.91554971
Al       6.94533716       9.77714433       4.16327665      -0.00133891       0.00085220      -0.00609299      -4.36934470
Al       7.02577624       9.82365366       7.06629915      -0.00368350      -0.00214221       0.01088932      -4.21594511
Al       7.06837596       9.79482373       9.87865113      -0.00128617       0.00463757      -0.00130176      -3.63650951
Al       7.02082217       9.85412729      12.61314948       0.00761340       0.00405364       0.00153726      -3.68954996
Al       7.01902561      12.68538769       1.41707103       0.00176917       0.00056805       0.01025386      -4.17171843
Al       7.00311179      12.69087658       4.18227179      -0.00587180       0.00405840      -0.00628717      -4.40450106
Al       7.00538348      12.52895818       7.00308674      -0.00360109      -0.00767558      -0.00501780      -4.50827633
Ni       5.56381645      11.19931321       8.49646505      -0.00374602      -0.00186226       0.00127318      -5.98915064
Al       7.04429081      12.54838800       9.92357329      -0.00368966       0.00181173       0.00450926      -4.09098213
Al       6.87135563      12.60990554      12.63394487       0.00490927       0.00408497      -0.00050933      -3.71783733
Ni       8.37133615      -0.01994794      -0.08247049      -0.00067818       0.00329047      -0.00869313      -5.89952519
Al       9.72456288       1.42961786       1.37125812       0.00464104       0.00258025      -0.00319400      -4.54247476
Al       9.72532168       1.38218672       4.25008010       0.00162664       0.00353833       0.00145977      -4.55491943
Ni       8.45363922      -0.08257490       5.70809191      -0.00562487      -0.00479353       0.00536614      -6.07435181
Al       9.84796258       1.38511211       7.07300327      -0.00126142      -0.00079569      -0.00471128      -4.54264879
Ni       8.33091937      -0.01816393       8.43927500       0.00031009      -0.00789270       0.00174197      -6.08662187
Al       9.86232295       1.33132303       9.90153694      -0.00226838       0.00166447       0.00474032      -4.25488533
Al       9.76454173       1.43672702      12.58623536      -0.00236731       0.00209122       0.00127953      -4.25478568
Al       9.82431844       4.30040539       1.39289504       0.00167155      -0.00408687      -0.00177646      -4.42182582
Ni       8.45647261       2.87962357       2.81409012       0.00283915      -0.00241751       0.00440563      -5.90748059
Al       9.78919185       4.28846741       4.32096950       0.00151053       0.00006778       0.00050839      -4.19580385
Al       9.84342219       4.24373403       7.05728815      -0.00829471      -0.00241871      -0.00593769      -4.41760512
Ni       8.47731192       2.79601487       8.55486489      -0.00085208      -0.00174807       0.00294329      -6.19967560
Al       9.81534438       4.27518842       9.90784467      -0.00077001       0.00120824       0.00418240      -4.45409251
Ni       8.32624826       2.79238020      11.22191525       0.00371858       0.00076487       0.00359270      -5.90099437
Al       9.77858844       4.22334631      12.60385418       0.00095770      -0.00661271      -0.00480839      -4.35049520
Ni       8.37309845       5.65290511       0.00541319       0.00338343      -0.00326348       0.00355780      -6.06149872
Al       9.80334422       7.12055450       1.46137402       0.00162460       0.00493962      -0.00283074      -4.05705945
Al       9.86306800       7.03699976       4.18430912       0.00019655       0.00147526       0.00178120      -3.89145651
Ni       8.38285251       5.74324019       5.67225950      -0.00053227       0.00457424      -0.00517586      -6.06215284
Al       9.75901358       7.06290998       7.11235208      -0.00185761       0.00170949       0.01067351      -4.35808469
Ni       8.28676193       5.59128465       8.43117024       0.00688546       0.00430581       0.00169272      -6.08940194
Al       9.80451011       6.96343135       9.79804734      -0.00129834       0.00183032      -0.00438132      -4.39107210
Al       9.73186300       7.09879145      12.57261566      -0.00949779       0.00595033       0.00532543      -4.46066937
Al       9.76959110       9.87691909       1.32908566       0.00146317      -0.00117934      -0.00011941      -4.22718429
Al       9.89448872       9.75480757       4.11784300      -0.00279992       0.00405015       0.00032796      -4.24173746
Ni       8.40327199       8.41923047       5.60564744      -0.00639948      -0.00194463       0.00108727      -6.08882749
Al       9.89830876       9.76413150       6.99742223       0.00427250      -0.00431620       0.00051868      -4.32927797
Al       9.80301193       9.83262358       9.72839327      -0.00380783       0.00664601       0.00428239      -4.13207689
Al       9.75748841       9.79972602      12.51995452      -0.00465086      -0.00561111      -0.00054182      -4.27394741
Al       9.77342770      12.59463006       1.40577881       0.01003595      -0.00184910       0.00457848      -4.45265437
Ni       8.38956804      11.18686867       2.80675315       0.00864117      -0.00515863       0.00263125      -5.90136909
Al       9.84254310      12.61386707       4.11293287       0.00119126      -0.00355580      -0.00452527      -4.60219944
Ni       8.45688299      11.12389076       5.52258097       0.00513573      -0.00597726      -0.00701149      -6.18904621
Al       9.82468890      12.53071291       7.09738084      -0.00365556      -0.00659729       0.00313605      -4.45373555
Al       9.80989995      12.64256740       9.80499770      -0.00584630      -0.00611607      -0.00341663      -4.04860117
Al       9.69938303      12.57518298      12.55828143       0.00772530      -0.00273340      -0.01009004      -4.39178304
Ni      11.07409766      -0.03003833      -0.03072123      -0.00326299       0.00384334      -0.00054078      -6.07023349
Al      12.56130800       1.49060960       1.32073044      -0.00173995      -0.00004986       0.00177171      -4.56551083
Ni      11.24231840       0.08793333       2.74989489      -0.00221436      -0.00589511       0.00033388      -6.15589527
Al      12.51657289       1.48284578       4.28489150      -0.00270114      -0.00215587       0.00117464      -4.67473092
Ni      11.19548654      -0.07502575       5.63663115      -0.00595895       0.00073414       0.00260628      -6.16985877
Al      12.57113610       1.40876581       7.10392376      -0.01116151      -0.00190100      -0.00286502      -4.34927120
Al      12.66111939       1.38648754       9.91763552       0.00092401       0.00148909      -0.00114021      -3.67953556
Al      12.55210021       1.43642196      12.65996576      -0.00508583       0.00337131       0.00569140      -3.90987881
Al      12.55881188       4.29814912       1.44726204      -0.00038963       0.00183311       0.00435724      -4.50356228
Ni      11.12044947       2.88210464       2.85165057      -0.00398766       0.00226486      -0.00557959      -6.11438545
Al      12.54846490       4.28457463       4.31999639      -0.00091856       0.00604362      -0.00167543      -4.09352994
Al      12.65208737       4.18917548       7.11138434      -0.00549865       0.00225820      -0.00071253      -3.94583339
Ni      11.22515418       2.80102236       8.49979075      -0.00213458      -0.00221504       0.00434923      -5.90458935
Al      12.60962325       4.19807557       9.89936984      -0.00095350       0.00393064       0.00596787      -3.97441396
Al      12.62671842       4.21633422      12.64577783      -0.00121760      -0.00218300      -0.00136783      -4.40048659
Ni      11.18160819       5.75636781      -0.04147247       0.00318212      -0.00417639       0.00199844      -6.17217479
Al      12.70463069       7.07841799       1.39046641       0.00223769      -0.00686652      -0.00044512      -4.07358451
Al      12.60210386       7.02195437       4.14302407       0.00228802       0.00097192      -0.00691225      -3.33533993
Al      12.51415921       6.88397316       6.89481015      -0.00508115      -0.00033869       0.00853376      -3.71011157
Al      12.75567226       6.93130507       9.73745452       0.00378121      -0.00342010       0.00590327      -4.33071194
Ni      11.26598559       5.67397564      11.28423112       0.00340463       0.00420490       0.00398143      -6.00053129
Al      12.76941670       7.06798952      12.62827701       0.00813138       0.00115438      -0.00900946      -4.57872671
Ni      11.21296072       8.47019412      -0.02995843       0.00506535       0.00273654       0.00715852      -6.12461754
Al      12.61871235       9.82614602       1.38692272      -0.00970047       0.00518731      -0.00127164      -4.32608649
Al      12.59408340       9.77259473       4.11838974       0.00374356       0.00047852      -0.00416677      -4.07954776
Al      12.67730273       9.70224763       6.98808279      -0.00162972      -0.00428430       0.00123445      -4.23683910
Ni      11.28373501       8.37407391       8.42737875       0.00179423       0.00158824      -0.00222589      -5.92401204
Al      12.71939937       9.87643551       9.74583039       0.00275044      -0.00138002      -0.00606577      -4.26189912
Ni      11.31841635       8.40144465      11.10188345      -0.00533613      -0.00535042      -0.00773948      -6.27218999
Al      12.74677681       9.82843576      12.55132815       0.01020373       0.00250780       0.00649339      -4.57991504
Ni      11.26116627      11.21221560      -0.14771345       0.00223058      -0.00318638       0.00108970      -6.19589252
Al      12.61235730      12.68275831       1.35007748      -0.00250006      -0.00113910      -0.00176251      -4.64200471
Al      12.60034804      12.63779621       4.13335818      -0.00350512       0.00644277       0.00488141      -4.67087663
Ni      11.29109733      11.21435339       5.63183846       0.00185593      -0.00443509      -0.00511021      -6.12747453
Al      12.64301564      12.62469940       7.12515593       0.00460118       0.00188397      -0.00385573      -4.24767105
Al      12.66461353      12.67644468       9.81079520       0.00417999      -0.00593994       0.00254663      -3.66001709
Ni      11.20029265      11.22948280      11.17668236      -0.00234296       0.00875340       0.00346812      -5.99824529
Al      12.63686814      12.71204664      12.56160077       0.00135082       0.00132928       0.00236951      -4.25217870
