97
Lattice="11.183374245757959 0.018079513423631753 0.011753799543855803 0.01805673868638528 11.335061746226174 -0.01121144957563036 0.01172221465465298 -0.011206734038798396 11.347421793952934" Properties=species:S:1:pos:R:3:forces:R:3:energies:R:1 energy=-477.24364182316145 stress="0.00034209713959026543 -0.00023712531071058438 -7.54114202248772e-05 -0.00023712531071058438 -9.286805337414953e-05 8.380342659848418e-05 -7.54114202248772e-05 8.380342659848418e-05 -0.00023868678380440297" free_energy=-477.24364182316145 pbc="T T T"
Al       1.45382547       1.44521658       1.41203567       0.00023604      -0.00352526      -0.00064451      -4.03859197
Ni       0.02435054      -0.02571375       2.84152048       0.01143411      -0.00272343       0.00050865      -6.16010105
Al       1.44334541       1.47969330       4.25314055       0.00778037      -0.00053812       0.00569900      -4.57359516
Ni       0.08529941      -0.00493543       5.64705541       0.00909220       0.00708221       0.00123199      -6.06227072
Al       1.47182750       1.41815574       7.06733676      -0.00132794      -0.00812755      -0.00725148      -4.50116494
Al       1.42882929       1.32839726      10.02100574      -0.00216734      -0.00289428      -0.00195589      -3.84881975
Al       1.45990531       4.24438910       1.47144528       0.00539845      -0.00469286      -0.01009184      -4.27724580
Ni       0.01134443       2.82924364       2.85834395       0.00568202      -0.00532888       0.00068351      -6.13247246
Al       1.45092625       4.21745122       4.24797967       0.00660846       0.00146329      -0.00359693      -4.41662287
Ni      -0.06326037       2.82240796       5.72156580      -0.00710705      -0.00151853       0.00025717      -6.26839605
Al       1.46128271       4.24673425       7.09845951      -0.00503829       0.00102379      -0.00884498      -4.47668296
Ni       0.13453377       2.78934106       8.50717888      -0.00630189       0.00562907       0.00170956      -6.01681876
Al       1.43405776       4.23211197       9.98832374       0.00538723       0.00430758       0.00035263      -4.37143258
Ni       0.02527151       5.69221816       0.05862661       0.00132756      -0.00333506       0.00222442      -6.14410309
Al       1.38709593       7.16011013       1.48374428       0.00123075      -0.00777695       0.00339107      -4.30535699
Ni      -0.04151323       5.69356010       2.83251453       0.00047348      -0.00119000       0.00664064      -6.16687724
Al       1.44329821       7.13327037       4.19654724      -0.00821384      -0.00027458       0.00469814      -4.07760328
Ni       0.12208788       5.66845875       5.64206250      -0.00253522       0.00120426       0.00648642      -6.07911780
Al       1.43109283       7.10438253       7.09673286      -0.00190742      -0.00451394      -0.00023627      -4.42837493
Al       1.35992821       7.05484024       9.93108502       0.00194011       0.00035116       0.00639124      -4.48213244
Al       1.43918655       9.91649474       1.40309755      -0.00061165       0.00020497       0.00983564      -4.18528619
Al       1.42826905       9.79784441       4.23648150       0.00538162      -0.00159844      -0.00146300      -4.26366150
Al       1.43167769       9.94638363       7.11294419      -0.00011215       0.00849064       0.00092320      -4.44963378
Ni       0.04544303       8.53706023       8.52851917      -0.00559574       0.00205977      -0.00464227      -5.91144564
Al       1.34754909       9.97918940      10.02130091      -0.00362195       0.00196639       0.00528423      -4.06317354
Al       4.15239854       1.44876301       1.39230625      -0.00232464      -0.00509194       0.01014457      -4.21842760
Ni       2.82640849      -0.04134647       2.90241971      -0.00150417       0.00157580      -0.00598504      -6.16465238
Al       4.22066214       1.43921876       4.30434900      -0.00371186      -0.00469943       0.00343854      -4.32406614
Ni       2.77603123      -0.02654609       5.62019633      -0.00936947      -0.00505935       0.00146130      -6.00536879
Al       4.18629533       1.34530151       7.06756955       0.00003416       0.00808578       0.00951392      -4.18426040
Al       4.20715161       1.37563640      10.00419239      -0.01188247       0.00064478      -0.00732257      -4.21357780
Al       4.21745498       4.23924147       1.42820962      -0.00022395       0.00986162      -0.00227246      -4.16107557
Al       4.19997444       4.25426681       4.22959110      -0.00019511       0.00317336       0.00426605      -4.19492352
Al       4.11174763       4.25759747       7.10252967      -0.00086180       0.00074566       0.00276384      -4.47752510
Ni       2.80950051       2.76825975       8.57735494       0.00831477      -0.00092139       0.00577149      -6.07582371
Al       4.14104226       4.27757868       9.93878479      -0.00292937      -0.00971410       0.00239134      -4.46630941
Ni       2.80426841       5.73321417       0.06576183       0.00223035       0.00084952       0.00767370      -6.14808725
Al       4.23754606       7.15040489       1.48230951       0.01097844      -0.00652559       0.00482076      -4.06005604
Al       4.19938872       7.16880496       4.21242671      -0.00161278      -0.00242514       0.00479269      -4.09530085
Ni       2.80986086       5.68641449       5.62715872      -0.00108099       0.00451747      -0.00428138      -6.08294769
Al       4.10463687       7.11029067       7.11991418       0.00503888       0.01171298       0.00629590      -4.55992198
Al       4.20053089       7.08534651       9.89652456      -0.00594731      -0.00003518       0.00147193      -4.61546853
Ni       2.77872558       8.47853994      -0.00150095       0.00302340      -0.00305613      -0.00695970      -6.01769063
Al       4.18812868       9.90140592       1.36507169       0.01026642       0.00538135       0.01100745      -4.34911605
Al       4.29840725       9.88411414       4.28250357      -0.00460103       0.00794708      -0.00371680      -4.32749755
Al       4.17446745       9.90739714       7.03750405       0.00062738      -0.00712531       0.01313030      -4.34578026
Ni       2.74689807       8.56581257       8.60690247       0.00796856       0.00099369       0.01046639      -6.14226569
Al       4.23970786       9.93888757       9.95111390      -0.00880074      -0.01580986      -0.00759395      -4.34838337
Ni       5.63434167      -0.01715703       0.01062414       0.00532086       0.00269172       0.00972120      -6.00357050
Al       6.97111580       1.47728659       1.38585352       0.00109033      -0.00718151      -0.00139393      -4.69385691
Ni       5.58040299       0.00484275       2.76736419      -0.00863283      -0.00317065       0.00215571      -6.18346405
Al       6.98952156       1.38506422       4.30864943      -0.00027868      -0.00467605      -0.00492318      -4.45158508
Al       6.97424842       1.40564838       7.09853569       0.00201129      -0.00650716       0.00638120      -3.89185138
Al       6.94771137       1.45530637       9.87206913       0.00037858      -0.00150724       0.00575017      -4.31910799
Al       6.93805077       4.25764960       1.40488287       0.00215525       0.01243141       0.00508194      -4.56373379
Ni       5.57751460       2.81239136       2.86279721       0.00292255      -0.00236771       0.00911104      -5.98137158
Al       6.94774829       4.30182586       4.30854712       0.00933380      -0.00436416      -0.01106245      -4.40325001
Al       6.96772514       4.20496912       7.03692471      -0.01546390      -0.00004335       0.00262105      -4.32924973
Ni       5.47160115       2.83304160       8.49347998      -0.01178909       0.00910487      -0.01200419      -6.00418682
Al       6.99349577       4.19295940       9.92002818      -0.00604815      -0.00349315      -0.00060121      -4.48578770
Ni       5.57559305       5.70434229      -0.03949685      -0.00240843      -0.00000617      -0.00162627      -6.13544269
Al       6.96847541       7.14119625       1.42594644      -0.00430153       0.00133601      -0.00392822      -4.08223844
Al       7.02521153       7.01127585       4.25018978      -0.01060390      -0.00439748       0.00035564      -4.36063641
Ni       5.48807506       5.72941607       5.72127428      -0.00538424      -0.00396388      -0.00313269      -6.09115468
Al       7.11143889       7.02754422       7.11786828      -0.00256133      -0.00347226       0.00248142      -4.48455496
Ni       5.65129630       5.65368951       8.49988008       0.00311789      -0.01142666      -0.00679937      -6.23881294
Al       7.05593557       7.11615787       9.91614118       0.00256625       0.00458248       0.00463677      -4.29868067
Al       7.02419756       9.82690010       1.36824152       0.00134610       0.00805271      -0.00018286      -4.25951128
Al       7.01044972       9.91945928       4.21174132       0.00144295       0.00400747      -0.01071688      -4.42332709
Ni       5.72118576       8.47149218       5.70295734       0.00536662      -0.00844220       0.00150129      -6.09350924
Al       7.05352962       9.99436969       7.12441034       0.00171749       0.00666698       0.00113196      -4.10867699
Ni       5.59266704       8.49465526       8.43903200      -0.00185649      -0.00329665      -0.00606080      -6.06333222
Al       6.99128418       9.88474319       9.88017377      -0.00014018       0.01066262       0.00251291      -4.18942094
Ni       8.34767194       0.04515221      -0.06499877      -0.00115889       0.00300637      -0.00750667      -6.04655939
Al       9.83031521       1.42598506       1.39081369       0.00445690      -0.00360420      -0.00553676      -4.60371285
Ni       8.40048624      -0.04614934       2.75979130       0.00751650       0.00233114       0.00040671      -6.15794761
Al       9.75074704       1.37815325       4.28180237       0.00206618      -0.00337412      -0.01025602      -4.69677858
Al       9.78970609       1.35611911       7.15288657      -0.00366780      -0.00866545       0.00057970      -4.26514253
Al       9.84692886       1.41284767       9.88436292      -0.00982512      -0.00785774      -0.00669979      -4.18011527
Ni       8.41809831       2.81532257      -0.04405211      -0.00230784       0.00114551       0.00000403      -6.09317389
Al       9.82111531       4.20272470       1.39739743      -0.00147920       0.00812492      -0.00249520      -4.66040087
Ni       8.34734789       2.87004112       2.87413382      -0.00479812       0.00322108      -0.00084482      -6.28961849
Al       9.74915002       4.30923560       4.31613572       0.00260629       0.00192313      -0.00628108      -4.71556060
Ni       8.41707646       2.81942058       5.71175568       0.00171271       0.00296196      -0.00444343      -5.98137857
Al       9.79091756       4.31612055       7.16360182      -0.00368554       0.00429546       0.00084909      -4.27170975
Al       9.88138195       4.22818226       9.90835343      -0.00067508       0.00187779       0.01015449      -4.27994590
Ni       8.41708794       5.66231526      -0.00298475       0.00364319      -0.00073180       0.00030380      -6.16406855
Al       9.77652898       7.20987998       1.41439187       0.00301433       0.00123312      -0.00235755      -4.23664503
Ni       8.42332109       5.70633164       2.78407659       0.00108764      -0.00158593      -0.01195641      -6.05092054
Al       9.77389488       7.12645912       4.30444027       0.00523616      -0.00681409       0.00033169      -4.36149627
Al       9.85210969       7.12435541       7.06632350       0.00806032       0.01150232      -0.00577497      -4.10373522
Al       9.81663398       7.10076061       9.90260527       0.00188008      -0.00375584      -0.00152277      -4.16903898
Al       9.85986766       9.90863366       1.31231729       0.00203616       0.00613393       0.00045634      -4.07339802
Al       9.78868061       9.89743341       4.26289985       0.00704657       0.01315576      -0.01102318      -4.34420618
Ni       8.35499526       8.53100261       5.67001624      -0.00726164      -0.00379616      -0.00065202      -5.93471731
Al       9.84237733       9.92066283       7.03269944       0.00457774       0.00120261      -0.00200884      -4.11430475
Al       9.76392453       9.95090385       9.85703717      -0.00025132       0.00607929      -0.00360519      -4.02924478
