156
Lattice="13.45602334689813 0.11851861185163676 0.4589270702642458 0.11966497150580031 13.523637074579003 -0.40774408594143935 0.45248167330168215 -0.4054277006860866 13.747867659832883" Properties=species:S:1:pos:R:3:forces:R:3:energies:R:1 rep=5 n_sites=250 energy=-687.1230215757262 stress="-0.0003274475314791034 -0.00048706413158104526 4.604897459470702e-05 -0.00048706413158104526 -0.00041681996527577947 4.526234839250485e-06 4.604897459470702e-05 4.526234839250485e-06 0.0010970469759507447" free_energy=-687.1230215757262 pbc="T T T"
Ni       0.44238367      -0.15147895      -0.03350427      -0.00578614       0.00047436      -0.00494882      -5.97165857
Al       1.68284170       0.96974191       1.62804504      -0.00149735       0.00365634       0.00087032      -4.36063787
Al       1.20626263       0.99664254       4.20891783       0.00001209       0.00704179      -0.00086072      -4.11615449
Al       1.08725908       0.85740801       6.89746887       0.00034419       0.00403303       0.00176432      -4.30511940
Al       1.42386056       0.45388164       9.79468478      -0.00064979       0.00555130       0.00441058      -4.00532077
Al       2.30834808       1.26319027      12.39516898       0.00014840       0.00223628      -0.00406621      -4.18087621
Ni       0.11746249       2.50995246      -0.01380900       0.00979702       0.00803325       0.00138772      -5.96091146
Al       1.90963326       3.65445264       1.26275366       0.00054356      -0.00494082      -0.00019702      -4.15148392
Ni       0.15883613       2.75416274       2.65865816      -0.00035024       0.00460478       0.00021529      -6.11221234
Al       1.50076545       4.05416080       4.27975130       0.00038246       0.00597116      -0.00156639      -4.36826724
Ni      -0.05251716       2.68401586       5.53580307       0.00442824      -0.00483190      -0.00554490      -6.12042224
Al       1.38412321       3.76269789       7.19120112      -0.00258285       0.00621190      -0.00008734      -4.12766887
Al       1.43154831       3.15610321       9.84690684      -0.00789791       0.00850984       0.00358392      -4.26332667
Al       1.58250605       3.98099146      12.59652475       0.00287166       0.00167202       0.00657290      -4.24411522
Al       1.99373340       6.38670715       0.76152255       0.00241415      -0.00128541       0.00878220      -3.86498048
Ni       0.49412495       5.25230547       2.40991809      -0.00160932      -0.00026734      -0.00098428      -5.91051175
Al       2.44212396       6.47168775       3.50157950       0.00501548      -0.00041724       0.00405904      -3.80750446
Al       2.06991230       6.29110362       6.23993851       0.00274165      -0.00281230       0.00200901      -3.96977739
Al       1.72895716       5.99736513       9.12330618      -0.00352069      -0.00821183       0.01545994      -4.52367069
Ni       0.25554166       5.01124829      10.73384811       0.00403819      -0.00014820      -0.00488057      -5.94984908
Al       1.60843197       6.60817272      12.01933220      -0.00332569       0.00900501       0.00042998      -4.17279633
Al       1.08287654       9.03229957       1.17068425      -0.00583015       0.00274782       0.01158290      -3.74068786
Al       1.74478959       9.08746624       3.89540697       0.00024007      -0.00184989      -0.00004076      -3.65233082
Al       2.35831307       9.16570562       6.57178101      -0.00480743      -0.00257787      -0.00480137      -4.06363852
Ni       0.73018419       7.80912653       7.79987336      -0.00879030       0.00190255      -0.00995234      -5.99994693
Al       2.01305474       8.87490764       9.46780876       0.00247887       0.01046740       0.01241108      -4.41524390
Ni       0.09319710       7.60054794      10.39825871      -0.00219924       0.00041062      -0.00227226      -5.98078886
Al       1.01866230       9.21020143      12.01295201       0.00099730      -0.00676985      -0.00808957      -4.03523478
Al       1.98044143      11.47356036       0.12557520      -0.00062013       0.00152120       0.00821784      -4.24646789
Al       1.50022524      11.67148756       2.94527820       0.00677354      -0.00439341      -0.00638694      -3.68950413
Al       1.64545846      11.72246391       5.65900291      -0.00577076       0.00214425       0.00068003      -3.94330703
Al       1.01168349      11.35016560       8.37998281      -0.00734449       0.00172680       0.00192490      -3.90945154
Al       2.06697591      12.09824604      11.32023212      -0.00291039      -0.00675868      -0.00443886      -4.25929716
Ni       3.03265557      -0.03478597      -0.11586572      -0.00376372      -0.00260236       0.00221408      -5.84033607
Al       4.18553242       1.96736937       0.79633999      -0.00464765      -0.00132229       0.00147010      -4.15897244
Al       3.81948635       1.41577478       3.72070429      -0.00673540      -0.00622087      -0.00003690      -3.99100897
Al       4.03065698       0.61114915       6.42864069      -0.00185159      -0.00277171       0.00205400      -4.17552410
Ni       2.60916921      -0.67961242       8.02797584       0.00026094       0.00135100      -0.00566262      -5.92180079
Al       4.40948509       0.43277161       9.16163574      -0.00721143       0.00937459      -0.01242874      -4.10097644
Al       4.83812297       0.48635571      11.84266185       0.00212857      -0.00987337       0.00363631      -3.89876304
Al       4.18777693       4.90964045       1.91900625       0.00329433      -0.00057253      -0.00209255      -3.93866666
Al       4.19797322       4.09077755       4.62516165      -0.00065195       0.00275456      -0.00371880      -4.08264838
Ni       2.63667568       2.43481258       5.66591981      -0.00239873      -0.00313804      -0.00319883      -6.00577944
Al       4.38746979       3.34591328       7.23478849      -0.00002710      -0.00351092       0.00169765      -4.09172986
Ni       2.74744957       1.91273388       8.24550011       0.00896595       0.00389102      -0.00728493      -5.98370337
Al       4.21434584       2.99439607      10.01173450       0.00121960      -0.00097825      -0.00402721      -4.05770256
Al       4.53094585       3.78109938      12.72894679       0.00349474      -0.00294657       0.00180919      -3.79863713
Al       4.47002202       7.40004268       1.04951465       0.00257858      -0.00655743       0.00013280      -3.67109837
Al       5.16114271       6.96637843       3.80531303      -0.00905424       0.00529946      -0.00395837      -3.65708743
Al       4.91687454       6.00866653       6.47747293       0.00212653      -0.00000048       0.00021671      -3.84462423
Al       4.54189781       5.78939025       9.26842255      -0.00070991       0.00187334       0.00186842      -4.06211085
Ni       3.01774538       4.84081605      10.95093998      -0.00524406       0.00095561      -0.00178102      -5.86135685
Al       4.52967999       6.41780763      11.97433194       0.01179946      -0.00333701      -0.00079537      -3.90322716
Al       3.55025322       9.91022907       1.89817449       0.00416008       0.00164502       0.00048816      -3.94432571
Al       4.25506857       9.56891284       4.51088107       0.00773261      -0.00277850      -0.00066255      -3.81720116
Al       5.10480283       8.65954278       6.90893007       0.00207250       0.00024404      -0.00277485      -4.05983812
Ni       3.34967539       7.39445357       7.93943802       0.01004038      -0.00471642       0.00289978      -5.86480169
Al       4.70485670       8.65104543       9.78443312       0.00797277      -0.00931755      -0.00311566      -4.18775833
Al       3.57152618       8.61323341      13.09078616       0.00501155      -0.00596735      -0.00378277      -3.91190695
Al       4.25622905      12.62414114       1.41095799       0.00182497      -0.00274982      -0.00250977      -4.11037996
Al       3.93063163      12.32206232       4.09479649      -0.00427673      -0.00994857       0.00187496      -3.84220804
Al       4.36470922      11.34642529       6.68239094      -0.00579792       0.00523471      -0.00119033      -4.11431576
Al       3.85639843      11.36090044       9.35300684       0.00078781       0.00693335      -0.00422030      -4.27171504
Ni       3.16268378      10.00753470      11.20834704       0.00020395      -0.00410920       0.00966419      -5.65750482
Al       4.90810948      11.24754297      12.25619989      -0.00521860       0.00540943      -0.00351609      -4.00703442
Al       6.84737802       1.49356134       1.66273339       0.01001423      -0.00702718       0.00032989      -4.33730102
Al       6.57838693       1.61893370       4.39864066       0.00171860       0.00391584       0.00461061      -3.97850024
Al       6.54909555       1.42135280       7.23115785       0.00003933      -0.00054855       0.00589338      -3.88132175
Al       6.64092401       1.63723082      10.10464046      -0.00613728      -0.00924230       0.00366818      -3.86776043
Al       7.32678354       0.94646520      12.57568005      -0.00298739       0.00083597      -0.01070275      -4.01312815
Al       6.53344074       4.09409969       0.87657048      -0.00653706      -0.00053359      -0.00242092      -4.09908779
Ni       5.32175588       2.95997456       2.71812426      -0.00273997       0.00534010       0.00287509      -5.77972226
Al       6.82482392       4.53661610       3.61856159       0.00192958      -0.00203240       0.00073032      -3.93385451
Al       6.85415061       4.01553804       6.25466589       0.00377098       0.00520978       0.00789111      -3.72927284
Al       6.68318631       4.09154690       9.03345689       0.00039764       0.00540910       0.00365890      -3.73856859
Al       7.48929517       3.55179772      11.86001072       0.00158673       0.00219343      -0.00135128      -3.83247900
Al       7.37718700       6.65900865       2.07679571      -0.00426606      -0.00303645      -0.00138821      -3.94551346
Al       7.53982727       6.77407092       5.07848427       0.00966357      -0.00506191      -0.00266045      -3.74478746
Al       7.48708203       6.34224619       7.74784583       0.00468489       0.00082291       0.00103191      -3.69747923
Al       6.90192004       6.70418410      10.43149646       0.00380766      -0.00760186      -0.00090485      -3.73204746
Al       6.89195666       5.89786698      13.12221433      -0.00136039      -0.00475183      -0.00763576      -3.86960834
Al       6.39648818       9.26390748       1.62297521       0.00492335      -0.00249592      -0.00535346      -4.12891525
Al       6.94014384       9.46905668       4.38597219      -0.00268005      -0.00113884       0.00213143      -4.00605229
Al       7.68322959       9.14484884       7.33253442      -0.00048985       0.00291647       0.00322221      -4.01513776
Al       7.39195285       9.50680045      10.13455629      -0.00881770       0.00526154       0.00693743      -3.93221239
Al       6.40869508       8.63242474      12.55097593       0.00067002      -0.00284791      -0.00132332      -3.87376050
Al       6.94944978      12.12936219       1.35039950       0.00101136       0.00284522      -0.00184723      -4.13926007
Ni       5.46441137      10.97280098       2.88198600      -0.00599755      -0.00694359       0.00439983      -5.74157745
Al       6.93930333      12.28864188       4.30175581       0.00224542      -0.00260250      -0.00157065      -4.09559479
Al       6.97693439      12.07982883       7.04510166       0.00422990      -0.00473394      -0.00273612      -4.13715363
Ni       5.88823671      10.36559726       8.43827849       0.00062012       0.00047494      -0.00259739      -5.76112108
Al       6.60516242      12.29125188       9.76864769       0.00605058       0.00488113       0.00268590      -4.10874659
Al       7.55169909      11.62727839      12.26601195      -0.00131697      -0.00639601      -0.00440720      -3.82920807
Ni       8.27985749       0.13360746       0.26999014      -0.00730780      -0.00075775       0.00026525      -6.03098067
Al       9.65650577       1.58032117       1.69570222      -0.01253706       0.00839039      -0.00911343      -4.30954886
Ni       8.18591040       0.13482084       3.12139922      -0.00212685      -0.00001686      -0.00387842      -5.95964371
Al       9.34659693       1.64609537       4.48997377       0.00618216       0.00333213      -0.00074415      -4.16458643
Al       9.35243018       1.36017529       7.14094203      -0.00058272       0.00439686      -0.00839600      -4.17624731
Ni       8.05786551       0.23138328       8.75212946      -0.00520424       0.00515761       0.00083770      -5.89356145
Al       9.42515748       2.13565821       9.88300258       0.00133422       0.00436922       0.00463115      -4.07620640
Al      10.29938900       1.13092939      12.50304336      -0.00059693      -0.00756830       0.00337833      -4.03486053
Ni       8.33219626       2.80216834       0.07778789       0.00066359      -0.00242894       0.00335458      -5.84987548
Al       9.26839411       4.36223327       1.84453395      -0.00166016      -0.00802383      -0.00226422      -3.80016828
Al       9.24611614       4.40209605       4.75388504       0.00658641       0.00737614      -0.00532181      -3.86513481
Al       9.27405611       4.14259930       7.58345268      -0.00352153       0.00088867       0.00224158      -3.89034871
Al       9.10875145       4.92618491      10.12891932      -0.00198951       0.00225175      -0.00193457      -3.63206370
Al      10.06278708       4.13290311      12.70354823      -0.00018711       0.00481977      -0.00342750      -3.87584499
Al       9.96103192       6.90617556       0.92326647      -0.00551982      -0.00400889       0.00402525      -4.02323338
Al      10.07578710       6.67172468       3.78314895       0.00048123      -0.00627065      -0.00472330      -4.02089844
Al      10.00724093       6.64535165       6.60239257       0.00460870      -0.00108203       0.00410679      -3.91099443
Al       9.44730687       7.59155252       9.28280329      -0.00740889       0.00585425      -0.00245760      -3.67057586
Al       9.45821268       6.76941557      12.01184918      -0.00003816      -0.00286353      -0.01298953      -3.83212608
Ni       7.87098329       8.09101474       0.18187648      -0.00930187       0.00020995       0.00408387      -5.79535006
Al       9.25759737       9.50278651       1.54382010       0.01082932       0.00318439       0.00392746      -4.23732263
Al       9.68772538       9.40404533       4.22751038      -0.00888761       0.00939587       0.00355820      -4.43732461
Al      10.33931341       9.29283827       7.21387396      -0.00008118      -0.00682139      -0.00064099      -4.11529613
Al      10.07292429      10.18952605       9.93975402       0.00650766       0.00115414      -0.00146330      -3.68557165
Al       9.09146242       9.41563207      12.45389370      -0.00349901      -0.00547731       0.00201653      -3.80397222
Al       9.72136474      12.20022598       1.21555618       0.00888099      -0.00677575       0.00586247      -4.32412945
Al       9.63381882      12.26192743       4.30363562      -0.00238743      -0.00428203       0.00429487      -4.52181383
Ni       8.50904667      10.75840361       5.74048202       0.00906168       0.00413351      -0.00427017      -5.80564520
Al       9.69072668      11.97028631       7.39121709       0.00768131       0.00178362      -0.00653329      -4.45850448
Al       9.26296207      12.84406881      10.20766444      -0.00373274       0.00343320      -0.00282356      -4.17164164
Al      10.39488989      11.76947148      12.30212495      -0.00140614      -0.00057036       0.00193019      -3.84165712
Al      12.28486662       1.25625661       1.79444940      -0.00298423      -0.00458635       0.00392665      -4.29488117
Ni      10.81271002       0.00537506       3.19709985       0.01991115      -0.00189452       0.00067677      -6.01504715
Al      11.99146598       1.63986821       4.46458450      -0.00601487      -0.01040620      -0.00544968      -4.29638684
Al      11.98944305       1.61079404       7.52477809       0.00182310      -0.00042518      -0.00534125      -4.21257371
Ni      10.64804003       0.21445304       8.92044093      -0.00165870       0.00167623       0.00421658      -5.89714187
Al      12.22303035       1.47197376      10.26246336      -0.00139346       0.00264081      -0.01677445      -3.78251215
Al      12.99470111       0.61151667      12.58138917       0.01023811      -0.00553025       0.00720662      -4.05345483
Al      12.11462554       4.18971605       1.63264705       0.01043973      -0.00415734       0.00138981      -4.07749103
Al      12.18456132       4.47693376       4.48470703       0.00087122       0.00397215       0.00293190      -4.32586371
Ni      10.74696528       3.00856130       5.98196707       0.00712918       0.00120510       0.00096670      -5.91460842
Al      12.07517652       4.41883408       7.39674737      -0.00030929      -0.00203940      -0.00040415      -3.96558184
Al      11.70120028       4.06799635      10.10579894      -0.00174210       0.00460557       0.00884187      -3.78667156
Al      12.58880571       3.29831454      12.53191201      -0.01095559       0.00244535      -0.00149638      -4.01778050
Al      12.72853289       6.91135169       1.24637604      -0.00386263       0.00397854       0.00516696      -3.94100578
Al      13.11091068       7.24099073       3.92465035      -0.00974629       0.00340111       0.00235868      -4.27555737
Al      12.80736597       6.80953174       6.63176951      -0.00148724      -0.00362689      -0.00109890      -3.88247021
Al      12.28194312       6.51460325       9.30316412       0.00080961       0.00621729       0.00297904      -4.09061259
Al      12.12525339       6.33585923      12.41826885       0.00115753       0.00292895       0.00319070      -4.04297333
Al      12.00020788       9.72860173       0.76443021      -0.00665092      -0.00724768       0.00362461      -4.10852734
Ni      11.21352298       8.34989264       2.57938945       0.00812662       0.00713697      -0.00876316      -5.99494329
Al      12.68364080       9.85804765       3.86172562       0.00107027      -0.00876471       0.00216397      -4.31101599
Ni      11.43603714       8.21560492       5.28998400       0.01101339      -0.00946987       0.00394145      -5.97279007
Al      13.13678168       9.58369997       6.57891046       0.00463521       0.00079718       0.00377961      -4.28383204
Al      12.62958963       9.45357613       9.33808095       0.00053986       0.00450376      -0.00294685      -4.03276286
Al      11.72017437       9.04481444      11.83831493      -0.00035583      -0.00099894       0.00633821      -3.92359747
Al      12.81914689      12.17066939       1.71540561      -0.00206629       0.00576846      -0.00081527      -4.28941281
Ni      10.99235092      10.92426997       2.68112526      -0.00738412      -0.00132172      -0.01652822      -6.03695536
Al      12.49615256      12.50107445       4.43407944      -0.00642734      -0.00356067       0.00984519      -4.14985932
Ni      11.18435137      10.83066193       5.64147074       0.00309693       0.01272544       0.01020604      -6.03512513
Al      12.37035153      12.33324564       7.21310722      -0.00712240       0.00239392       0.00192225      -3.98789050
Al      12.06975857      12.20375417      10.04670132       0.00192367       0.00456355       0.00106199      -3.89122046
Al      12.95521250      11.47590722      12.74323007      -0.00731880       0.00257002       0.00367143      -3.81026491
