107
Lattice="11.384519782306167 -0.004736349927644671 0.006202327903321366 -0.004737449984241154 11.374652800661467 0.0008707648061990928 0.006204367817075648 0.0008707728744057089 11.36514108579706" Properties=species:S:1:pos:R:3:forces:R:3:energies:R:1 energy=-548.4176373255575 stress="-0.0007586588669356803 0.0005790570037264246 -0.0008785403109018692 0.0005790570037264246 -1.49272762492194e-05 -0.00011848437538447588 -0.0008785403109018692 -0.00011848437538447588 0.0007861895836292478" free_energy=-548.4176373255575 pbc="T T T"
Al       1.41846129       1.34770095       1.47077637      -0.00092819       0.00246091       0.00318526      -4.42853107
Al       1.32808582       1.36553286       4.31056939      -0.00378712      -0.00335231       0.00623938      -3.99033929
Al       1.43967957       1.37109124       7.03232593      -0.00207337      -0.00130534       0.00449947      -4.37509323
Ni       0.07999791      -0.03932073       8.46510986      -0.00595318       0.01073318      -0.00338697      -6.22743366
Al       1.42895953       1.42268642       9.96978650      -0.00785628       0.01083402      -0.00412347      -4.63231607
Ni      -0.01240048       2.84711021       0.05900039       0.00014960       0.00225310      -0.00923294      -6.20034573
Al       1.45737124       4.27554775       1.43017021       0.00043825      -0.00134825      -0.00243503      -4.72290072
Ni       0.04229383       2.85369534       2.82821562       0.00347509       0.00572928      -0.00000956      -6.05646046
Al       1.39913116       4.32223521       4.32808840       0.01030986      -0.00072178       0.00660470      -4.37628926
Al       1.43041695       4.29136969       7.03391870      -0.00066569       0.00149839      -0.00483514      -4.37716248
Ni       0.03337127       2.80997096       8.50625163      -0.00400591      -0.00603168       0.01221903      -6.20543986
Al       1.44694259       4.21556120       9.95762441       0.00098695      -0.00416003       0.00499674      -4.72174812
Ni       0.00341424       5.69784607       0.00031828       0.00207881       0.00804848      -0.00274702      -6.26442810
Al       1.46402456       7.11648206       1.38088320       0.00057935      -0.00840451      -0.00282660      -4.64299239
Ni       0.00435965       5.67631464       2.85926729       0.00440430       0.00259752      -0.00335016      -6.21398752
Al       1.40005867       7.10135316       4.35384125       0.00294112      -0.00227980       0.00269463      -4.18782248
Al       1.47937706       7.15904611       7.06941319      -0.00269962       0.00582370      -0.00474923      -3.98365218
Ni       0.07184079       5.71876645       8.50178398      -0.00103856       0.00116825       0.00134227      -6.21460985
Al       1.47777721       7.15995076       9.95305272       0.00380566      -0.00770828       0.01101488      -4.53510639
Ni       0.03330254       8.52397246       0.00468995      -0.00047727       0.00690000       0.00366759      -6.10636728
Al       1.48104132       9.97947772       1.39557687       0.00192558       0.00109459      -0.00917916      -4.30357564
Ni       0.06464118       8.54919882       2.80986478      -0.00100300       0.00215013       0.00619102      -6.16637421
Al       1.41097909      10.00946377       4.33137523      -0.00157876       0.00186643       0.00116718      -3.83817964
Al       1.48980000       9.90146256       7.06182998      -0.00802383       0.00303226      -0.00284278      -3.97285311
Ni       0.01292176       8.57286357       8.54579469      -0.00472973      -0.00562878      -0.00300843      -6.16252854
Al       1.45076008       9.95398123      10.00371420       0.00659476       0.00117698       0.00995799      -4.43440742
Ni       2.85534319       0.03114737       0.00365521      -0.01073144      -0.00837034       0.00083498      -5.99399608
Al       4.29453522       1.37773743       1.51929733       0.00546120      -0.00389827      -0.00212688      -4.38704189
Al       4.21724921       1.36441684       4.27624581      -0.00001201       0.00886264       0.00715847      -4.39312107
Al       4.26382333       1.40004703       7.00109648       0.00008179       0.00097410      -0.00314885      -4.52515063
Ni       2.86341352      -0.03895665       8.56089454       0.00458539       0.00071407      -0.00167513      -6.15621431
Al       4.28280891       1.40453071       9.95198454       0.00435139       0.00915534      -0.00143112      -4.65111189
Ni       2.91097580       2.78215435       0.09691646       0.00226403      -0.00142599      -0.00461589      -6.27754392
Al       4.30975252       4.24827226       1.47509923       0.00586402       0.00304787      -0.00353527      -4.51820142
Ni       2.78481830       2.83963093       2.96840366      -0.00450503      -0.00424153      -0.00190977      -6.16818320
Al       4.24635188       4.28877998       4.32902368      -0.00515438      -0.00280146       0.00050065      -4.46155682
Ni       2.81624909       2.82095896       5.63472034      -0.00071806       0.00053193       0.00470043      -6.08284035
Al       4.30204492       4.30515140       7.05174186       0.00566763       0.00636922      -0.00125824      -4.34486069
Ni       2.87190626       2.84974647       8.38439961      -0.00564048       0.00438057      -0.00144604      -6.27929064
Al       4.27721441       4.25978418       9.92944208       0.00771960      -0.00368202       0.00013132      -4.54851394
Ni       2.85915390       5.66168359      -0.02441852      -0.00465342       0.00145127      -0.00225234      -6.13062463
Al       4.29739325       7.16212490       1.41989216      -0.00393262       0.00110794      -0.00320698      -4.42519437
Ni       2.88741274       5.75079190       2.82826658       0.00062239      -0.00424478      -0.00823934      -6.23893310
Al       4.23540193       7.17396938       4.27348221      -0.00561587       0.00570763      -0.00007612      -4.48132972
Al       4.25331440       7.07859010       7.16359063      -0.00411938      -0.00456203       0.00014355      -4.13787198
Ni       2.82836204       5.70111744       8.56128826       0.00707690      -0.00220013      -0.00683578      -6.04051561
Al       4.30973623       7.11365901       9.95618355      -0.00060161       0.01100194      -0.00047084      -4.15830761
Al       4.26297596       9.94117139       1.46344677       0.00720122       0.00681217      -0.00479278      -4.24729548
Ni       2.74527057       8.52166376       2.90897406       0.00145600       0.00158595      -0.00041002      -6.01179085
Al       4.22216944       9.87946288       4.23163658      -0.00392735      -0.00154726      -0.00514484      -4.32634024
Al       4.20193531       9.88289136       7.11341877      -0.00099007      -0.00306159      -0.00537399      -4.29006957
Al       4.31756822       9.95656484      10.00331071      -0.00148083      -0.00376561       0.00104089      -4.33429645
Al       7.02825118       1.41130593       1.44284226      -0.00568466      -0.00352164      -0.00417959      -4.44876395
Ni       5.70377528       0.00024656       2.93804646      -0.00228746       0.00029031      -0.00395836      -6.00262421
Al       7.08754878       1.47301074       4.26783575       0.00724312       0.00461390      -0.00172744      -4.39281562
Ni       5.65961197      -0.11425926       5.63337874      -0.00384256       0.00250738       0.00387172      -6.16568225
Al       7.08459179       1.40576912       7.05428808      -0.00268929      -0.00616178      -0.00232165      -4.64043739
Ni       5.63116543       0.00433832       8.43516023       0.00224556       0.00166187       0.00072743      -6.15367954
Al       7.08122744       1.36091330       9.93716237      -0.00017432      -0.00052411      -0.00211797      -4.62797697
Ni       5.68753603       2.84844996      -0.01695832       0.00149717       0.00385065       0.00009671      -6.12056403
Al       7.04596658       4.28091380       1.42896311       0.00100187       0.00706295      -0.00058593      -4.41267518
Al       7.08460560       4.20280085       4.26463773       0.00204051      -0.00471597       0.00635755      -4.38460729
Al       7.03443849       4.28965292       7.10692867      -0.00855754      -0.00230322      -0.00432278      -4.49386429
Ni       5.67467320       2.80807908       8.53547211      -0.00335079       0.00184952       0.00805590      -6.14389032
Al       7.06956462       4.31107043       9.91139244       0.00544826       0.00495592       0.00027068      -4.51336964
Al       7.07517752       7.16219363       1.40893307      -0.00536761      -0.00029593      -0.00064096      -4.39605765
Ni       5.67317718       5.67685130       2.92132209      -0.00035760      -0.00177657      -0.00173307      -6.13281007
Al       7.10070733       7.17504787       4.23623438      -0.00533379       0.00105792       0.00599643      -4.64564605
Ni       5.69924683       5.78223377       5.64405644      -0.00236080      -0.00520452       0.00543217      -6.06976574
Al       7.10736346       7.11859902       7.14623400      -0.00361121       0.00032128       0.00114094      -4.53780189
Al       7.14448256       7.17056345       9.98120681       0.00513681       0.00157983       0.00531328      -4.27446364
Ni       5.66991980       8.51944078      -0.02225009      -0.01384527       0.00551371      -0.00243533      -5.78730386
Al       7.05428505       9.90261195       1.39714191      -0.00568127      -0.00173880      -0.00277260      -4.44117043
Al       7.09320301       9.88506548       4.24942956       0.00089451      -0.00648372      -0.01199026      -4.65681572
Ni       5.64123936       8.49540259       5.74452185      -0.00164524      -0.00487031       0.00093830      -6.10791988
Al       7.10489930       9.92854856       7.11869851       0.00102332      -0.00140371      -0.00305094      -4.64018788
Al       7.09592574       9.93430305       9.96746651      -0.00892819       0.00326882       0.00143895      -4.38152496
Ni       8.53716883       0.04609648       0.05238681       0.00952550      -0.00047759       0.00373707      -6.12055439
Al       9.92441961       1.44507881       1.48185810       0.00169746      -0.00170151       0.00164281      -4.41158697
Ni       8.48278739      -0.06235765       2.79689200      -0.00419489       0.00304816       0.00512509      -6.17622296
Al       9.93082453       1.46871720       4.19045314       0.01395986       0.00321553      -0.00611398      -4.21429497
Ni       8.57193629       0.02318551       5.61674314      -0.00155305      -0.00184117       0.00401617      -6.21995552
Al      10.00399518       1.39911564       7.06800951       0.00552612      -0.00482638       0.00317667      -4.50285217
Ni       8.55712219      -0.05385533       8.54545494      -0.00828075      -0.00604956      -0.00195630      -6.27270982
Al       9.99269969       1.39509707       9.95722022       0.01103006       0.00644541       0.00626536      -4.60343327
Ni       8.45739226       2.82735922      -0.01438552       0.01342145      -0.00178229      -0.00613255      -6.22649073
Al       9.90974296       4.24621775       1.45627738       0.00076780      -0.00018399       0.00243384      -4.61492002
Al       9.93062260       4.23513659       4.23495177       0.00525669      -0.01069636       0.00255733      -4.40620809
Ni       8.54994070       2.85101058       5.71228640      -0.00289080      -0.00337061      -0.00644431      -6.12080341
Al      10.00983765       4.27760774       7.08463688       0.00091162       0.00776103      -0.00198575      -4.49341193
Ni       8.51698815       2.84186617       8.47404406       0.00999096       0.00036585       0.00151514      -6.26918665
Al       9.97533091       4.24427431       9.93208580       0.01091400      -0.00535440       0.00190776      -4.69571486
Ni       8.53861649       5.64515934      -0.00147217       0.00964372      -0.01033500      -0.00134277      -6.14080772
Al       9.93992974       7.13024971       1.40354613      -0.00533849      -0.00766336       0.00130659      -4.63902910
Ni       8.47863590       5.74386906       2.82398918      -0.00056126      -0.00410093      -0.00444137      -6.23606496
Al      10.00370055       7.10399951       4.29056792       0.00263572       0.00496386       0.00374330      -4.52183883
Ni       8.51332107       5.64966778       5.68304988      -0.00967412       0.00201806      -0.00287442      -6.24041845
Al      10.03274955       7.09978775       7.05619861      -0.00894892       0.00021220       0.00347904      -4.51215868
Ni       8.56353198       5.73176410       8.53717558       0.00488928      -0.00438447       0.00585674      -6.22303209
Al       9.96737785       7.13597997       9.97033985       0.00565792      -0.00397175       0.00068911      -4.61856066
Al       9.98766714       9.96430169       1.38637833      -0.00195911       0.00181937      -0.00713958      -4.45186592
Ni       8.61990694       8.55700976       2.88627035       0.00319747       0.00466532       0.00793343      -6.17339477
Al      10.04659486       9.99146459       4.24830961       0.00254530      -0.00293829       0.00189140      -4.38919223
Ni       8.56792244       8.54129346       5.68528916       0.00139130      -0.00297520       0.00035438      -6.22768705
Al      10.03043816       9.96831347       7.03647581      -0.00602600       0.00149031       0.00138368      -4.52280010
Ni       8.60729398       8.54073237       8.46868343      -0.00157210      -0.00282520      -0.00215543      -6.16002472
Al       9.97355928       9.96570628      10.01684032      -0.00791414      -0.00438896       0.00615461      -4.48885667
