250
Lattice="16.16910586697315 -0.10640195139391004 0.011004482163881274 -0.0996981089241145 15.280318902441763 0.08423327228663956 0.010724852421794313 0.0896321912971968 16.28108282381718" Properties=species:S:1:pos:R:3:forces:R:3:energies:R:1 rep=5 n_sites=250 energy=-1059.0369873046875 stress="-0.0003090586978942156 -0.000838549283798784 0.0006020900327712297 -0.000838549283798784 -1.8823000573320314e-05 -0.00024477855185978115 0.0006020900327712297 -0.00024477855185978115 0.0002547977783251554" free_energy=-1059.0369873046875 pbc="T T T"
Al      -0.71693894       0.57055781       0.20818152       0.00302188       0.00308465      -0.00381989      -3.64514375
Al       1.86503041       2.01180810       2.36913870       0.00239016       0.00002341       0.00231512      -3.83468711
Ni       0.93686567       0.39987936       4.15807889       0.00376964       0.00698335      -0.00314099      -5.97374845
Al       2.16827759       2.09493439       5.34963489      -0.00057128       0.00382056      -0.00264110      -4.11534482
Al       0.83395629      -0.33128107       6.46192358       0.00215948      -0.00344229       0.00169083      -3.87848783
Al       1.67984576       2.67731805       8.17963606       0.00273194       0.00063814      -0.00151205      -4.04018599
Al       1.05888858       0.27697572       9.25665942       0.00096720       0.00370055       0.00054630      -3.75873005
Al       2.29985390       1.01555394      11.57458777       0.00314575       0.00486009      -0.00613545      -3.99035966
Al      -0.53463112      -0.61606069      12.68489543       0.00141212       0.00604475       0.00218655      -3.78946888
Al       0.85585292       1.15350343      14.10274883      -0.00137591       0.00197259      -0.00212123      -3.83950031
Al       0.67934067       2.96960935      -0.01316178      -0.00085974      -0.00143588       0.00534905      -3.65009451
Al       2.24565624       4.93853358       1.70467230       0.00011940      -0.00608358      -0.00284202      -3.84296608
Al      -0.48313723       4.10339121       2.15820868      -0.00036221       0.00401711      -0.00517318      -3.54825139
Al       1.93454389       4.71646495       6.09668242       0.00280694       0.00768977      -0.00659049      -4.19089985
Ni      -0.10064087       3.80084849       6.86870858      -0.00842283      -0.00098285       0.00716333      -5.80014217
Al       0.84987918       5.07412738       8.97217276       0.00374699      -0.00615790       0.00292322      -3.95611298
Al       0.49658983       3.13171309      10.88421867      -0.00628729      -0.00397512       0.00043300      -3.60779035
Al       1.91689588       5.45401089      12.30881004       0.00694822       0.00330728       0.00204596      -3.91205353
Al       0.22095910       3.68275077      13.58980533       0.00212149       0.00640380      -0.00084088      -3.63464653
Al       1.99007922       5.19677455      15.11682729       0.00791202       0.00477378       0.00168730      -3.89258993
Al      -0.22114604       5.92746603       0.06767919      -0.00986578      -0.00279406       0.00117077      -3.64022350
Al       1.97286158       7.55016628       0.69997842      -0.00670430      -0.00615282      -0.00568461      -4.04715037
Al       0.35750090       6.51955670       2.92573754       0.00536656       0.00755873      -0.00107626      -3.52900994
Al       1.33892965       7.67263007       5.30412933      -0.00503287      -0.01028298       0.00154664      -3.81159675
Al      -0.40381577       6.36465846       6.90438426       0.00697040      -0.00140114      -0.00020006      -3.98534703
Al       2.22083107       7.50936322       8.35194362      -0.00751247       0.00080892       0.00311701      -4.12735760
Ni       0.00015071       7.38980557       9.11060389      -0.00557853       0.00421419      -0.00278580      -5.78067303
Al       1.14297790       7.92471914      11.13800434       0.00565104      -0.00184591       0.00054257      -4.14832813
Al      -0.42690844       6.39458346      13.50220473      -0.00200787       0.00198077      -0.00135480      -3.88998759
Al       1.67016049       7.83472000      13.99838104      -0.00268301       0.00246730       0.00082309      -4.13348353
Al      -0.25710170       8.82544885      -0.63692272      -0.00238970       0.00218526      -0.00190001      -3.92510539
Al       1.01552870      11.03059055       0.70591555      -0.00230244      -0.00026838      -0.00590837      -4.01509655
Al       0.37488799       9.17260881       2.81190495      -0.00094752      -0.00513072      -0.00110401      -3.84425473
Al       1.33227106      10.40941885       5.18369757      -0.00156905      -0.00502247       0.00002098      -3.89647686
Al      -0.10294983       9.17477188       7.37946248      -0.00420970       0.00049652       0.00398865      -3.96024555
Al       2.13231786      10.56860890       8.41323175      -0.00163082       0.00318577      -0.00154041      -3.72147226
Al      -0.91352702       9.53785289      10.13590075       0.00042479       0.00010201      -0.00010994      -3.92556119
Al       1.54983379      10.65062971      11.14588720      -0.00117277       0.00378542      -0.00646213      -3.88844955
Al      -0.74241977       9.33235002      12.92379715       0.00589426       0.00193090       0.00699864      -3.67109823
Al       1.05901322      11.15079757      14.06050199       0.00106886       0.00284258       0.00084256      -4.09193641
Al       0.23433430      13.41839954      -0.28391698      -0.00016316      -0.00846719       0.00472898      -3.65635324
Al       0.62034909      14.51159511       2.17354737       0.00213567      -0.00143008      -0.00680056      -3.87605381
Al      -0.33993364      11.85955577       3.14172956      -0.01151592       0.00688403       0.00084379      -4.15235406
Al       1.67904141      13.17614049       4.46791050       0.00730031       0.00342438      -0.00012785      -3.97041869
Al       0.31782769      12.24381694       6.80090473       0.00156319      -0.00263965      -0.00792547      -3.65264440
Al       2.24445410      13.28392353       8.35036560      -0.00492956      -0.00297733      -0.00471213      -3.91310614
Al      -0.04674319      12.11389578       9.42884778      -0.00175399       0.00540121       0.00616860      -3.58421147
Al       1.59329859      13.56129824      11.09463896       0.00063747       0.00587924       0.00086743      -4.06962657
Al      -0.58414010      12.02839983      12.03043822       0.00069471      -0.00113967      -0.00094502      -3.89335400
Al       1.89871301      13.87708114      13.94425103      -0.00083095       0.00178674       0.00352669      -4.04358995
Al       2.25434193       0.45018953       0.01898650       0.00419738       0.00420526      -0.00937432      -3.89603138
Al       4.56269492       0.88477548       1.54201831      -0.00022250       0.00229821      -0.00869666      -4.03874272
Al       3.31017895      -0.03910679       3.69345512      -0.00292202      -0.00966165      -0.00148395      -4.08563924
Al       5.06286765       1.65402189       5.36747642      -0.00339654      -0.00371481      -0.00517255      -4.09042245
Al       3.40004813       0.36066534       7.39523741      -0.00040606       0.00445703      -0.00717974      -3.99250048
Al       4.43242831       1.82445626       9.33909791       0.00370432      -0.00139765       0.00138518      -4.00923759
Ni       3.62697967      -0.55340993       9.73471262      -0.00026441      -0.00530681       0.00676458      -6.14571095
Al       4.86486598       1.73954207      12.18174642      -0.00014763       0.00234986       0.00404322      -3.98249257
Ni       3.25680354       0.64846725      13.87327743       0.00737107      -0.00193149       0.00023745      -6.03324139
Al       5.28022604       1.46292613      14.96867287      -0.00103823       0.00494382      -0.00557019      -4.24233341
Al       3.64441178       3.19592756       0.17039576       0.00343925       0.00332795       0.00483966      -3.98375738
Al       5.46028577       4.66435813       1.57058855       0.00322314       0.00834309      -0.00111884      -4.03495818
Al       3.77417097       3.55632260       3.53192004      -0.00265978       0.00574829       0.00393886      -3.56006324
Al       4.70193777       4.68525971       5.81790689      -0.00452778      -0.00002170      -0.00444740      -4.04583383
Ni       3.81779177       2.73701851       7.10051488       0.00157481      -0.00016011       0.00749120      -5.94382685
Al       3.66011491       4.89319282       8.32765207      -0.00233201      -0.00557061      -0.00860238      -4.06316507
Al       3.17762478       3.60420472      10.86196431      -0.00266786       0.00877667      -0.00170320      -3.59561217
Al       5.85024752       4.17680281      11.94200294       0.00504715      -0.00727071      -0.00288355      -3.87333208
Al       2.90588032       3.06980908      13.68349173      -0.00371642      -0.00310388       0.00260048      -3.87168401
Al       6.09181305       4.08633716      15.05151248      -0.00167411      -0.00179955      -0.00365219      -4.08106673
Ni       3.92219959       5.91897606       0.09428691      -0.00179151      -0.00065562      -0.00314927      -6.09485233
Al       4.49686040       7.39326037       1.96804797       0.00125884       0.00002323      -0.00219944      -3.79471719
Al       3.17216213       6.19603615       3.98855411      -0.00254510       0.00081114       0.01404586      -3.85147834
Al       5.39856864       7.56481773       5.23820859      -0.00939426      -0.00077954       0.00261116      -3.91331500
Ni       3.39902603       6.67223390       6.41932871      -0.00406199      -0.00314211      -0.00282948      -6.05922890
Al       5.09324958       7.33803118       8.14682076       0.00327560       0.00072903      -0.00382856      -3.94116646
Al       4.26054574       6.10726543      10.69227606      -0.00198036       0.00385243      -0.00164497      -3.81614983
Al       5.49809753       8.23515541      12.64457326       0.00897139       0.00300939      -0.00585176      -4.07987374
Al       4.28078308       5.93426310      13.82386266      -0.00133990       0.00152913       0.01069655      -4.07714510
Al       4.20696309       8.33373309      15.38511737      -0.00096028      -0.00227877      -0.00241076      -4.25021619
Ni       2.14681059       9.50437400      -0.74101481      -0.00351860      -0.00295573       0.00088607      -5.98897237
Al       3.53367298      10.09689885       1.24561848       0.00411201      -0.00210947      -0.00552372      -3.96162653
Al       3.34872991       9.16839714       3.72049945      -0.00322329      -0.00153643       0.00237118      -3.79737985
Al       5.77855677      10.24316844       4.99831832      -0.00186755      -0.00937703      -0.00099604      -3.86654931
Al       3.43844178       9.11721406       6.45639333       0.00041918      -0.00741684       0.00366979      -3.90730172
Al       4.93510014      10.54277540       8.20038365      -0.00647217      -0.00286958       0.00011927      -3.81703305
Al       3.79385255       8.92688702      10.24906656       0.00119671       0.00266133      -0.00345007      -3.85420287
Al       3.35611320       9.76704377      13.19433999      -0.00124307      -0.00372946      -0.00626969      -4.25447756
Ni       3.25365783       7.55843323      12.20426530       0.00325679      -0.00243016      -0.00289544      -5.80198729
Al       3.51718523      11.66104717      15.11625494       0.00361856      -0.00016803       0.00573874      -4.05987823
Al       2.78917214      13.06279034       1.41787588      -0.00596239       0.00213134       0.00171681      -3.84766060
Al       5.50227830      13.63550167       1.86490704       0.00531832      -0.01082045      -0.00311793      -3.87305570
Ni       1.98391887      11.11566761       2.93625465       0.01162207      -0.00007380       0.01015841      -6.00908411
Al       4.15865185      11.94318726       3.56152580      -0.00222331      -0.00306596       0.00053581      -3.83386409
Al       3.51515152      11.89369993       6.32954434       0.00819415      -0.00189473      -0.00054152      -3.84244180
Al       5.15556407      13.42844455       8.41993948      -0.00538738       0.00384004       0.00922772      -4.06710482
Al       3.85760969      12.05320297      10.36670982       0.00078647       0.00046721      -0.00821805      -4.00936323
Al       4.10194693      14.28598512      12.31331465      -0.00466198      -0.00312924       0.00690030      -4.15563297
Ni       2.81242754      12.09682322      12.61017977      -0.00550408       0.00320259       0.00221134      -6.03192532
Al       4.27005407      14.24622814      15.60189674      -0.00250255      -0.00464654       0.00434223      -3.79889452
Al       7.10221718      -0.82157213      -0.66115916      -0.00305891       0.00115504      -0.00687078      -3.81621540
Al       7.42421591       0.58738640       1.72080654       0.00181554      -0.00286135       0.00073759      -4.36901581
Ni       5.76377563       0.01008632       3.63048692       0.00642297       0.00110484      -0.00058535      -5.99594390
Al       7.88653449       0.41450039       4.85765711      -0.00256670      -0.00555262       0.00071400      -4.21809930
Al       5.00341642      -1.10674359       5.66077436      -0.00779304       0.00488563       0.00549771      -3.94211197
Al       8.36405455       1.93204588       7.28661990       0.00432074       0.00028577       0.00348105      -3.88488686
Al       6.13015789      -0.16971488      10.32227422       0.00145678      -0.00010450      -0.00218588      -3.77177310
Al       8.80774066       1.70471451      12.07084873      -0.00191185       0.00694323       0.00402471      -4.03150594
Al       6.74314507       0.05197269      13.04889594      -0.00042351       0.00634292      -0.00023619      -3.80616105
Al       8.05315880       1.96569439      15.52400621      -0.00267924      -0.00006981       0.00044328      -4.33865023
Ni       6.05002482       2.53231329       0.69630378       0.00769135      -0.00958154      -0.00160328      -6.01507795
Al       8.24128476       3.51844622       1.41939717       0.00137730       0.00160846       0.00380190      -4.18545741
Al       6.37960523       2.49834510       3.20588591       0.01018374      -0.00390646       0.00363189      -4.13131869
Al       7.98853716       3.54355177       5.16238927       0.00692594       0.00523169      -0.00789188      -3.99652696
Al       6.12486079       3.23813314       7.56216919      -0.00174952      -0.00570612      -0.00430656      -3.83910310
Al       8.90690225       4.44755670       8.01286498      -0.00403038       0.00018208      -0.00391373      -4.09111726
Al       7.30681473       2.46063437       9.87176004       0.00308498      -0.00212485      -0.00020818      -3.64417517
Al       8.46506700       4.98138272      11.23100244      -0.00581485       0.00080475       0.00527591      -4.04528570
Ni       6.92392004       2.47985167      13.36539213      -0.00416079      -0.00000121      -0.00697170      -5.82372636
Al       9.05295071       3.81990013      13.74068919       0.00264066      -0.00255376       0.00091515      -4.16893840
Al       6.25110263       6.58618012      -0.15910642       0.01071389      -0.00077039      -0.00627516      -4.10877955
Al       8.27887663       6.10662403       2.15731346      -0.00054520       0.00604561       0.00792323      -3.95583516
Al       6.37819923       5.43079798       3.91486898       0.00196966      -0.00397260       0.00991090      -3.57599223
Al       8.45070465       7.15334800       4.72746853       0.00457992      -0.00230285       0.00499831      -3.82133985
Al       7.07899156       5.87474875       6.70860359      -0.00664362      -0.00430059      -0.00172625      -3.66347122
Al       8.38500604       6.95487788       9.04974015      -0.00176939       0.00351174       0.00203295      -3.84583366
Al       6.37770705       5.15468440       9.42427184      -0.00030457       0.00272908       0.00012545      -3.68730128
Al       7.91135172       7.66686633      11.63910191       0.00603262       0.00036672       0.00985205      -3.92087024
Al       7.02335954       5.99313746      13.50140408       0.00405404       0.00429363      -0.00711723      -3.86509222
Al       7.63170152       8.57710243      14.54879319      -0.00311513      -0.00044525      -0.00358649      -4.38823456
Al       6.26866811       9.40605340       0.43191579      -0.00243162       0.00026791      -0.00009280      -3.97301656
Al       9.10317206      10.13386550       0.94234656      -0.00304185       0.00051224       0.00409412      -4.12300169
Al       6.86267327       8.43036106       2.87574078      -0.00543819      -0.00596298      -0.00617997      -3.78706396
Al       8.34636830      11.22683191       5.73254477      -0.00166672      -0.00121698      -0.00401952      -3.86069351
Al       7.32154228       8.67630425       7.01225458      -0.00257693      -0.00651549      -0.00395156      -3.63420796
Al       7.48101578      11.25285232       8.30640838       0.00321963      -0.00602934       0.00299594      -3.77043211
Al       6.59997254       9.09890569       9.80705373      -0.00127116       0.00042328      -0.00203576      -3.62356687
Al       7.45558668      10.22173703      12.40692922       0.00035793      -0.00898183       0.00583442      -4.15574414
Ni       5.70008858      10.08185961      14.33635203       0.00149864       0.00036916      -0.00331762      -6.00292766
Al       7.35032082      12.78038239      13.71987341       0.00534071       0.00627443       0.00180066      -3.81055927
Al       6.02610496      11.94696654      -0.30227114       0.00330902       0.00403027       0.00527954      -3.82276046
Al       8.59005491      12.81850955       0.81984415       0.00043404      -0.00184883       0.00083046      -4.02653432
Al       6.75745953      11.21463874       2.38419318      -0.00076853      -0.00532075       0.00579356      -3.65338480
Al       6.83886790      13.13597499       4.27697519       0.00920115      -0.01407026      -0.00265703      -3.93793637
Ni       6.06368872      12.15789830       6.51332632       0.00677794      -0.00273353      -0.00138087      -6.06171238
Al       7.70051778      13.75846136       7.13837644       0.00194931      -0.00041461      -0.00712445      -4.17258781
Al       6.83760578      12.35098393      10.72387534      -0.00136057       0.00154684      -0.00288035      -3.79280174
Al       8.66106026      14.37568497      11.65557742      -0.00090149       0.00325072       0.00233369      -4.04979956
Al       5.13557356      11.77314847      12.76400562       0.00104588       0.00219944      -0.00405172      -3.96739358
Al       9.74309620      13.83152361      14.56709888       0.00201091      -0.00587834      -0.00570998      -4.16846925
Ni       9.27632260      -0.18501619       0.23756451      -0.00266729       0.00249882       0.00512174      -5.99071401
Al      10.40977734       1.80988732       1.41208930       0.00597048      -0.00423239      -0.00135952      -4.21121204
Al       9.75131390      -0.47317488       2.70300916       0.00717008       0.00210081      -0.00226599      -3.94426483
Al      10.76001456       1.12555621       4.83942455      -0.00094949       0.00701229      -0.00083141      -4.29507071
Ni       9.54049578      -0.00370451       6.75739149       0.00563715       0.00178969      -0.00290710      -5.76802075
Al      11.17227285       1.54116230       7.77414361      -0.00387573       0.00285575      -0.00129287      -4.27290332
Al       8.83188082       0.07816741       9.10748480       0.00404763      -0.00373480       0.00427002      -3.84256804
Al      11.29444017       0.35052342      10.40835906       0.00095285      -0.00601458      -0.00185750      -4.20557237
Ni      10.61456661       0.15703253      12.71139149      -0.00635438       0.00113372       0.00251150      -5.73656714
Al      10.67116582       1.21306304      14.91438589       0.00241458       0.00878957       0.00177200      -4.20357925
Ni      10.02954842       3.44582592      -0.32379962       0.00276303      -0.00185218       0.00507551      -6.00669372
Al      10.90285373       5.08680875       1.30700428       0.00109301      -0.00511871      -0.01070913      -4.25333661
Ni       8.89804805       1.94209307       3.30221218       0.00071550      -0.00038490       0.00864947      -5.96978933
Al      10.40105710       3.76251392       3.74542382       0.00289968      -0.00396974      -0.00177589      -4.24742854
Ni      10.26725673       3.25596125       6.23399679       0.00199109       0.00156984       0.00835808      -6.03810561
Al      11.61356128       4.30638229       7.94278742      -0.00546613      -0.00209143      -0.00432308      -4.08457071
Al      10.13895484       3.03640348      10.09980468       0.00083327       0.00130829       0.00313485      -3.91381574
Al      11.16717496       4.95829092      12.19096604       0.00221960      -0.00196439      -0.01548389      -4.04901314
Al      11.55418745       2.32785505      12.38857741      -0.00366836       0.00695831      -0.00279743      -3.83263361
Al      11.37449178       5.43449980      14.84660986       0.00181355       0.00154597       0.00738215      -4.19316554
Al       8.66829127       5.57401680      -0.57251891      -0.00198200       0.00609642       0.00506887      -4.20271587
Al      10.46241784       7.86198664       1.70924327       0.00711559      -0.00592211      -0.00291324      -4.17261374
Ni      10.37540515       6.16838354       3.44629665       0.00108933       0.00523051      -0.00141525      -5.79889548
Al      11.63074378       8.02404440       4.32225146      -0.00131916       0.00462902       0.00652566      -3.89352423
Al      10.42478868       5.62962919       5.78349426       0.00429081      -0.00360581      -0.00380617      -4.08861852
Al      11.10768539       7.15635145       8.20882848      -0.00530419       0.00354010       0.00049904      -3.97418314
Ni      10.31384002       5.48371859       9.75644457       0.00420654       0.00489515      -0.00338414      -6.04095614
Al      10.58763337       7.53536453      11.18182046       0.00823104       0.00156990      -0.00119868      -4.20879716
Ni       9.42984556       6.24194624      13.30307922      -0.00861662      -0.00810009      -0.00402134      -6.15328813
Al      10.14415907       7.87957351      15.17572143       0.00810414      -0.00422023       0.01259682      -4.36793566
Ni       8.18870288       7.90992904       0.55303059      -0.00137404      -0.00581310      -0.00649479      -5.99411070
Al      11.74430591      11.63855485       2.11455136       0.00369164       0.00052375      -0.00644881      -4.29769319
Al       9.26053475       9.55676777       3.70613652      -0.00821749       0.00097122       0.00277494      -3.59284449
Al      11.46692579      10.93662286       4.72508109      -0.00095809      -0.00359160      -0.00036220      -3.94760317
Al       9.98736335       8.90758832       6.33562128       0.00241663      -0.00611781      -0.00941449      -3.66566408
Al      10.75260739      11.34271316       7.31401638       0.00179376       0.00215333      -0.00178634      -3.66731107
Al       9.45631708       9.47706232       8.93466004       0.00010229      -0.00003849      -0.00077916      -3.61524487
Al      10.39136983      10.36816789      11.36187343      -0.00418037      -0.00134406       0.00285184      -4.11665243
Ni       9.50730617       8.81383114      13.00426944      -0.01014882       0.01092640      -0.00827230      -5.86209959
Al       9.50210410      10.92878277      14.22037115      -0.00043184      -0.00202198       0.00106314      -4.27408797
Ni      10.55973809      11.71828508      -0.10651762       0.00597391       0.00306572       0.00122485      -5.82831603
Al      11.38232530      13.96922604       0.55370711      -0.00473863       0.00105792      -0.00204045      -4.20060527
Al       9.22754781      12.15981616       3.33783331      -0.00221405       0.00231129       0.00125554      -3.60219610
Al      12.18513725      14.20516484       3.74794122       0.00321782       0.00334717      -0.00247328      -4.04740709
Al      10.13907999      13.46522647       5.49791681      -0.00100958       0.00158513      -0.00573015      -3.92687076
Al      11.24551377      14.11400839       8.04995326       0.00016080      -0.00405008       0.00065934      -4.04822302
Al       9.41492365      12.47655689       9.67031605      -0.00295790       0.00300531      -0.00479421      -3.86210442
Al      11.21913796      13.16709245      12.06218291      -0.00935237       0.00481033       0.00025000      -4.28717619
Ni       8.94375654      12.10043583      12.06947619       0.00317083       0.00046220      -0.00458191      -5.91835523
Al      12.01670680      11.83536415      14.24795934       0.00296754      -0.00210086      -0.00015286      -4.18934929
Al      13.01347327       0.65141419       1.57638267       0.00085508       0.00489489       0.00350952      -3.68958414
Al      15.36097666       1.35269837       2.75040275       0.00493281      -0.00182085       0.00292996      -3.97921741
Ni      13.33975858       1.11970513       4.15892197       0.00318743      -0.00432476      -0.00412706      -5.95440769
Al      15.44895672       1.83660904       5.38371968      -0.00381456      -0.00436262      -0.00497845      -4.11108458
Al      13.29247804       0.28078456       6.38109788       0.00236776      -0.00390191      -0.00754176      -4.11069012
Al      15.16545774       1.67899686       8.07405127       0.00700076       0.00373342       0.00494139      -4.08941782
Ni      13.21968165       0.33756125       8.84005465      -0.00755851      -0.00158848       0.01216438      -6.00836539
Al      14.84679453       1.01234171      10.74279289      -0.00450796       0.00229498       0.00204448      -3.70588338
Al      12.96085256       0.03059464      12.88317242      -0.00246266       0.00110886       0.00188763      -3.99155396
Al      14.30139965       1.80041197      14.41460125      -0.00110831       0.00142839       0.00072074      -3.60680485
Al      12.44201666       2.86951639      -0.08947196      -0.00163686       0.00261453      -0.00108277      -3.81088221
Al      13.54955896       5.20271272       0.91226385       0.00289039       0.00007154       0.00152119      -3.79089057
Al      13.07844717       3.09157075       2.65961416       0.00233641       0.00321870       0.00507523      -3.90850997
Al      15.11835272       4.64632389       4.81348341       0.00553621      -0.00002170       0.00122753      -3.84435856
Al      12.62798461       3.14961497       5.43045116       0.00610311      -0.00466847       0.00053995      -4.05257869
Al      14.25681268       4.39898153       8.24337653      -0.00037628      -0.00631392       0.00765349      -3.82592297
Al      12.86314703       2.56455973       9.72591152      -0.00057634      -0.00460616      -0.00084496      -3.87449390
Al      15.33139641       5.74912713      10.86711916      -0.00947860       0.00250867       0.00868692      -4.13437152
Al      14.06136246       3.40393839      12.01501666      -0.00825740       0.00109938       0.00542087      -3.85569870
Al      14.05520850       4.47641258      14.64620835       0.00097090      -0.00009324       0.00576970      -3.73701894
Ni      12.14475345       7.13034842       0.14401769      -0.01237927       0.00531141      -0.00071897      -5.77312064
Al      14.17978413       7.80394527       1.40067237       0.00106984      -0.00057042       0.00214124      -3.76774371
Al      12.75428229       5.60045353       3.62464161       0.00016290      -0.00737266       0.00751427      -3.84069598
Al      14.67725286       7.67667030       4.67705533       0.00350695      -0.00164602       0.00241631      -3.69499552
Al      13.08098396       6.16773781       6.33399781       0.00016418       0.00234112      -0.00391282      -3.70459056
Al      13.87264196       7.39177614       8.64977550       0.00985137       0.00423584       0.00016093      -3.93121862
Al      12.69726613       5.51679239      10.19782118      -0.00862785      -0.00034964       0.01585428      -4.08831626
Al      13.40617121       7.94079916      11.65479560      -0.00490759      -0.00116983       0.00095456      -3.83745992
Ni      13.54238180       5.70243051      12.56718990      -0.00442605       0.00645395      -0.00281893      -5.92692149
Al      13.54288305       7.42312110      14.53433776      -0.00123112       0.00218636      -0.00217307      -4.01976413
Al      12.08071043       9.64088045       0.00847187       0.00029267       0.00268152       0.00012952      -4.30614847
Al      14.57958522      10.49762459       0.97131670       0.01040046       0.00194199      -0.00031932      -3.77915204
Al      13.51576492       9.67874783       3.27324351       0.00742153       0.00452167       0.00161929      -3.73139942
Al      14.68378734      10.57542381       5.47377963      -0.00208604      -0.00042424      -0.00418998      -3.81550252
Al      12.76449257       8.96733300       6.67284490      -0.00472703      -0.00219155      -0.00230920      -3.75152552
Al      14.03734955      11.00813505       8.07062267       0.00093547       0.00124040      -0.00311551      -3.64223742
Al      12.25778929       9.35371679       9.50317179      -0.00235153      -0.00254188      -0.00095336      -3.73061001
Al      13.16415837      10.83939434      11.79297754      -0.00080276       0.00084680      -0.00119321      -3.98169762
Al      11.84271762       9.21703986      13.43845540      -0.00189736       0.00615806       0.00706784      -3.75563943
Al      14.66124454      11.45706247      14.62853165       0.00077787       0.00673628       0.01033951      -3.99777788
Ni      12.99856101      12.01934788       0.08484101      -0.00362749       0.00547632       0.00373742      -5.87167066
Al      14.10783813      13.36026593       1.73827791      -0.00250125      -0.00605270       0.00051228      -4.09993613
Ni      13.54138168      12.14266681       3.89185696       0.00299560      -0.00401091      -0.00261265      -6.03854895
Al      14.86263920      14.27209507       4.49696917       0.00714163       0.00273171       0.00210549      -4.23359072
Al      12.99413101      12.74678630       6.18634550       0.00077869      -0.00141481      -0.00123048      -3.88966697
Al      14.74399704      13.96256998       8.06982358      -0.00367135      -0.00205874      -0.00092161      -3.87965024
Al      12.01767485      11.97676474       9.56319372      -0.01016990       0.00255948      -0.00502807      -3.55309165
Al      13.69546029      13.77641104      10.57278113      -0.00782482      -0.00182550      -0.00284748      -4.07185555
Ni      13.62941832      13.01541759      12.88683969      -0.00026080       0.00446515       0.00539172      -6.01513028
Al      13.84241606      14.07792838      15.18287440      -0.00432266      -0.00643504      -0.00372864      -4.00675023
