91
Lattice="11.161272875129056 0.1276797954685637 0.19150825432445187 0.12968814492683212 11.11901379257371 0.19176852624593463 0.19462092135670062 0.1925809430264026 11.13287492913429" Properties=species:S:1:pos:R:3:forces:R:3:energies:R:1 energy=-432.1888089766603 stress="-0.000250277302051684 0.0003828585909344877 -7.25937408155869e-08 0.0003828585909344877 -2.126248775379015e-05 4.3985562244147676e-05 -7.25937408155869e-08 4.3985562244147676e-05 0.0006530781487150705" free_energy=-432.1888089766603 pbc="T T T"
Al       1.70418666       1.59285534       1.30274515       0.00210814      -0.00331776       0.00386852      -3.90377291
Al       1.64867284       1.51684099       4.25675664      -0.00493092       0.00598127       0.00263838      -4.05253381
Al       1.51639278       1.45977493       6.99850030       0.00000115       0.00182569       0.00092206      -4.27404223
Al       1.24977105       1.41397713       9.86568876      -0.00207649      -0.00176936       0.00090427      -4.09852874
Al       1.66538212       4.38937109       1.36555725      -0.00079277      -0.00334782       0.00266717      -4.23836563
Ni       0.23559052       2.86292732       2.79416147       0.00606566      -0.00309166      -0.00046814      -6.17134119
Al       1.55067880       4.33262851       4.32368648      -0.00581052      -0.00361590       0.00468963      -4.42129689
Ni       0.09034462       2.87755719       5.67596875       0.00250548       0.00396245       0.00035768      -6.14146011
Al       1.46262210       4.41943496       7.02522753      -0.00422610      -0.00069763       0.00149417      -4.28605568
Ni       0.06740127       2.95838776       8.33932065       0.00616736       0.00117463       0.00427281      -5.98493017
Al       1.36316095       4.25569748       9.95752531      -0.00310391      -0.00902358      -0.00653070      -4.11198523
Al       1.54927641       7.40386899       1.53240458       0.00698612      -0.00862748      -0.00471693      -4.15880811
Ni       0.19455682       5.70428246       2.66988595      -0.00255100      -0.00094571      -0.00336295      -5.98381011
Al       1.20942257       7.14774415       4.44056457       0.00179799       0.00179175      -0.00034631      -4.37372686
Al       1.36809048       7.12088160       7.24296570      -0.00120327      -0.00086472      -0.00380999      -4.12571370
Al       1.35208499       7.04882378      10.05456227      -0.00194985      -0.00480612      -0.00214675      -4.00508977
Al       1.44604712      10.10363316       2.01496454      -0.01209211       0.00511421      -0.00496714      -3.70715296
Al       1.45445115      10.01802866       4.74117922       0.00278126      -0.00110443      -0.00381746      -3.86511832
Al       1.43894709       9.90624234       7.52183519      -0.00117257      -0.00045557      -0.00878175      -4.09754750
Al       1.77788473       9.77949786      10.46330505      -0.00198609      -0.00775514       0.00205357      -3.96778527
Al       4.36938584       1.36464060       1.53934731       0.00219591       0.00031831      -0.00329808      -4.03254331
Al       4.38904829       1.58939875       4.33275033      -0.00712321       0.00663245      -0.00618719      -4.17906502
Al       4.23683228       1.56927202       7.04934570       0.00036173      -0.00193598       0.00017109      -4.40974851
Ni       2.85853597       0.13830270       8.63021025      -0.00219030      -0.00376968      -0.00252285      -6.11428622
Al       4.20741888       1.55457730      10.04261503      -0.00469842       0.00181993      -0.00320679      -4.45102134
Al       4.38442211       4.52002831       1.46095489      -0.00153106       0.00487273      -0.00486991      -4.27532903
Ni       3.02875645       2.98444212       2.86963799      -0.00197253      -0.00153845       0.00859976      -6.15717787
Al       4.40935599       4.40220706       4.31310414       0.00358331       0.00060848       0.00236694      -4.04938699
Al       4.21527463       4.35606158       7.08474166       0.00781487      -0.00986280       0.00131852      -4.02013456
Ni       2.78411309       2.92057326       8.53001042       0.00013659      -0.00009593       0.00092535      -6.26389184
Al       4.24015308       4.35186195       9.95990034       0.00107640       0.00009472      -0.00274177      -4.29636511
Al       4.54588612       7.16498850       1.91186572       0.00489818       0.00489564      -0.00191281      -4.21460902
Ni       2.82956583       5.85355019       2.94248905      -0.00435481      -0.00041543      -0.00841845      -6.13852318
Al       4.15915070       7.00497247       4.64409231      -0.00217832       0.01269835       0.01309693      -4.27734926
Al       4.37290400       7.03777940       7.34643991      -0.00235960      -0.00450392      -0.00428668      -4.39949902
Ni       2.81832948       5.74188402       8.64316993       0.00483251      -0.00864616       0.00226072      -6.06228123
Al       4.38721126       7.04643407      10.19475092      -0.00029349       0.00052536       0.00555001      -4.28367909
Al       4.29272640       9.80774761       1.67129722       0.00332531       0.00591568       0.00483737      -3.85059628
Ni       2.85658519       8.50804470       3.24430661       0.00398393       0.00433459      -0.00200275      -6.00064215
Al       4.31302917       9.94055239       4.46462662       0.00155910      -0.00821484      -0.00199319      -4.36189264
Ni       2.84166963       8.50567756       5.92403701       0.00566881      -0.00473234      -0.00558761      -6.11732165
Al       4.29615599       9.88959640       7.30606560      -0.00438372       0.00213850       0.00588070      -4.68994675
Ni       2.90284857       8.40514827       8.72589987       0.00588185      -0.00100366       0.00455199      -6.15311627
Al       4.49316300       9.85435631      10.13236305       0.00459688      -0.00462966       0.00207225      -4.40735937
Al       7.20447734       1.49909737       1.44726697       0.00120281       0.00332764       0.00346336      -4.48637087
Al       7.08059266       1.53124379       4.23075529       0.00098053       0.00811141       0.00690478      -4.53624113
Ni       5.69155441       0.07700227       5.68867689       0.00892419       0.00223068       0.00468906      -6.07338479
Al       7.08274970       1.59609778       7.06467497       0.00630532      -0.00549465      -0.00184196      -4.49907956
Ni       5.64471118       0.19191307       8.45803934       0.00073539      -0.00985495       0.00263756      -6.16988193
Al       7.08506209       1.46754902       9.93880493       0.00488232       0.00474043       0.00470474      -4.27818916
Ni       5.64665223       2.89918772       0.10940856       0.00227946      -0.00176797       0.00474904      -6.08127708
Al       7.29745999       4.30586533       1.29586018      -0.00362742      -0.00270507       0.00020003      -4.07834661
Ni       5.71391316       2.96624645       2.73094016       0.00339987       0.01003235      -0.00055411      -6.13922256
Al       7.16123733       4.33468404       4.09447780      -0.00744197      -0.00153925      -0.01057001      -4.37412577
Al       6.90093422       4.29201631       6.95502119      -0.01028967       0.00548490      -0.00309639      -4.17838885
Ni       5.64182527       2.91187015       8.58093627       0.00115781       0.00842496       0.00149982      -6.07848375
Al       7.26334628       4.32924900       9.69700647      -0.00294727      -0.00321360      -0.00481420      -3.88256043
Al       7.39173797       6.97947451       1.72780742       0.00645429       0.00343498       0.00407272      -3.94647748
Al       6.85618646       7.03987294       4.39264895      -0.00384273       0.00294147       0.00876842      -3.94313318
Al       7.27622163       7.05182100       7.25532722       0.00452066      -0.00187651      -0.00317089      -4.24763125
Al       7.41131689       6.99171550      10.03206899       0.00292239      -0.00064548      -0.00048053      -4.11303347
Ni       5.85341352       8.26743635       0.26366133      -0.00587322       0.00039348      -0.00544777      -6.00388616
Al       7.09883908       9.79695131       1.70508441       0.00292854       0.00532148       0.00705736      -4.32519179
Al       7.17648060       9.77913787       4.42279554      -0.00049376       0.00338852      -0.00835440      -4.32909346
Ni       5.69184622       8.50128210       5.93053446      -0.00063548      -0.00424347      -0.00791156      -6.05784830
Al       7.24728533       9.84881695       7.27315016       0.00171522      -0.00227842       0.00850043      -4.41808463
Ni       5.87212062       8.42453695       8.71579143       0.00259450       0.00268651       0.00155041      -6.13510524
Al       7.36941966       9.97231113       9.96619087      -0.00445387       0.00380185      -0.00631897      -4.48786401
Ni       8.54177064      -0.03985862       0.19300569      -0.00219811       0.00854495       0.00322364      -6.00876225
Al      10.19267446       1.27511100       1.54731491       0.00202552      -0.00006419       0.00320839      -4.39094238
Ni       8.57415238       0.03225573       2.89340871      -0.00025168      -0.00080132      -0.00232299      -6.13174910
Al      10.05277290       1.44476212       4.35596835      -0.00465725      -0.00646819      -0.00140161      -4.61088446
Ni       8.49143505       0.13572461       5.63000275      -0.00087988       0.00505265      -0.00198196      -6.06802700
Al       9.85767898       1.50061250       7.23053190      -0.00361890      -0.00618613       0.00350392      -4.31489052
Al       9.70963015       2.02476079      10.04382534      -0.00300449      -0.00358239       0.00901150      -4.05979258
Al      10.05301374       4.18147660       1.37866801      -0.00318806      -0.00129376       0.00169995      -4.13514310
Ni       8.67791979       2.82740090       2.85304249      -0.00482424      -0.00330823      -0.00447669      -6.14736945
Al       9.96707270       4.43185803       4.29906035       0.01079307      -0.00326750      -0.00304685      -4.56784366
Ni       8.56139652       2.97774360       5.65808219      -0.00640232      -0.00440845       0.00163306      -6.16954930
Al       9.76526181       4.47511104       7.21094546      -0.00278911       0.00493123       0.00215449      -4.37026752
Al       9.88156260       4.88595480       9.88590706      -0.00327979       0.00327473      -0.00151548      -3.72172901
Al      10.17485944       6.80540544       0.90570469       0.00225444      -0.00461628      -0.00692878      -4.15471613
Al       9.52077834       7.07461701       3.79236686       0.00016434       0.00258811       0.00103713      -3.99927796
Ni       8.40702184       5.66579286       5.65457864       0.00297977       0.00789812       0.00487045      -5.88310345
Al      10.03021576       7.24095609       6.49132561       0.00287376       0.00141939      -0.00219582      -3.80479094
Al       9.96208000       7.63540034       9.24503323       0.00187279       0.00151765       0.00078793      -3.83615956
Ni       8.59393707       8.44556181       0.15399869       0.00350293      -0.00835169       0.00622268      -6.00317909
Al      10.02003106       9.51647944       1.76608081      -0.00037876       0.01100827       0.00336510      -4.16205620
Al      10.01862327       9.64485093       4.54478204      -0.00071447      -0.00168460      -0.00253542      -3.94988086
Al       9.96991108       9.82729474       7.31962615      -0.00385386       0.00055487      -0.00443242      -3.73237662
Al      10.34487155      10.22904406       9.98811039      -0.00317113       0.00060844      -0.00564084      -3.92858548
