91
Lattice="11.194010019567507 -0.12563666245061245 0.190553308052412 -0.12588010884349426 11.181063918034436 0.044002355680726545 0.19026357651620773 0.044349009868021615 11.195692583229157" Properties=species:S:1:pos:R:3:forces:R:3:energies:R:1 energy=-432.92222992792443 stress="0.00019218755984213594 0.0003258396768802635 4.6705588179482266e-05 0.0003258396768802635 -0.00013449819466951097 7.341286164088665e-05 4.6705588179482266e-05 7.341286164088665e-05 7.692619455629425e-05" free_energy=-432.92222992792443 pbc="T T T"
Ni      -0.11260123      -0.06826224       0.03492344      -0.00563698      -0.00344260       0.00665863      -5.89491702
Al       1.44572950       1.39236270       1.32515294       0.00439846      -0.00424507       0.01015333      -4.47015174
Ni      -0.02231267      -0.01416764       2.66926825      -0.00798125       0.00378488       0.00545528      -6.21842452
Al       1.40915732       1.40515292       4.18471053      -0.00191791       0.00279599      -0.00541854      -4.46393621
Ni       0.09545043      -0.03793371       5.69610424       0.00197767       0.00195082      -0.00242087      -6.11065220
Al       1.41647929       1.43981759       7.10872836      -0.01047403       0.00259162       0.00210707      -4.20274447
Al       1.50136598       1.29661489       9.83476165       0.00546548       0.01366392      -0.00042123      -4.22639774
Al       1.46864090       4.26788994       1.44937394       0.00971784      -0.00775786      -0.00321401      -4.36926533
Al       1.42109273       4.13943822       4.19816026      -0.00479921       0.00353603       0.00679198      -4.29956958
Ni      -0.04249612       2.77026904       5.69225547       0.01172918      -0.00074819       0.00033648      -6.12435972
Al       1.52419260       4.17422251       7.02736643       0.00299491       0.00026734      -0.00595667      -4.33100882
Al       1.55998823       4.30815829       9.78336084       0.00166572       0.01419615      -0.00817121      -4.36384904
Al       1.44244746       7.00258780       1.32769299      -0.00014937       0.00316378       0.00151234      -4.11718144
Ni       0.02462040       5.65040688       2.86246596      -0.00186826      -0.00256195       0.00135845      -5.89595984
Al       1.39457096       7.10131461       4.18355936      -0.00372058       0.00544394       0.00251971      -4.31382197
Ni       0.05788004       5.65820592       5.67664531      -0.00205131      -0.00130858       0.00232999      -6.26967653
Al       1.53902946       7.11160100       6.95754375      -0.00787882       0.00670448      -0.00359863      -4.11138972
Ni       0.16400667       5.67561346       8.34942323       0.00347896      -0.00053360      -0.00249217      -5.90419166
Al       1.85429907       7.03601296       9.64651830       0.00463760       0.00000269       0.00132286      -4.03637499
Al       1.39146556       9.75652106       1.26787425       0.00267703       0.00624783      -0.00703392      -4.37561145
Al       1.27970852       9.77724530       4.17401427      -0.00202116       0.00667314      -0.00304854      -4.46962102
Ni      -0.04476643       8.52883117       5.74428165       0.00173482      -0.00243627       0.00273220      -6.05846364
Al       1.54189218       9.86608777       7.12674665      -0.00679472       0.00856922      -0.00533338      -3.94483495
Al       0.91121555       9.55770385       9.75880462       0.00154851       0.00993437       0.00532856      -3.81054045
Al       4.30589676       1.35766978       1.30849536      -0.00312819       0.00133443      -0.00264123      -4.39760633
Ni       2.90106428      -0.05436253       2.78911685      -0.00180831      -0.00147394      -0.00463321      -6.23683653
Al       4.21570958       1.34796858       4.36770781      -0.00069759      -0.00223481       0.00128860      -4.20132279
Al       4.17508306       1.16568288       7.06348154      -0.00975758       0.00226737      -0.00739093      -3.93576352
Al       4.36395394       1.37235643       9.83985670      -0.00207163      -0.00317646       0.00165889      -4.22535580
Ni       2.79506445       2.85469310      -0.09058578      -0.00030410       0.00059454       0.01122571      -6.14431484
Al       4.32196464       4.14215740       1.37414183       0.00613792       0.00176527       0.00126990      -4.60765106
Ni       2.90615938       2.70074407       2.77274126      -0.00230506      -0.00068705      -0.00420225      -6.07294395
Al       4.13433787       4.18922758       4.26892311       0.00593722      -0.00522034      -0.00436167      -4.29094214
Al       4.30204682       3.97977164       6.96354385      -0.00136235      -0.00155917       0.00571755      -4.04730805
Ni       2.91693203       2.75049658       8.49367617      -0.00838086      -0.00071503       0.00262511      -5.91281503
Al       4.52188295       4.26585220       9.67460506       0.00572719       0.00020799      -0.00449114      -4.35126358
Ni       2.98559405       5.59929697      -0.07047544      -0.00352234       0.01422648       0.00170887      -5.99219010
Al       4.18645676       6.93232642       1.49408023       0.00745316       0.00574466       0.00330123      -4.50743611
Al       4.05160828       6.95920271       4.33520983       0.01498733      -0.01190374       0.00299761      -4.44776300
Al       4.16506024       6.81963530       7.24638952       0.00245972      -0.00096773       0.00319315      -3.93082186
Al       4.65354447       7.22915331       9.86819229       0.00269260      -0.00006070      -0.00025577      -3.98794799
Al       4.24485755       9.76278589       1.28759521      -0.00297155      -0.00524605       0.00617890      -4.27294820
Ni       2.82172692       8.48770364       2.78896181       0.00451888      -0.00173026      -0.00107906      -6.00917050
Al       4.11403502       9.76334416       4.44563144      -0.00113723      -0.00080602      -0.00590840      -4.44870449
Al       4.21320248       9.58096252       7.17064855      -0.00484339      -0.00213345       0.00342529      -3.95259046
Al       3.71179293       9.80779967       9.84665939       0.01064222       0.00345197      -0.00008724      -3.77101094
Al       7.05356187       1.36146479       1.45816745       0.00444388      -0.00006917      -0.00279708      -4.21250048
Ni       5.66139334      -0.06563463       2.87338830       0.00267502       0.00072994      -0.00200114      -6.24457623
Al       6.97287675       1.30022786       4.47108012      -0.00177559      -0.00521925      -0.00856213      -4.41458117
Al       6.97438994       1.42088078       7.19706657       0.00105547      -0.00593210      -0.00655438      -4.25965181
Ni       5.68054608      -0.09592443       8.51865819       0.00052470      -0.00518117       0.00503500      -5.91721981
Al       7.05567408       1.37749389      10.03767484      -0.00352492      -0.00413739      -0.00566261      -3.90762631
Al       7.09361283       4.18034216       1.55873403      -0.00320046       0.00556655       0.00607837      -4.50919676
Ni       5.62582277       2.75108640       2.89721123       0.01001604      -0.00623118       0.00446249      -6.25263998
Al       6.99406230       4.14030115       4.41915847      -0.01239041       0.00573122       0.00345701      -4.50529189
Al       7.03365280       4.20514619       7.15625232       0.00449444      -0.00552036       0.00906018      -3.88858482
Al       7.26890521       4.09413787       9.84899671       0.00126459      -0.00075700       0.01046350      -3.90918881
Ni       5.74500604       5.59886872       0.01428084       0.00188244      -0.00038142      -0.00158265      -6.12003348
Al       7.05444898       7.04213566       1.50529653      -0.00177662      -0.00448153       0.00312762      -4.35629362
Ni       5.63535328       5.59300408       2.95114189       0.00084833       0.00248902      -0.00144585      -6.23763398
Al       7.11503566       6.96292928       4.30280547       0.00023718      -0.00232742       0.00241802      -4.25047757
Ni       5.58377872       5.61807096       5.70597467       0.00299143      -0.00476749       0.00552378      -6.00908551
Al       7.08641101       6.91544431       7.13988807      -0.00000252      -0.00432783      -0.00138014      -3.90451568
Al       7.44623981       7.06141358       9.78097408       0.00260535       0.00465296       0.00688088      -3.98689996
Al       6.99451916       9.73043046       1.48079335      -0.00763680       0.00229402       0.01104577      -4.08342319
Ni       5.52724430       8.34862635       2.93938753      -0.00315232       0.00419736       0.00203047      -6.18599654
Al       6.93037911       9.73480028       4.41989291      -0.00303123      -0.00449815      -0.01083263      -4.30062224
Ni       5.58996250       8.22058027       5.75697485      -0.00695305      -0.01326752      -0.00804817      -6.01466760
Al       6.98218879       9.65546733       7.14323573      -0.00190428      -0.00275918       0.01026226      -4.24319468
Al       6.55018018       9.57872248      10.08042612      -0.00387498       0.00298528       0.00040695      -4.01873993
Al       9.82352511       1.41451976       1.51040275      -0.00050223      -0.00203716       0.00281005      -4.34326168
Ni       8.44057431      -0.04597841       2.95575552       0.00183054      -0.00134103       0.00258610      -6.14492873
Al       9.85126281       1.28329931       4.38582608       0.00003451      -0.01369182      -0.01444794      -4.60142077
Al       9.71405893       1.19897190       7.23541416      -0.00277797      -0.00423668       0.00300788      -4.32612389
Ni       8.25553253      -0.15040595       8.64698431      -0.00141414      -0.00386681      -0.00374899      -5.91985014
Al       9.85605201       1.25496932       9.95843528      -0.00442450       0.00036306      -0.00005914      -3.91916261
Al       9.81296370       4.12909830       1.60901570       0.00211024      -0.00705504       0.00022647      -4.09237551
Ni       8.35681065       2.68234005       3.01905409       0.00503769      -0.00210905      -0.01197923      -6.08117672
Al       9.80141116       4.14245169       4.38664925       0.01008948       0.01308924       0.00112987      -4.52597450
Ni       8.45738218       2.73690237       5.80339862       0.00169717      -0.00044834       0.00433640      -5.99811404
Al       9.79261953       4.11269948       7.30664874       0.00343176      -0.00272116      -0.00255844      -4.38109171
Al      10.02410316       4.09911150      10.02725055      -0.00799499       0.00239621       0.00755989      -3.94569389
Ni       8.39004628       5.56330726       0.10344973       0.00182498       0.00337066       0.00230141      -5.92017351
Al       9.80551635       6.86283609       1.63464759      -0.00059673       0.00106482      -0.00446105      -3.95431137
Al       9.76981936       6.96058012       4.46079526      -0.00137467      -0.00722430      -0.00177857      -4.10356135
Al       9.75949519       6.92946809       7.32555583      -0.00030688      -0.00745019      -0.00663665      -4.12053870
Al      10.22698128       7.03346998      10.08336208      -0.01123259       0.00161943      -0.00524243      -4.03857854
Al       9.66758069       9.50104504       1.71508831      -0.00393373      -0.00151556       0.00229088      -4.07496049
Al       9.63032778       9.68924041       4.53258983      -0.00049451       0.01043470      -0.01533955      -4.30052485
Al       9.81256689       9.67760466       7.52895090       0.00496087       0.00575131      -0.00253838      -4.25246704
Al       9.33876510       9.65952966      10.27067086       0.00522136      -0.00135054       0.00011827      -4.01764648
