250
Lattice="16.10110084717815 0.08136616130388212 0.13961641994409735 0.08117887609596051 16.165555030009003 -0.22287692875874376 0.13922138383164492 -0.2218439120268421 15.883597391402686" Properties=species:S:1:pos:R:3:forces:R:3:energies:R:1 rep=5 n_sites=250 energy=-970.9984741210938 stress="-0.0003676200285553932 -0.00020279284217394888 -0.0004095053591299802 -0.00020279284217394888 1.978346972464351e-06 0.00012930946832057089 -0.0004095053591299802 0.00012930946832057089 -0.0001488111593062058" free_energy=-970.9984741210938 pbc="T T T"
Ni      -0.49269979      -0.00834515      -0.55048322       0.00327758      -0.00299297      -0.00158322      -6.14342332
Al       1.12395617       1.56536474       1.05500160       0.00621867      -0.00321334       0.00085295      -3.94487023
Al       0.35784600      -0.29506771       3.56550669      -0.00051947      -0.00307555      -0.00214224      -3.64142406
Al       1.72610022       2.45088983       3.67099952       0.00015125       0.00090486      -0.00688902      -4.06462592
Al       0.30818642      -0.08943667       6.53288912       0.00016691      -0.01018050      -0.00196069      -3.69648564
Al       2.44237392       0.92483624       8.34727925       0.00190190      -0.00010114       0.00029560      -3.72808468
Al       0.05518188      -0.10242277       9.49803337      -0.00217165       0.00156401       0.00079395      -3.71259379
Al       1.97782859       0.96136871      11.25532217       0.00242382       0.00379128       0.00273360      -3.74403739
Al      -0.33796033      -0.24240300      12.60416196       0.00102327       0.00353391       0.00199996      -3.76803148
Al       1.51464452       1.04215900      14.18987483      -0.00335406       0.00205943      -0.00056586      -3.87047678
Al      -0.38042677       3.82465758       0.02270167      -0.00050972       0.00547921       0.00004923      -3.84679008
Al       1.67635278       4.64846696       1.94716281       0.00907182      -0.00145358       0.00207326      -4.11009353
Ni      -0.30701300       3.16805147       2.47828891       0.00765781       0.00188448      -0.00142398      -6.00101405
Al       2.19823862       4.71462998       5.24025036       0.00421840       0.00339786       0.00648221      -3.97418642
Al       0.91787744       2.58796547       6.52268143       0.00115423      -0.00222424       0.00228093      -3.66481137
Al       1.54377918       4.79789072       8.14579046       0.00941667       0.00290665      -0.00109629      -3.94361311
Al       0.49582257       2.65686403       9.53102960      -0.00264374       0.00233695       0.00210334      -3.76030278
Al       1.23618745       4.92748818      10.95875068      -0.00309836       0.00347547       0.00051606      -3.75707412
Al       0.09761611       2.73384724      12.36669029      -0.00589628      -0.00756586       0.00040281      -3.75189638
Al       0.97215582       5.03107913      13.71265710       0.00214217       0.00000515       0.00111164      -3.68973196
Al      -0.54782011       6.71840065      -0.32064683       0.00151691       0.00079875      -0.00789598      -3.66661024
Al       1.36381608       7.91096434       1.48239212       0.00397421      -0.00243306      -0.00047851      -3.83743906
Al       0.82171769       7.01443174       3.94614561      -0.00104338       0.00630924       0.00093563      -3.82469201
Al       2.97051437       7.26446185       5.73266317       0.00603738      -0.00185098       0.00497417      -3.85236180
Al       0.01207949       6.54555154       6.49274820      -0.00340903      -0.00073583       0.00017520      -3.66383779
Al       2.05023697       7.69945135       8.16859511       0.00279333       0.00226949       0.00259538      -3.78218830
Al      -0.35528963       6.61381010       9.29321646      -0.00510843       0.00150620       0.00157739      -3.74349988
Al       1.62965101       7.79511538      10.95440221      -0.00248224      -0.00353027      -0.00398496      -3.74337578
Al      -0.73807308       6.70398355      12.04972456       0.00041228      -0.00587679       0.00642583      -3.71682632
Al       1.22427020       7.83526747      13.68484440       0.00345357      -0.00517131       0.00445040      -3.73301828
Al      -0.13635926       9.59956660      -0.28264628      -0.00464937      -0.00298205      -0.00638172      -3.68656766
Al       1.64318439      10.76165130       1.60354896       0.00293600       0.00144652       0.00087605      -3.85687226
Ni       0.45450563       9.45749111       3.49150005       0.00144314      -0.00595512       0.00031888      -6.18261659
Al       1.84011335      11.36720007       4.36467857      -0.00488184       0.00124459       0.00165720      -3.87940890
Al       0.91283363       9.25792724       6.01804308      -0.00379192      -0.00446317      -0.00403085      -3.86733550
Al       2.30854790      10.57015067       8.19390048       0.00334363      -0.00181541       0.00309278      -3.67178762
Al       0.05177123       9.46123295       9.29449353       0.00260483      -0.00115797       0.00107944      -3.69489753
Al       2.04295606      10.64561716      11.03498325      -0.00039837       0.00724497      -0.00104095      -3.74241912
Al      -0.39866598       9.50696817      12.09265266       0.00056791      -0.00015029      -0.00169332      -3.75837111
Al       1.60810801      10.78417473      13.80448597      -0.00019037      -0.00232260      -0.00050139      -3.67927623
Al       0.04699710      12.41079840      -0.07039988       0.00117941      -0.00458765       0.00064559      -3.71671569
Al       1.22351183      14.91263101       0.81436443       0.01595582       0.00760293       0.00189351      -3.76092720
Al       0.26759796      13.18272974       2.69590733      -0.00362775      -0.00047474       0.00616066      -3.71440089
Al       1.94390613      14.16489147       4.92709041      -0.00307656      -0.00013928       0.00097227      -3.73844647
Al       0.72807479      12.30478862       6.65389891       0.00510358       0.00060732      -0.01099401      -3.64634550
Al       1.91819503      14.37228125       8.02116763      -0.00664603      -0.00006843      -0.00196301      -3.72148919
Al       0.47603227      12.33402674       9.42676559       0.00505387       0.00449408      -0.00030954      -3.74200439
Al       1.58200824      14.36571580      10.99305041       0.00293158      -0.00148986       0.00752718      -3.70858288
Al      -0.01756461      12.37435035      12.21252846       0.00438844      -0.00165289       0.01153742      -3.70052409
Al       1.34339349      14.27464228      13.95833937       0.00267641       0.00600614      -0.00013274      -3.88274759
Al       3.30882034      -0.29756761      -0.14650322      -0.00697265      -0.00217955       0.00110842      -3.64749122
Al       3.90636999       2.24074656       1.54189532       0.00235631      -0.00329027       0.00418296      -4.06740302
Al       2.97152134      -0.11545179       2.79123999      -0.00623521      -0.00140192      -0.00207980      -3.70495737
Al       4.46086085       2.32208261       4.41729587      -0.00280887       0.00570679      -0.01119699      -3.92037201
Al       2.85534463       0.53491760       5.61504951      -0.00136203      -0.00436064       0.00191654      -3.70050824
Al       5.23603827       1.31264041       8.66964960       0.00081483      -0.00116794       0.00588344      -3.70736754
Al       3.97708621      -0.79714733      10.08278619      -0.00541297       0.01176727       0.00078421      -3.71646607
Al       4.76510743       1.43793469      11.53823929       0.00081460       0.01213778       0.00378116      -3.74554598
Al       3.55254979      -0.68082763      12.93074213       0.00644006      -0.00257020       0.00196396      -3.74696684
Al       4.33394488       1.65008082      14.35708763      -0.00360703      -0.01135212      -0.00390252      -3.90757334
Al       2.31932840       3.63786070      -0.56350326      -0.00340225       0.00192587      -0.00062921      -3.61234689
Al       4.49010883       4.98513618       1.03998596       0.00433804      -0.00239053       0.00915641      -4.01985359
Ni       3.63385903       4.11930434       3.20775883       0.00279637      -0.00426805      -0.00565168      -5.98365510
Al       4.85780751       5.16885919       5.14894759       0.00195685      -0.00211476       0.00344029      -3.93390173
Al       3.78669741       3.08735031       7.08748410      -0.01097644       0.00440028      -0.00049772      -3.87977248
Al       5.63492472       4.68856465       8.64148501      -0.00735950       0.00166163      -0.00040728      -3.99421608
Al       3.28680757       3.12785794       9.87152869       0.00012392      -0.00238893       0.00231641      -3.70093811
Al       5.20733032       4.31065836      11.55119102       0.00183782      -0.00250391      -0.00339404      -3.70164156
Al       2.85331889       3.25695417      12.63099969       0.00031293       0.00635382       0.00167647      -3.75805056
Al       5.02042874       4.45792266      14.31782899      -0.00028066       0.00225510      -0.00210765      -3.89509463
Al       2.66608709       6.43289429      -0.45846037       0.00611710       0.00063078       0.00420493      -3.70028555
Al       4.51670538       7.98329286       1.16001941       0.00191635      -0.00839687      -0.00144172      -3.65087056
Al       3.49081243       6.49637998       3.14053901       0.00850104       0.00307706      -0.01151930      -3.95077866
Al       5.50515676       7.84430836       4.88471622       0.00287220       0.00185118      -0.00279820      -3.80217993
Ni       3.63656787       5.53764601       7.33512869       0.00100555       0.00446866       0.00061685      -5.98457879
Al       5.27338726       7.35129978       7.67895679      -0.01904054       0.00065896      -0.00153393      -4.24296474
Al       3.50083730       6.02534145       9.78355762       0.00009848       0.00049401       0.00231430      -3.87339646
Al       5.66009716       7.09685759      11.18631318      -0.00442435      -0.00534749      -0.00072353      -3.90029269
Al       3.29135724       6.10367729      12.58800631       0.00190040       0.00584575      -0.00148175      -3.75159049
Al       5.14821727       7.35098603      14.21081023       0.00280140      -0.00034020      -0.00404494      -3.71042776
Al       2.87346997       9.31979767      -0.47956208       0.00060823       0.00072992       0.00142383      -3.65266156
Al       4.40450924      10.98446971       1.29415539      -0.00786529       0.00480664      -0.00052087      -3.67659748
Al       3.06217768       9.10350091       3.50270283      -0.00308943      -0.00079491       0.00172858      -3.84554291
Al       4.65933689      11.38580376       4.17151997       0.00164966       0.00172422       0.00231836      -3.61074507
Al       3.89818621       9.73112403       6.15663889       0.00263519       0.00052651      -0.00289665      -3.66905093
Al       5.12580554      10.97720793       8.26432698       0.00055444      -0.00274418       0.00872133      -3.66739452
Al       3.92506085       8.93880524       9.79232967       0.00217813      -0.00213310      -0.00250387      -3.68017077
Al       5.03637317      11.03723155      11.25989576      -0.00500619      -0.00101882       0.00043551      -3.72422230
Al       3.64755430       8.95892631      12.58832117       0.00110243       0.00377369      -0.00212559      -3.72870839
Al       4.75606806      10.97827636      14.27126986       0.00230809      -0.00009744      -0.00617378      -3.71591687
Al       2.84782025      12.87677582      -0.27793656       0.00019441      -0.00387871       0.00862075      -3.71161449
Al       4.98940509      14.32322362       1.20521069      -0.00962976      -0.00780655       0.00205582      -3.69401968
Al       2.99499868      13.10143120       2.54338735       0.00498935       0.00286222      -0.00376642      -3.67263329
Al       4.68518532      14.42125732       4.36887592      -0.00412741      -0.00476159       0.00117329      -3.72229993
Al       3.52911246      12.49829648       6.52441181      -0.00191571       0.00204191       0.00215887      -3.70643830
Al       4.49373181      14.98785633       7.15260634      -0.00715412       0.00145735       0.00161675      -3.67225683
Al       3.45581357      12.69836916       9.67232241      -0.00012821       0.00021671      -0.00140521      -3.72179341
Al       5.66542864      13.71459139      11.53931289      -0.00201103       0.00280070       0.00294609      -3.71739674
Al       3.21848487      12.70905981      12.59314117       0.00104248      -0.00176599       0.00069324      -3.71148598
Al       5.25290009      13.82326243      14.32544669       0.00283690      -0.00186236      -0.00609034      -3.75122225
Al       5.98184592       0.44971381       0.00630643       0.00209753      -0.00141585      -0.00764738      -3.89229405
Al       7.77539589       1.97599443       1.34269152      -0.00158633       0.00834930       0.00391763      -3.85745847
Al       5.65293612       0.33498774       2.92275746       0.01047792       0.00057042       0.00324337      -3.63518465
Al       7.57891821       1.79206963       4.17090154       0.00303319      -0.00889706      -0.00182534      -3.68008733
Al       5.75038219       0.71073366       5.98680747      -0.00191804      -0.00111765       0.00562035      -3.68689096
Al       7.84511116       1.97665660       7.83819599      -0.00361969       0.00464799       0.00105525      -3.62637258
Al       6.85983529      -0.38890169      10.31509117      -0.00571233       0.00469281       0.00029421      -3.73955262
Al       8.78302939       1.04818992      11.59686571       0.00725594      -0.01084103      -0.00328648      -3.88502043
Al       6.44886783      -0.22883752      13.09849113       0.00490216      -0.00622179       0.00112970      -3.67801118
Al       8.89716781       0.99824321      14.28531250       0.00407295       0.00359215      -0.01151431      -3.78119898
Ni       5.73512293       2.93799925       0.07348601       0.01402630       0.00127542      -0.01064675      -5.87573487
Al       8.51508519       5.10624027       1.84020396       0.00637628       0.00176919      -0.00111114      -3.64794636
Al       6.16359736       3.78758908       2.75775838       0.00484815       0.00534472       0.01603356      -3.93610215
Al       7.65759333       5.49888251       4.77901709      -0.00451904       0.00329542      -0.00014056      -3.81697559
Al       6.51915897       3.37591405       6.11747432       0.00781741      -0.00325695      -0.00239623      -3.53007829
Al       8.18650350       5.18765915       7.69975996      -0.00180490      -0.00204331      -0.00006104      -4.03484231
Al       6.97301031       2.57931448      10.35019453       0.00288311       0.00123214       0.00778095      -3.67264652
Al       7.81193773       5.09991607      10.60112398      -0.00942825       0.00037172       0.00067602      -3.89300257
Al       6.71344507       2.49475971      13.21984702       0.00191888      -0.00208395       0.00227324      -3.78110659
Al       7.91572478       3.80897400      15.22491692      -0.00424144      -0.00037542       0.00150853      -3.80857933
Al       6.88973964       6.58898379      -0.01250279       0.00723625       0.00619370      -0.00522499      -3.66941381
Al       8.72536202       8.24067197       1.21424434      -0.00660366      -0.00227478      -0.00176386      -3.96721721
Al       6.48843909       6.76323004       2.61113704      -0.00359518       0.00424442      -0.00113743      -3.60450423
Al       8.11698192       8.37011827       4.40498097      -0.00218933       0.00590575       0.00090930      -3.86110795
Ni       7.48959932       7.35594616       6.56234682      -0.00222819       0.00367422       0.00146824      -5.97192782
Al       8.92314680       8.32400923       8.33326367      -0.00392467      -0.00400054      -0.00718690      -4.22027844
Ni       7.13390548       6.87392932       9.13722283       0.00976020      -0.00631929       0.00178967      -5.92376071
Al       8.35444491       7.86625282      11.16007911       0.00344876      -0.00178072       0.00159815      -4.01271284
Al       7.26118277       5.62985676      13.18712580      -0.00121220       0.00118474      -0.00534460      -3.72639263
Al       8.44210986       7.92571544      14.08743837      -0.00845331       0.00307492      -0.00263929      -3.68325734
Al       6.39617305       9.51935220      -0.12817474       0.00135979       0.00198368      -0.00039250      -3.71253228
Al       8.46440297      11.08106606       1.82491435      -0.00083970       0.00511031      -0.00647908      -3.84661174
Al       6.27839639       9.59090265       2.75779078       0.00597465      -0.00056167       0.00684915      -3.68029785
Al       8.15326130      11.21378446       4.57256471      -0.00302161      -0.00030565      -0.00489697      -3.69153070
Al       6.75592540       9.71333451       6.47871150      -0.00612853      -0.00474370      -0.00720907      -3.79558587
Al       8.26406083      11.27587432       8.07285676       0.00062437      -0.00192510       0.00852682      -3.80262947
Al       6.71576363       9.32623557       9.64695632      -0.00432700       0.00943044      -0.00157230      -3.94730622
Al       7.66143275      11.80930255      10.66843393       0.00153145      -0.00455002      -0.01320173      -3.84828985
Al       6.49672571       9.31734779      12.80006578       0.00199683      -0.00325222      -0.00091176      -3.65493917
Al       8.92775347      10.46169218      15.09871368      -0.00855273       0.00337587      -0.00717461      -3.97741890
Al       6.64114159      12.37750470       0.18325130      -0.00308177       0.00174306       0.00300363      -3.69678783
Al       7.71184584      15.05269993       1.44905415       0.00225737      -0.00039516       0.00876677      -3.71051240
Al       6.57010234      12.81584848       2.91708112      -0.00668692       0.00155676       0.00123104      -3.68164921
Al       7.41904635      15.09396071       4.36858090       0.00140934       0.00183816       0.00140691      -3.72107041
Al       6.34311532      12.71988668       6.11279408      -0.00701745       0.00603737       0.00213729      -3.68862689
Al       7.34922232      15.33570749       7.35285523      -0.00127511      -0.00040241      -0.00170882      -3.72422791
Al       6.15099142      13.38977441       8.85902282      -0.00422511      -0.00015941       0.00622641      -3.66038787
Al       8.85897535      14.31396245      12.03051274       0.00336611       0.00322360      -0.00198662      -4.01606655
Al       7.13332000      12.03282802      13.29864914      -0.00525051      -0.00682856       0.00427549      -3.88142723
Al       7.97032520      14.38542962      14.62705299      -0.00516579       0.00268622      -0.00674132      -3.78907990
Al       9.93256555       0.05428819       0.48707118      -0.00042079      -0.00174040       0.00423952      -3.64121830
Al      11.80899055       1.45522243       1.92420865      -0.00352968      -0.00263033       0.00032854      -3.70956695
Al       9.59749837       0.17524129       3.20335565       0.00234667       0.00173590       0.00206928      -3.73027992
Al      11.61418463       1.60702814       4.68597495      -0.00371447      -0.00414824       0.00032906      -3.71239531
Al       9.30726643       0.31187349       6.01660005       0.00020703      -0.00123414       0.00049939      -3.73932469
Al      11.19353282       1.67763519       7.44489196      -0.00634422       0.00207570      -0.00482814      -3.67558038
Al       9.45486302       0.29655437       9.04755167      -0.00558285       0.00131680      -0.00867071      -3.61802590
Al      11.56425950       1.57002134      11.21812311      -0.00710281       0.00116216      -0.00294036      -4.06999904
Ni      10.56432132      -0.05736405      12.69404380      -0.01397002      -0.00862778       0.00795886      -5.78433293
Al      11.71833829       1.57214906      14.05279672       0.00529995       0.00871132       0.00484601      -4.02728933
Al      10.15032597       3.03746758       0.20599568       0.00537147      -0.00046208      -0.00050765      -3.69893992
Al      11.33656010       5.06313589       1.77195861       0.00467450      -0.00006825       0.00138988      -3.68042600
Al       9.80178866       3.01987204       3.07360869       0.00215007      -0.00113340      -0.00298062      -3.66634810
Al      11.33921829       4.67134037       4.71317315      -0.00908661       0.00311530       0.00368995      -3.68655694
Al       9.30045741       3.21094882       5.83311988      -0.00037748       0.00358933      -0.00112282      -3.67703176
Al      11.07341188       4.61206383       7.46689637      -0.00155250      -0.00094843      -0.00600280      -3.68305242
Al       9.73924157       3.13873997       9.65163021       0.00064393       0.00038551      -0.00553729      -3.72415411
Al      11.71756385       4.41112138      11.27224688      -0.00466786       0.00262956       0.00074895      -3.85904872
Al       9.14660435       3.63954899      12.62191510      -0.00517626      -0.01008082      -0.00671132      -3.65149271
Al      11.58911866       4.29636026      13.94797528       0.00127056      -0.00336279      -0.00021487      -3.85420805
Al       9.72912634       6.06193140      -0.47556242       0.00665001       0.00241783      -0.00639700      -3.69759357
Al      11.65942091       7.88299751       1.58250029       0.01278311       0.00692591      -0.00917484      -3.85024631
Al      10.01654554       6.72173269       3.41644762      -0.01230726      -0.00603843       0.01184493      -3.64177644
Al      11.83438278       8.12511884       5.03886927      -0.00427751      -0.00694209      -0.00029744      -3.68048155
Al       9.83732334       6.73613781       6.14304894       0.01127869       0.00039952      -0.00833848      -3.87531096
Al      11.66551824       7.90785160       7.85407636      -0.00220588      -0.00315303      -0.00637281      -3.70016718
Al      10.20262821       5.99627277       9.61971632       0.00226042      -0.00637590      -0.00629458      -3.67117798
Al      10.98256869       8.31782755      10.79070219       0.00559150      -0.00963363      -0.00588533      -3.81003726
Al      10.00036612       6.23915491      12.56516558       0.00277280      -0.00475017       0.00061637      -3.69064260
Al      11.18185726       8.36449309      14.63978704      -0.00665382       0.00262088       0.01053810      -3.92745453
Ni      10.51805720       9.89998935       0.79190179       0.00191034      -0.00974611      -0.00505109      -6.03188276
Al      11.25454714      11.88859674       1.92315027       0.00127757       0.00463691       0.00212903      -3.90503383
Al      10.22971644       9.59003000       3.29298723      -0.00187378       0.00032931      -0.00061253      -3.90097690
Al      10.99539653      11.95204588       4.70175122       0.00354978       0.00083042       0.00590459      -3.76358438
Al       9.91347487       9.77391627       6.19421947      -0.00189763      -0.00547393      -0.00529620      -3.71960211
Al      10.76549540      12.13500759       7.44854872       0.00198997       0.00531100       0.00263950      -3.59119630
Ni       9.28395430      10.04103128      10.12529189       0.00242549       0.00425901       0.00395767      -5.97852528
Al      10.46692549      12.16961563      11.12085821       0.00513542       0.00402455      -0.01050521      -3.85549372
Al       9.43116379      10.12964560      12.52351908      -0.00139178      -0.00370777       0.00394624      -4.06828487
Al      11.49453906      11.33001059      14.63221925      -0.00677356       0.00446362      -0.00746585      -4.00567806
Al       9.60102325      13.32837449       0.25698455       0.00565707      -0.00685181       0.00856578      -3.81462765
Al      11.72290047      14.66699358       1.74819288      -0.00014486      -0.00520818      -0.00270721      -3.73460591
Al       9.32998136      13.50089563       3.11680156      -0.00123896      -0.00036708       0.00054120      -3.74306285
Al      11.37062511      14.78584925       4.60503454      -0.00217606       0.00176794       0.00473150      -3.74014163
Al       9.02863020      13.57127523       6.01385415      -0.00440655      -0.00071699       0.00238026      -3.68885458
Al      11.17696019      14.85548392       7.42344523      -0.00919941      -0.00522662      -0.00608047      -3.72977412
Al       8.95733021      13.79143823       9.06119839      -0.00439803      -0.00620602       0.00006865      -3.70179784
Al      11.10693869      14.86939968      10.46586119      -0.00398182       0.00731578       0.00423610      -3.85988563
Ni       9.50196034      12.41306089      13.66496741      -0.00450362      -0.00905793       0.00468919      -6.00872386
Al      11.06880789      14.25109669      13.97828231       0.00762424       0.00280278      -0.00353178      -4.02602595
Al      12.82302617      -0.07725033      -0.21360013       0.00357378      -0.00274977       0.00633258      -3.76633358
Al      14.54895948       1.50732508       1.43683888      -0.00079766      -0.00995977       0.00055254      -4.04463392
Al      13.52049448      -0.19460297       3.65174765       0.00134448      -0.00119746      -0.00066446      -3.63715971
Al      15.09381273       1.86984583       4.67563580      -0.00189013       0.00091784       0.00637534      -3.77628136
Al      13.33903936      -0.08130515       6.38622040       0.00232944       0.00186711      -0.00041296      -3.71599448
Al      14.72858401       1.68667748       7.93149133      -0.00441614       0.00978083       0.00510411      -3.65554976
Al      12.99323564      -0.07581599       9.19123164      -0.00056648       0.00058000       0.00718226      -3.67941999
Al      14.32585118       1.48711362      10.95942028       0.00789224      -0.00003468      -0.00773239      -3.89621449
Al      12.95788529      -0.63591836      12.71379669       0.00497431      -0.00397530       0.00036279      -3.81345356
Al      14.50555987       1.73448267      14.40598081       0.00202075      -0.00260361       0.00032980      -4.04475367
Al      12.89183663       3.50763412       0.26900450      -0.00056864       0.00038763      -0.00158936      -3.60179782
Al      15.24248215       5.60522005       2.22139309      -0.00012254      -0.00243554       0.01043872      -3.73812389
Al      13.37082925       3.54242460       3.11971692       0.00313461       0.00367559      -0.00010860      -3.91353142
Al      15.52893988       4.59431151       4.84666124       0.00300663      -0.00157642       0.00122577      -3.86490345
Al      13.23101348       3.26179899       6.17140115       0.00287994      -0.00122064       0.00686614      -3.66949189
Al      14.98650310       4.42279467       7.94692587       0.00014886      -0.00189101       0.00054959      -3.74038291
Al      12.74077481       3.11764984       9.06174429       0.00416247      -0.00262057       0.00092248      -3.67104113
Al      14.53383729       4.39055328      10.90555073      -0.00237617       0.00598602       0.00064719      -3.89321864
Ni      13.24630424       2.96092427      12.55608536      -0.00610310       0.00918479       0.00418990      -6.00420535
Al      14.37572679       4.67597066      13.82096311       0.00220446      -0.00803131       0.00656825      -3.88169825
Al      12.73650393       6.37367654      -0.35063287      -0.00623788       0.00189548       0.00534469      -3.57491708
Al      14.64986113       8.28204128       2.11317089      -0.00075258       0.00518780      -0.00365325      -3.76108015
Al      13.08445099       6.39337506       3.48734830       0.00736204      -0.00044065      -0.00437482      -3.62058794
Al      14.60643950       8.44161262       4.92509451       0.00531214       0.00010708      -0.00263329      -3.83919227
Al      13.33882376       6.07694365       6.31874012       0.00228558      -0.00240508       0.00013081      -3.74925423
Al      14.34755776       8.47036731       7.66965188      -0.00097981      -0.00289519       0.00029334      -3.66481531
Al      12.99147642       5.97061113       9.23510580      -0.00355344       0.00047923      -0.00540060      -3.68546247
Al      13.71586993       8.43202317      10.41504276       0.00270114      -0.00032307      -0.00499833      -3.68279815
Al      12.62511396       6.88167067      12.56140640      -0.00019354      -0.00322266      -0.00474758      -3.62781608
Al      14.15037657       8.32842510      14.23964336       0.00505332       0.00563210      -0.00096716      -3.63749897
Al      13.01316596      10.02867529       0.53440214      -0.00589198      -0.00122531       0.00071678      -3.90895784
Al      15.03477266      11.00684912       2.15422332      -0.00935261       0.00163011      -0.00592719      -3.81722879
Al      12.85700840      10.20615771       3.57081085       0.00440314       0.01036466      -0.00034618      -3.64344919
Al      15.09035787      11.24533710       4.96086844      -0.00109245       0.00106604      -0.00164884      -3.86971021
Al      12.64552464      10.29821897       6.37895783       0.00095456       0.00731323       0.00196820      -3.70148218
Al      14.59015683      11.30644316       7.88342116      -0.00572073       0.00001910      -0.00050339      -3.66142821
Al      11.70205376      10.37686834       9.23959091       0.00568342      -0.00140423       0.00684953      -3.75519109
Al      14.16324524      11.19694723      10.58141529       0.00731797       0.00599640       0.00402246      -3.68000174
Al      12.57108901       9.83883731      12.51706920      -0.00843209      -0.00592315      -0.00692292      -3.61520553
Al      14.41578332      11.12068331      14.17563631       0.00597629       0.00082191      -0.00256824      -3.71199298
Al      13.31326306      12.77619657       0.40218163       0.00313072       0.00476311       0.00217385      -3.58408833
Al      14.70738329      14.86560982       1.25428192      -0.01422822      -0.00396881       0.00271976      -3.82828832
Al      13.42308168      13.02820174       3.33649404       0.00435526       0.00165403       0.00727366      -3.78391814
Al      15.22870892      14.14344876       5.12365287       0.00558625       0.00398017      -0.00457128      -3.65496612
Al      13.03234514      13.08745019       6.24095617      -0.00963218      -0.00237931       0.00215783      -3.71832621
Al      14.97724067      14.20127041       7.91273892       0.00652558       0.00348261       0.00709083      -3.73598218
Al      12.67052562      13.06098927       9.17593309       0.00505485      -0.00157096       0.00113774      -3.68233919
Al      14.66507411      14.22622374      10.70949964       0.00039610       0.00291435      -0.00062906      -3.70330727
Al      12.96559277      12.73436632      12.42255669       0.00052657       0.00594349      -0.00464036      -3.58417213
Al      14.67628591      14.00202478      14.25305703       0.00463890       0.00039452      -0.00323618      -3.88533521
