128
Lattice="12.51819406256111 0.2083789637020682 -0.057023729875873716 0.20751797143965492 12.4754495498374 0.4206870007823825 -0.056557117673671095 0.41322902248317517 12.520924966044486" Properties=species:S:1:pos:R:3:forces:R:3:energies:R:1 energy=-577.0511144567162 stress="5.1026927256911766e-05 -0.0005281709799267099 0.00031029557048220014 -0.0005281709799267099 -0.0005955696478137273 0.0002396346313866991 0.00031029557048220014 0.0002396346313866991 0.0003447190898553364" free_energy=-577.0511144567162 pbc="T T T"
Al       0.47156662       0.21246717      -0.36522783      -0.00277649       0.00164231      -0.00373948      -4.15373509
Al       1.50898123       1.87096227       1.90170903       0.00279248       0.00272587       0.00386955      -4.38094586
Al      -0.66193809      -0.67199758       1.91758799      -0.00105936       0.00101842      -0.00599731      -3.72526636
Al       1.80267231       1.02559356       4.85592257      -0.00140749       0.00317608       0.00049861      -4.16596925
Ni      -0.21062214      -0.40842432       5.94046182      -0.00688893      -0.00164239      -0.01045844      -6.00601228
Al       0.01118713       1.16822894       7.88752668       0.00300723      -0.00080645       0.00280668      -4.08023190
Ni       0.43324378      -0.21480280       9.81429445      -0.00416174      -0.00119962       0.00276435      -5.88594859
Al       2.18416589       2.67093702      11.41860014       0.00903361       0.00234227      -0.00634139      -4.34284358
Ni       0.05712047       2.66651617      -0.29638485      -0.01268697       0.00315624      -0.00612256      -5.83855823
Al       0.96198292       4.90297396       2.19136735       0.00099511       0.00019157       0.00111410      -4.40657553
Ni       0.48778854       3.06332767       3.79985403       0.00665138       0.00184822       0.00637726      -5.95665913
Al       0.54657927       5.43184641       4.93845220      -0.00219839      -0.00949906       0.01554111      -4.19017055
Al       0.06614715       3.18548009       6.21478286       0.00333316       0.00808549      -0.00910501      -4.09236294
Al       2.91645206       5.36369039       9.15815127      -0.00033132      -0.00882930      -0.00395049      -4.35966881
Al       0.70508895       3.65795642       9.06694424       0.00260270       0.00078142       0.00400360      -4.20972607
Al       0.78580498       5.22580144      11.61474703       0.00834705       0.01060390      -0.00056144      -4.31588085
Ni       0.46337210       6.71093241       0.57909381       0.00350349      -0.00818410      -0.00067884      -6.04086065
Al       1.70306850       7.94941442       2.21340861      -0.00136421       0.00141719       0.01163724      -4.27087496
Ni      -0.17656193       6.87352836       3.20158397      -0.00306366       0.00425985      -0.00719847      -5.83575158
Al       1.32467479       8.03391120       4.80993272      -0.00767695      -0.00388601      -0.00083534      -3.81687665
Ni       1.30013603       5.10433495       7.22970553      -0.00161718      -0.01314809       0.00061413      -5.94234286
Al       1.42428295       7.49907028       7.69871542      -0.00336578       0.00556109       0.00098360      -4.05241125
Ni       0.29803443       6.11067273       9.36837817       0.00016319       0.00822811      -0.00305617      -6.04742334
Al       1.89247309       7.50803300      10.59031911       0.01314240      -0.01044946      -0.00334905      -4.22827234
Al      -0.15094067       9.12989840       0.44391627       0.00272362      -0.00205177      -0.00066418      -4.23551162
Al       1.96300293      10.67486058       1.59338741       0.00543485      -0.00128903       0.00700513      -4.31450118
Al      -0.73297490       9.25947447       3.49103623       0.00486092       0.00283256      -0.00364996      -3.82296010
Al       1.09876918      11.07402050       4.42587161       0.00128204       0.00741329       0.00531051      -4.13614699
Al      -0.02461502       9.60671332       6.47924648      -0.00294838       0.00187525      -0.00570363      -3.71547496
Al       1.98032989      11.59638186       7.59204095       0.00072886       0.00167076      -0.00247348      -4.10154235
Al       0.83103488       9.89409405      10.39290849      -0.00166042      -0.00132884       0.00383037      -3.89327891
Al       2.72765160      11.48294941      11.52222132      -0.00309394       0.00239545      -0.00195304      -4.14636533
Ni       2.79313131       0.26653996       0.35334519      -0.00117070       0.00337606      -0.00112514      -5.86099701
Al       4.15492841       2.00347999       1.26986429       0.00303495       0.00201844       0.01063287      -4.06748458
Ni       2.70132820      -0.24343396       2.79308717       0.00694532       0.00196109      -0.01043973      -5.79613577
Al       5.06627596       2.35685520       5.58569644      -0.00651727      -0.00449213      -0.00684262      -4.17631102
Ni       3.50331848       0.79477138       6.64060209       0.00043484      -0.00010659       0.00145114      -5.89991777
Al       5.03994014       1.17520966       8.44929713       0.00079198       0.00536591       0.00202557      -4.36543859
Al       2.44251284       1.02758931       9.03473133      -0.00181266       0.00297530      -0.00429684      -4.15783501
Al       4.41912221       1.25698902      11.19914314      -0.00367801       0.00765386       0.00485307      -4.10153280
Ni       2.49326630       3.84835266       0.70465294       0.00135272       0.00094600      -0.00093148      -5.87700542
Al       4.03077954       4.59054906       2.34814351      -0.00322855       0.00107119      -0.00516978      -3.83453740
Al       2.68937499       3.69594432       4.54932797      -0.00105995       0.00120012      -0.00006467      -3.79845929
Al       5.16944634       4.84467073       4.76742761      -0.00107480       0.00053627       0.00587712      -3.86052547
Al       2.89262444       3.17875893       7.28084510       0.00103900      -0.00534475      -0.00762374      -4.25548458
Al       5.46847419       4.48720031       7.62235387       0.00019338      -0.00381132       0.00363539      -4.08271389
Ni       3.77062579       3.04236051       9.57650846      -0.00400205      -0.00215616      -0.00592182      -6.04478011
Al       4.26453661       4.44967307      11.61369671      -0.00558568      -0.00153706      -0.00074785      -4.20317808
Al       3.03204936       6.26180178       0.38496758       0.00475932      -0.00056431       0.00136208      -4.33434116
Al       4.21796191       8.63179229       1.50368853       0.00042664       0.00420590       0.00013543      -4.00417890
Al       3.75480340       7.04607915       3.72942748      -0.00074566       0.00762604       0.00495896      -3.67589108
Al       5.42763743       7.34744458       5.95584256      -0.00035021       0.00927441       0.00599806      -3.96071105
Al       3.18768519       6.00158697       6.20625597       0.00291419       0.00092214      -0.00538587      -3.95690591
Al       4.81676337       7.45335332       8.55698621      -0.00298600       0.00265588       0.00199989      -4.16042838
Ni       4.27112564       6.67336870      10.78000965       0.00229786       0.00205712       0.00756260      -5.80238191
Al       4.42548804       8.98790788      11.42855168      -0.00315384      -0.00335197      -0.00123950      -4.28744536
Ni       2.18637389       8.71332220      -0.02100973      -0.00055577       0.00033914      -0.00601735      -6.09407762
Al       4.85124108      11.62129291       1.72144072       0.00218039       0.00086890      -0.00304016      -4.25878682
Al       3.50401533       9.91265222       3.82547478       0.00376594       0.00408703      -0.00586336      -4.09772072
Al       4.60295120      12.25196378       4.88407696      -0.00021657       0.00089414      -0.00311538      -4.32406474
Al       3.29301470       8.90677394       6.35301333       0.00422005       0.00406502      -0.00651195      -3.92463284
Al       4.70035918      11.00500935       7.41447387       0.00168963      -0.00658296       0.00111313      -4.26556133
Al       3.05362249       9.54198622       8.95588750       0.00248941      -0.00060937      -0.00215434      -3.75194719
Al       5.69304761      11.42121165      11.05547465      -0.00080198       0.00559139       0.00539431      -4.14964382
Al       7.01497483       1.15831639      -0.16128408       0.00298160       0.00023614      -0.00011604      -3.86263897
Al       8.69003057       2.72062302       1.33655072      -0.00145832       0.00165771       0.00595355      -4.02517157
Al       6.39270236       1.23468021       2.57554981      -0.00324382      -0.00153539       0.00301433      -3.60354418
Al       7.87101406       1.51584486       4.95353673      -0.00095222      -0.00104188       0.00609823      -4.34951443
Ni       5.97043493       0.29378837       6.28736462      -0.00513365       0.00870511       0.00121861      -5.99502429
Al       7.47827224       1.84403624       7.59930461       0.00013242      -0.00178957       0.00127621      -4.34758028
Ni       7.04867310       0.81213753       9.99162907      -0.00047708      -0.00218210       0.00314156      -6.16898853
Al       8.86244224       2.55032084       9.94465696      -0.00075523      -0.00439789      -0.00399289      -4.10843576
Al       6.29724909       3.74675699       1.08769223       0.00522506      -0.00519255       0.00110847      -3.65410410
Al       8.58807553       5.70944287       1.83700333       0.00629809       0.00296300      -0.00564851      -3.99544538
Al       7.50720108       3.80326411       3.54974813      -0.00210776      -0.00365053      -0.00422882      -4.01893089
Al       7.77294292       5.94664355       5.31083686      -0.00572569       0.00867183      -0.00146642      -4.24157365
Ni       7.10086226       3.74118100       5.95320456      -0.00190588      -0.00694626       0.00057570      -6.05318099
Al       8.48777659       4.49442698       7.97219326      -0.00887204       0.00035663       0.00057416      -4.20764871
Al       6.18506298       3.08554965      10.09824794       0.00375234       0.00065271       0.00041526      -4.07387182
Al       8.22282716       4.80706196      11.69001000       0.00316767       0.00037422       0.00142099      -4.06769205
Al       6.23904770       6.28530668      -0.09425086      -0.00252939      -0.00550808       0.00867070      -3.94260831
Al       8.13038909       8.48223245       1.23616323       0.00105144      -0.00028783       0.00674266      -4.45618430
Al       6.11272223       6.30942654       2.67769651       0.00198923      -0.00420206      -0.00195802      -3.86018237
Al       7.61752323       8.68327309       5.61061283      -0.00715125      -0.00762541      -0.00438128      -3.98744560
Ni       7.09608277       6.49266499       7.66955226      -0.00069751      -0.00472188       0.00276373      -6.14599290
Al       7.37107031       8.70226688       8.46236730      -0.00476428      -0.00051281      -0.00688208      -4.04330538
Al       6.35226904       5.69695172       9.88745698       0.00314309       0.00074108       0.00249463      -3.88650567
Al       7.31698169       8.98498046      11.19988439      -0.00117535      -0.00526912      -0.00710465      -4.24007249
Ni       6.18304181       9.80851841       0.67402545      -0.00273063       0.00762249      -0.00593660      -5.93303019
Al       7.52164534      11.37580092       1.98642400       0.00061017      -0.00171654       0.00126860      -3.92814501
Al       6.23435987       9.13554779       3.17809266       0.00720982      -0.00262002      -0.00219214      -4.27843327
Al       7.28881849      11.35322506       5.04722840       0.00444001      -0.00052632       0.00224318      -4.24670672
Ni       5.36870318       9.81119013       5.31700606      -0.00676209       0.00312896       0.00273174      -5.81349525
Al       7.05276459      11.44354574       8.63840315       0.00091139      -0.00460703       0.00002725      -4.33714047
Ni       5.46395167       9.72722446       9.38366588       0.00354960      -0.00508616      -0.00498818      -5.68785331
Al       8.27771802      11.49303843      11.86945374      -0.00416436      -0.00239781       0.00429573      -4.14557373
Al       9.83884925       0.57860768      -0.03452552      -0.00512463      -0.00804140      -0.00020282      -3.89184811
Al      11.35899674       2.40379619       1.66221348       0.00050192       0.00184212       0.00398626      -4.30079390
Al       9.27521326       0.29949976       2.69652259      -0.00287546       0.00258412       0.00139734      -3.97264923
Al      11.65641390       1.30581873       4.11296058       0.00067361      -0.00081272      -0.00046604      -4.29310819
Ni       8.41297444      -0.23929362       6.49473659      -0.00639015       0.00396760       0.00371840      -5.90265692
Al      10.28007674       1.21022469       6.55208745      -0.00251141      -0.00297605       0.00134666      -4.13378610
Al       9.17334947       0.01021416       8.89700555      -0.00563674      -0.00070269       0.00260057      -3.96027837
Al      11.49106974       2.02632377      10.23104713      -0.00202237      -0.00099982       0.00091158      -4.34240324
Ni      10.13113791       2.86114598      -0.61704820       0.01484088       0.00060187       0.00460342      -5.88552165
Al      10.90902075       4.94700452       0.32923312       0.00447830       0.00140115      -0.00337033      -4.19502332
Ni       9.64546863       2.55724798       3.52675254       0.00688808       0.00188839       0.00426719      -5.92115421
Al      10.94311561       4.65685358       3.33874526      -0.00130003      -0.00351263       0.00382821      -4.07466331
Al       9.65685052       3.74239284       5.69214076      -0.00444076       0.00157357      -0.00442722      -4.09665339
Al      11.40710185       5.55572261       7.40741275      -0.00095661      -0.00135789       0.00274275      -4.10522171
Ni      10.74400796       3.20741421       7.98962152      -0.00371102       0.00204298      -0.00104717      -6.15932125
Al      10.82626985       4.75060686      10.04364135       0.00491475       0.00132691       0.00228846      -4.23093800
Ni       8.91886230       6.73898699      -0.37132934      -0.00773435      -0.00161207      -0.00618820      -6.02426521
Al      10.70478840       7.44192821       1.39200359      -0.00313912      -0.00375893       0.00291660      -4.39182337
Ni       8.08520880       7.50837181       3.47299113       0.00467149       0.00313846       0.00594002      -5.89690683
Al      10.29584903       7.12913740       4.43094728      -0.00092185       0.00110426      -0.00575850      -4.01801575
Al       9.42364834       7.26618996       7.08864949      -0.01260306       0.00437773       0.00113824      -3.74371605
Al      11.49209296       8.29350901       8.49141579       0.00788166      -0.00159328      -0.00444538      -3.78289222
Al       8.83975521       6.76818036       9.71603989       0.00321211       0.00583236      -0.00415924      -3.94334618
Al      11.29569929       7.55113346      11.13229639       0.00110511      -0.00629013       0.00240338      -4.30023742
Ni       9.99768837       9.07607976      -0.37077079      -0.00192069      -0.00989502      -0.00193701      -6.03892445
Al      10.11772152      10.58051843       1.41731654       0.00062317       0.00225422       0.00020611      -3.90750653
Al       9.11931587       9.73134519       3.67006071       0.00165835       0.00173735       0.00032186      -3.84239819
Al      10.46063485      11.45854980       5.29565054       0.00014213       0.00061775       0.00795316      -4.02768533
Al       9.43572562       9.98189778       7.24682889       0.00244141      -0.00648561       0.00153999      -3.84830247
Al      11.73611738      11.30643263       8.50388944       0.00649840      -0.00587037       0.00140555      -4.02572508
Al       9.65305852       9.66815547       9.84490869       0.00048195      -0.00113495       0.00265895      -3.89639176
Al      11.12317682      11.60005370      11.26962954       0.00252274       0.00541414      -0.00433844      -4.04873045
