184
Lattice="14.010688130589832 -0.00793022290795827 0.013621915737047924 -0.00793992176744636 14.093948546083704 0.0011741099887676455 0.01361603768452813 0.001169899579430083 14.06055764139512" Properties=species:S:1:pos:R:3:forces:R:3:energies:R:1 energy=-891.1788652369319 stress="0.0004044713056578936 -0.0005914485968983111 -0.00025402871094395795 -0.0005914485968983111 -0.0003434999584872859 0.0002702613102342886 -0.00025402871094395795 0.0002702613102342886 -2.9278539506853915e-05" free_energy=-891.1788652369319 pbc="T T T"
Al       1.41537747       1.34361573       1.44479297      -0.00546156      -0.00292259       0.00036074      -4.58114127
Ni      -0.02951503      -0.08806142       2.85303734       0.00636541      -0.00922008      -0.01041582      -5.95639046
Al       1.45350418       1.40389977       4.29451521       0.01130547      -0.00505860       0.00601609      -4.43603077
Al       1.76215041       1.85138324       7.03697600      -0.00722869       0.00266034       0.00644009      -4.04637461
Al       1.37514377       1.31214630       9.73198046       0.00836123      -0.00048139       0.00693114      -3.68577377
Al       1.38790447       1.39678963      12.56293272      -0.00141557      -0.01038294      -0.00451855      -4.35461803
Ni       0.06170131       2.83958275      -0.01815870       0.00228562       0.00145068       0.00214061      -6.16464311
Al       1.40483959       4.29889230       1.38339683       0.00365753      -0.00696831      -0.00006037      -4.55618108
Ni       0.06640907       2.78452768       2.88182695      -0.00763728       0.00921642      -0.00491205      -6.23817202
Al       1.42672112       4.30458910       4.29016454       0.00190761       0.00578022       0.00662037      -4.36007592
Ni       0.02784320       2.94883835       5.71548342      -0.00131864       0.00437534      -0.00470971      -5.97181659
Al       1.30417136       4.69430331       7.04031218      -0.00595557       0.00510818       0.00119424      -3.70574208
Al       1.34552503       4.08433229       9.73425158       0.00184283       0.00009036      -0.00201484      -3.66240827
Al       1.49154479       4.22280799      12.53795118       0.00002400      -0.00868949       0.00280574      -4.35899055
Ni      -0.00107595       5.61663374      -0.11107545       0.00350805      -0.00280834      -0.00666531      -6.07005614
Al       1.35629529       7.02089328       1.35606184      -0.00674624       0.00277917      -0.00229505      -4.32517812
Al       1.32886952       7.03228722       4.29446406      -0.00593956      -0.00871282       0.00264333      -4.23443259
Al       1.17118455       7.48827618       7.07217078      -0.00381803      -0.00136845      -0.00125880      -3.77402611
Al       1.49028346       6.90606103       9.66942722       0.00528829       0.00177137       0.00697923      -3.96154888
Ni       0.07781407       5.69176399      11.20297445       0.00339412      -0.00525465       0.00784072      -6.06340291
Al       1.49905540       7.07164346      12.64754034       0.00018877      -0.00692782      -0.00696370      -4.09650994
Al       1.40480080       9.89036284       1.24602474      -0.00008241      -0.00582487      -0.00014964      -3.89163592
Ni       0.02046850       8.54277979       2.79449076       0.00385410      -0.00645756       0.00032908      -6.08434807
Al       1.38138223      10.04896980       4.12251994      -0.00027122       0.00141753      -0.00922248      -4.10903855
Al       1.32793970      10.28735752       6.84186565      -0.00305180       0.00730952      -0.00563854      -4.00773880
Al       1.42690640       9.74958301       9.68347492       0.00901884       0.00288576       0.00452142      -4.28100890
Ni       0.10011853       8.35566890      11.11485913       0.00462227      -0.00028166       0.00568824      -5.91320840
Al       1.43648490       9.81859191      12.56091668       0.00329513      -0.00236199       0.00093838      -3.92413099
Al       1.40522552      12.63063023       1.47456838       0.00032588      -0.00392996      -0.00242889      -3.89886009
Al       1.40358257      12.74397536       4.41358972       0.00270810      -0.00027431       0.01047837      -3.96788638
Al       1.43254090      13.07696800       7.24161267       0.00610156       0.00200677       0.00161943      -4.00003696
Al       1.31177558      12.69532415       9.90714084       0.00323054      -0.00319830       0.01140888      -4.11732991
Al       1.35004665      12.59598184      12.72694092       0.00593217      -0.00738293       0.00651441      -4.13429297
Ni       2.76339173      -0.02651649      -0.04499984      -0.00892091      -0.00118143      -0.00567250      -6.00569228
Al       4.17547821       1.32128934       1.44420159      -0.00295447       0.00294974       0.00279007      -4.45279638
Al       4.19870278       1.49228453       4.28789899      -0.00116279      -0.00268708       0.00996890      -4.23883880
Ni       2.92870670       0.10159045       5.71028401      -0.00579464       0.00476281      -0.00958719      -5.77136460
Al       4.50942254       1.37490852       7.11339823      -0.00921066       0.00640860      -0.00230638      -3.68862641
Al       4.11377909       1.50428652       9.81377707       0.00030029      -0.00452317       0.00720059      -3.92484719
Ni       2.85248397      -0.05520162      11.29667492      -0.00379998       0.00482570       0.00557739      -6.07866403
Al       4.26967843       1.36437191      12.66680137      -0.00118579      -0.00413039       0.00657473      -4.51860260
Ni       2.80816984       2.77507932      -0.03681745      -0.00141728       0.00051827       0.00508018      -6.17403625
Al       4.21651540       4.33919074       1.37252368       0.00165477      -0.00063348       0.00271040      -4.45091967
Ni       2.83584709       2.93566538       2.82704570       0.00669922      -0.00071238      -0.01111290      -6.17826630
Al       4.25769315       4.31252092       4.24468639       0.00467595       0.00753384      -0.01112120      -4.30888957
Al       4.01083825       4.09451488       7.08954542      -0.00548361       0.00121867      -0.00164462      -3.96664273
Al       4.03355183       4.21763764       9.86782365       0.00278895      -0.00227610      -0.00948821      -3.87187199
Al       4.21044876       4.24323745      12.62166054      -0.00197199      -0.00237601       0.00540588      -4.20689501
Al       4.22082839       7.06168646       1.40374215      -0.00196762       0.00617623       0.00092596      -4.08029652
Ni       2.78423326       5.67934605       2.82907670      -0.00242008      -0.00000379      -0.00232072      -6.07397484
Al       4.15844965       7.02346010       4.27346365      -0.00237248      -0.00180773       0.00552686      -4.56549715
Al       3.95792114       7.00407519       7.07886811       0.00087466       0.00797128      -0.00000618      -4.49122187
Al       4.10293745       7.09259962       9.83756364       0.00590582      -0.00553331      -0.00446807      -4.23530566
Al       4.18360918       7.04062900      12.72855329       0.00382409       0.00038917       0.00017712      -3.90883683
Al       4.12711660       9.84425695       1.38422548      -0.00434356       0.00163930      -0.00102195      -4.35527958
Ni       2.69661214       8.41872133       2.82440208      -0.00188929       0.01136782      -0.00346117      -6.18864825
Al       4.15433371       9.96393938       4.24051941       0.00300726      -0.00194524      -0.00429523      -4.49854545
Ni       2.71090507       8.58113163       5.57633738       0.00433871       0.00792439       0.00353219      -5.97843587
Al       4.03229372       9.83678293       7.09076654      -0.00461903       0.01215797      -0.00034612      -4.52095039
Al       4.21856470       9.86740232       9.92175311       0.00238972       0.00989054       0.00833505      -4.53141428
Al       4.22705343       9.88431051      12.65679468      -0.00360386       0.00265149      -0.00072378      -4.10777874
Al       4.16013404      12.71487450       1.39135549       0.00677192      -0.00445033       0.00148983      -4.23889893
Al       4.21855403      12.76173008       4.20223380      -0.00433929       0.00265163      -0.00176360      -4.06630704
Al       4.19966660      12.68089509       6.98729808       0.00308309      -0.01542429      -0.00342240      -4.25647716
Ni       2.78121352      11.35223492       8.50715802       0.00012123       0.00438274       0.00196133      -5.98865112
Al       4.26702024      12.71803011       9.82369505       0.00336327      -0.00527927      -0.00416720      -4.55708778
Ni       2.75585567      11.30684771      11.17985565       0.00792353      -0.01464672       0.00274904      -6.00276701
Al       4.25531090      12.61108265      12.67116697       0.00290211      -0.01060589       0.00480490      -4.42958857
Al       7.02884754       1.33375531       1.31149692       0.00091113      -0.00486342       0.00343820      -4.28993520
Al       6.91419005       1.28321657       4.20674628       0.00040405       0.00211227       0.00520280      -4.06587341
Al       7.20620253       1.29720124       6.84127440      -0.00330705       0.00667631       0.00065471      -3.69904890
Al       6.90256766       1.32563448       9.61132351       0.01294209       0.00793426       0.00130562      -4.27416354
Ni       5.63021691       0.06971086      11.16455504       0.00447055       0.00054454       0.01034673      -6.04509430
Al       6.99613219       1.54682079      12.58496717      -0.00017322       0.00068739       0.00307343      -4.16282617
Ni       5.53825310       2.81461039       0.03952624      -0.00362041       0.00389509       0.00867837      -6.00487950
Al       7.01175849       4.20236165       1.39060084       0.00163357       0.00235149       0.00125058      -4.46040556
Ni       5.58399776       2.76782076       2.76758800       0.00447340       0.00175494      -0.00413785      -6.13938599
Al       6.92152218       4.14535793       4.27080968       0.00671981       0.00907803      -0.00782916      -4.48136420
Al       6.96753295       4.14852665       7.10887468      -0.00202254       0.00992057      -0.01119387      -4.39538399
Al       6.94894792       4.15045712       9.86553473      -0.00532555      -0.00296857       0.00406027      -4.24428078
Al       6.96135357       4.28591294      12.68493390      -0.00304432      -0.00230009      -0.00514612      -4.04419336
Al       6.94582331       7.04301616       1.39668777      -0.00310397       0.00340282       0.00112461      -4.31005171
Al       6.90507921       7.01567434       4.26641157      -0.00369317      -0.00087596      -0.00049289      -4.61908401
Ni       5.55476521       5.58387912       5.82333884      -0.00028559      -0.00121105       0.00413128      -6.05397742
Al       7.04622893       7.03940415       7.08693081       0.00270169       0.00685079       0.00162852      -4.44812377
Ni       5.45922407       5.60257998       8.45233155      -0.00034256       0.00682779       0.00311080      -6.13323091
Al       7.03786023       6.99194560       9.78211700       0.00049408       0.00383363      -0.00045769      -4.42428578
Ni       5.53388175       5.64483094      11.16632798      -0.00041609      -0.00047363      -0.00338152      -6.02536355
Al       7.05882105       6.98001659      12.65773312      -0.00060553       0.00250301      -0.00622773      -4.32692325
Al       7.08044402       9.85348534       1.45514730      -0.00137287      -0.00595475       0.00342837      -4.47725679
Ni       5.59747957       8.53764700       2.87437021      -0.00236341       0.00128981      -0.00757110      -6.18143475
Al       6.99415169       9.89785060       4.31225509       0.00156242       0.00800630      -0.01453427      -4.21937808
Ni       5.48226246       8.43450308       5.71942207       0.00247631       0.00376678      -0.00285055      -6.17095918
Al       7.07851040       9.86158312       6.98876466       0.00465457       0.00445907       0.00254657      -4.08673693
Ni       5.57161090       8.47952991       8.39501530       0.00456643      -0.00143616      -0.00160927      -6.24302225
Al       6.97828095       9.89780643       9.81746423       0.00846478      -0.00774862       0.00449167      -4.50017636
Ni       5.62723150       8.34759141      11.25062415       0.00572847      -0.00423704      -0.00166193      -6.07176814
Al       6.94223331       9.82671517      12.69673270      -0.00344179      -0.00665343      -0.01204841      -4.52915246
Ni       5.64461840      11.27241007       0.12672396       0.00175288      -0.00110014      -0.00098378      -6.01771347
Al       7.07362783      12.72195340       1.47266238      -0.00101226      -0.00213836      -0.00512112      -4.29982888
Ni       5.54831303      11.28581709       2.79545471      -0.00623514       0.00175897       0.00176745      -6.00264198
Al       7.03478773      12.63413792       4.22466631      -0.00049682       0.00924951       0.00057214      -3.88438135
Al       7.02767080      12.67104107       6.96718803       0.00462687       0.00410510       0.00215390      -3.67753382
Ni       5.55166289      11.24109823       8.33946917      -0.00709645       0.00940698      -0.00646653      -5.98371499
Al       6.97037626      12.57943073       9.78580664      -0.00476270      -0.00252535      -0.00034038      -4.32069631
Al       6.92457912      12.70492866      12.68373963       0.00276583      -0.00005178      -0.00074832      -4.51195819
Al       9.85850505       1.37795625       1.38308390      -0.00717531       0.00063319       0.00103472      -4.37941161
Ni       8.50027980       0.01518878       2.85291126      -0.00661978      -0.00137948       0.01103063      -6.01243979
Al       9.77612610       1.37718805       4.38438567       0.01377440       0.00345920       0.00435369      -4.62091594
Al       9.96278152       1.47007919       7.14770533       0.00339316      -0.00870361      -0.01303849      -4.38947876
Al       9.73513022       1.36030892       9.80424256       0.00069914      -0.00655849       0.00693387      -4.40348435
Ni       8.26296557      -0.04321049      11.21297561       0.00510370       0.00534427       0.00159988      -6.11119522
Al       9.73967869       1.36689391      12.70643684       0.00594726      -0.00294473      -0.00287425      -4.27579142
Al       9.84119529       4.18770410       1.44666268       0.00097340      -0.00431758       0.00338633      -4.55363638
Ni       8.36022265       2.72343590       2.86281825      -0.00416730      -0.00142173       0.00171694      -6.25017701
Al       9.79926224       4.15715818       4.31358465      -0.00686174       0.00806225      -0.00382574      -4.48880263
Al       9.79590159       4.21194200       7.03533540      -0.01034570       0.00140749      -0.00365423      -4.26298978
Ni       8.34070688       2.75677416       8.42172595      -0.00636175      -0.00421361      -0.00246537      -5.76758634
Al       9.76200639       4.10649579       9.80806791       0.00628528       0.00360628       0.01109784      -4.40313825
Al       9.73131606       4.20583152      12.62358791      -0.00110507      -0.00487074       0.00489670      -4.46188546
Ni       8.43623871       5.63793615       0.07308227      -0.00150065      -0.00473697       0.00245745      -6.00963995
Al       9.85620198       7.03229923       1.47590223       0.00417149       0.00409150       0.00023198      -4.56732479
Ni       8.39115424       5.61264834       2.86523031      -0.00325070      -0.00373597       0.00231901      -6.25038857
Al       9.82831515       6.99658830       4.29135225       0.00395669       0.00334916       0.00659894      -4.48644313
Ni       8.32037033       5.58789565       5.59938785       0.00159912       0.00212131      -0.00464202      -6.00447451
Al       9.78815980       7.00255157       7.01506388       0.00436603       0.00106684      -0.00408951      -4.12972888
Al       9.74686105       7.06491882       9.83256807       0.00128808      -0.00291916      -0.00018317      -4.26355211
Al       9.79011373       7.07961387      12.59999511      -0.00101740       0.00379743       0.00130850      -4.39566123
Al       9.76543726       9.85284348       1.44922559       0.00101570      -0.00341609      -0.00822508      -4.45044278
Ni       8.38620261       8.40831125       2.88288631      -0.00286211       0.00111545      -0.00659106      -6.13560032
Al       9.75360751       9.91470757       4.29570309      -0.00153768      -0.00418086      -0.00805923      -4.09908364
Al       9.84422757       9.84134420       7.06217094      -0.00691487      -0.00294644      -0.00619075      -3.91716390
Al       9.82432685       9.84078323       9.80646897      -0.00131712      -0.00125416       0.00844338      -4.34819632
Ni       8.33695321       8.50060715      11.19912900      -0.00831105       0.00528942      -0.01037163      -6.01158786
Al       9.82113904       9.76418814      12.64349900       0.00184213      -0.00293354       0.00074210      -4.56097951
Ni       8.39633928      11.28704160      -0.02881970       0.00806801      -0.00458104       0.00632829      -6.13906295
Al       9.83882768      12.65296777       1.42705552      -0.00272148      -0.00733813      -0.00279974      -4.38723310
Al       9.78075745      12.62145927       4.33707323      -0.00708435      -0.00178711       0.00185283      -4.08684248
Al       9.75313148      12.61534938       7.05494228       0.00421548      -0.00954035      -0.00233966      -4.09670092
Al       9.75928897      12.68169707       9.80746932       0.00285556       0.00892296      -0.00396776      -4.60949727
Ni       8.43850715      11.24201053      11.28158601      -0.00178124       0.00201793       0.00159702      -6.17718279
Al       9.81115767      12.74012778      12.67139598       0.00629391       0.00758363      -0.00322683      -4.56604819
Al      12.64131450       1.36712783       1.41915233      -0.00137521      -0.00267274      -0.00698476      -4.57062380
Ni      11.21995374      -0.06006080       2.93493259       0.00020785      -0.00590050       0.00341323      -6.17388122
Al      12.70752717       1.33691923       4.31440354      -0.00570880       0.01275389       0.01345469      -4.67165747
Ni      11.26744629      -0.05247803       5.75730030      -0.00442213       0.00708889      -0.00374365      -6.14092853
Al      12.91852650       1.26220760       7.08222307      -0.00580429       0.01245428      -0.00155726      -4.40416037
Ni      11.31928341      -0.13118854       8.36810532       0.00520299       0.00441147       0.00462406      -6.14645449
Al      12.64157978       1.44787221       9.77090783       0.00543812       0.00224669      -0.00218657      -4.11367668
Ni      11.21942401       0.05399425      11.17780880      -0.00738879      -0.00788018      -0.00135086      -6.18152756
Al      12.69382821       1.33581674      12.65999780      -0.00776921      -0.00470867       0.00650960      -4.30206874
Ni      11.26431298       2.81113134      -0.02913439      -0.00016194       0.00094548       0.01027519      -6.16219384
Al      12.62671165       4.25941322       1.45623086      -0.00338079       0.00388555      -0.00424583      -4.57201779
Ni      11.23919546       2.77491569       2.88845051      -0.00475235      -0.00611685       0.00343417      -6.23690586
Al      12.63393491       4.33415294       4.24994661      -0.00073152      -0.00472727      -0.00101228      -4.25467681
Ni      11.35398922       2.77476633       5.64727625      -0.00582827      -0.01208073      -0.00915552      -6.04777283
Al      12.57437524       4.17415294       7.17819532      -0.00844851       0.00596869       0.00174036      -4.27782664
Al      12.65971335       4.15537135       9.84789615      -0.00427335       0.00258808      -0.00358806      -4.22909530
Ni      11.20065672       2.72457212      11.30261905       0.00263212      -0.00662332      -0.00499352      -6.15428450
Al      12.65762702       4.19616135      12.57972825       0.00304772      -0.00247164       0.01080926      -4.67518436
Ni      11.19357348       5.67145318      -0.06992483       0.00192772      -0.00283310       0.00488678      -6.25434433
Al      12.66953930       7.04033367       1.40996504      -0.00004508      -0.00392032       0.00044073      -4.45772012
Al      12.66440987       7.01111634       4.23734747       0.00603439       0.00811367       0.00073908      -4.08015291
Al      12.55820396       6.93927939       6.97909210      -0.00309649       0.00433113       0.00564712      -3.95754401
Ni      11.19461718       5.63969608       8.51350439       0.00400814       0.00298831       0.01236906      -5.91825369
Al      12.64775936       7.06249890       9.74150188      -0.00135966      -0.01092984      -0.00236604      -4.41803534
Ni      11.21268568       5.56052058      11.13789534      -0.00056467       0.00165191      -0.01070005      -6.17096761
Al      12.59357704       7.10140415      12.57620143       0.00089547      -0.00362525      -0.00176127      -4.58630823
Ni      11.25095937       8.47892509       0.06697787      -0.00358424      -0.00154693       0.00100904      -6.14071838
Al      12.65252132       9.94120951       1.44641712      -0.00298062      -0.00046378      -0.00549732      -4.31733286
Ni      11.25740664       8.49892987       2.91015293       0.00434406      -0.00041054       0.00253561      -6.27318861
Al      12.66871086       9.92561200       4.33004903       0.00008187       0.00289557       0.00812014      -4.10256561
Ni      11.23099182       8.46020170       5.60442849       0.00209431      -0.00113342      -0.00651019      -5.92015267
Al      12.67786040       9.72260018       7.12710122      -0.00501680      -0.00025799      -0.00193423      -3.97009175
Al      12.67200637       9.83607662       9.88847793      -0.00008134       0.00392217      -0.00408932      -4.22179205
Al      12.69938521       9.80193771      12.60545363       0.00274914       0.00100166      -0.00119053      -4.33232681
Ni      11.21297306      11.19421983      -0.05393453      -0.00177982       0.00162598       0.00969330      -6.07098156
Al      12.58444004      12.65698602       1.38255540      -0.01000844       0.00181334       0.00050510      -4.16327627
Al      12.63402822      12.57800818       4.30000972      -0.00194482      -0.00344685      -0.00342457      -4.09454462
Al      12.78541215      12.50952771       7.00518743      -0.00009685      -0.00104757       0.00026460      -4.14955255
Ni      11.28786819      11.25498951       8.49412666       0.01044602      -0.00117457      -0.00168594      -6.00010928
Al      12.71530966      12.69312416       9.86953538       0.00123565       0.00000491      -0.00056492      -4.26651515
Ni      11.24589665      11.31804470      11.24679651      -0.00515871      -0.00547730      -0.00835601      -6.17781958
Al      12.66353883      12.70451823      12.67196861       0.00041819      -0.00075612      -0.00321929      -4.07369103
