128
Lattice="11.37502618811438 0.00701168871258572 0.00011224479656587861 0.007017475351646991 11.34952119741525 -0.016231347226612264 0.00011521743830766664 -0.0162368622749674 11.365703304981803" Properties=species:S:1:pos:R:3:forces:R:3:energies:R:1 energy=-717.6101595108345 stress="0.0005575210890908859 -0.0005728950968806742 0.0004478185364878695 -0.0005728950968806742 0.0005610023350716405 0.0009240045905826105 0.0004478185364878695 0.0009240045905826105 7.42335125571274e-06" free_energy=-717.6101595108345 pbc="T T T"
Ni       0.04764765      -0.01099758       0.01247778      -0.00607289       0.00391626       0.00484894      -5.96294682
Al       1.50133400       1.39367430       1.41123523      -0.00322982       0.00470530       0.00047808      -4.98596833
Ni      -0.02188510       0.20508583       2.82726642       0.00366955       0.00138768       0.00050240      -6.00953328
Al       1.55122005       1.61647680       4.35111830      -0.00900842      -0.00258643      -0.00266238      -5.08318334
Ni       0.01384390       0.15790652       5.66984343       0.00066166       0.00342974      -0.00571423      -5.95923604
Ni       1.62860074       1.57778331       6.90159289      -0.00608093      -0.00620843       0.00329609      -5.84951940
Ni       0.33466028       0.17537781       8.50754184      -0.00171187       0.00236388       0.00378681      -5.80010282
Ni       1.72897419       1.28068662      10.10127325       0.00057457      -0.00887002      -0.00024874      -5.70530497
Ni       0.24244723       2.78640244      -0.10602730       0.00159663       0.00001527       0.00341681      -5.95680337
Al       1.34585676       4.25613204       1.49134463       0.00707952       0.00447066      -0.00230735      -4.95140123
Ni      -0.05606657       2.80784732       2.83393002      -0.00212529       0.00250080      -0.00350229      -5.96615432
Ni       1.26231136       4.28432810       4.24437951       0.00516666       0.00536299       0.00581817      -5.82580434
Ni      -0.15032269       2.85629035       5.72351939      -0.00120111       0.00687303       0.00005044      -5.93427217
Al       1.61820180       4.08398931       6.98899814       0.00709580       0.00347109      -0.00063350      -5.06365877
Ni       0.26281225       2.77399161       8.60510186      -0.00522576      -0.00600083       0.00203767      -5.94807822
Al       1.66861211       4.24545406       9.96757527      -0.00237375       0.00595030       0.00371848      -4.89114654
Ni       0.04451546       5.62193020      -0.07201945       0.00062587      -0.00077834      -0.00662421      -6.09304685
Al       1.24275103       7.22053004       1.38985338       0.00309859      -0.00742606       0.00345603      -5.02416287
Ni      -0.19130886       5.65326960       2.68644436       0.00120158      -0.00381548       0.00738426      -5.88514106
Al       1.24757647       6.79296742       4.32857909       0.00421166      -0.00099258       0.00783376      -4.91058004
Ni      -0.15254253       5.49579039       5.86987269       0.00932133       0.00144249      -0.00475560      -6.04274562
Al       1.40133373       6.99970004       7.05458217      -0.00220838       0.00482030      -0.00147940      -4.83434715
Ni       0.04846157       5.58934005       8.58277171      -0.00249690      -0.00066067      -0.00038359      -6.32274276
Al       1.56716148       7.08110133       9.92920691       0.00369857       0.00605664      -0.00638170      -4.87249135
Ni       0.03951476       8.66125933      -0.24227430       0.00263380      -0.00353149       0.01548766      -6.00692308
Ni       1.30311832       9.82659627       1.55675565      -0.00650568      -0.00631108      -0.00558835      -5.94098103
Ni      -0.15435873       8.29627020       3.04198815       0.00151156      -0.00598799      -0.00227694      -5.86223509
Al       1.19909333       9.92767105       4.17091275       0.00571914       0.00519080       0.00187439      -4.94012920
Ni      -0.09868582       8.42030120       5.66791367      -0.00557329      -0.00340130      -0.00270734      -6.10674976
Al       1.36696956       9.95727574       7.01195003      -0.00815705      -0.00026649      -0.00198191      -4.98335719
Ni       0.08014636       8.46938194       8.53443223      -0.00076280       0.00192357      -0.00228307      -6.16752981
Al       1.65491381      10.06371856       9.94475853       0.00492181       0.00706413      -0.00721952      -5.01093167
Ni       2.94937642      -0.19519007       0.30760643      -0.00041158       0.00373241      -0.00727937      -5.79359376
Al       4.23114917       1.37899875       1.61167239      -0.00419281       0.00153800      -0.00820057      -4.90159729
Ni       2.76582523      -0.06475912       2.94336026       0.00180417      -0.00001951       0.00136535      -5.98424894
Ni       4.24492366       1.37338262       4.20885846       0.00435043      -0.00447934       0.00165918      -5.80644033
Ni       2.82389127      -0.15373189       5.54682983      -0.00554377      -0.00281995       0.00043128      -5.85671040
Al       4.14100459       1.54961578       6.84886553       0.00209691      -0.00127163       0.00082118      -5.09649661
Ni       2.92489171      -0.00051648       8.29770039      -0.00196906      -0.00689015       0.00004831      -5.78097964
Ni       4.19879052       1.14705264      10.07390384      -0.00616001      -0.00435017       0.00050537      -5.62609581
Ni       2.96935711       2.89704515       0.11826495       0.00154060       0.00564064       0.00516553      -6.01444937
Al       4.44245398       4.44125639       1.46043581      -0.00490416      -0.00467154       0.00624253      -5.08310078
Ni       2.93115436       3.01946866       2.84382840       0.00237773       0.00447395      -0.00210550      -5.98039267
Ni       4.53381648       4.56591288       3.98503335       0.00016926      -0.00696605      -0.00414066      -5.63034225
Ni       3.12426525       3.16165044       5.34848449       0.00145817       0.00845204       0.00981485      -5.65206646
Ni       4.32799986       4.20673456       7.16037911      -0.00171125      -0.00027335      -0.00791371      -5.81461653
Ni       2.97471428       2.76127284       8.65082731       0.00330636      -0.00145923      -0.00227063      -5.77690575
Ni       4.28285927       4.40722575      10.02388654      -0.00009516      -0.00439425      -0.00511957      -5.73779104
Ni       2.84127050       5.78107044       0.14376100      -0.00024020       0.00434099      -0.00398862      -5.98430746
Ni       4.23334130       7.17992462       1.61003208      -0.00185620       0.00110046      -0.00203633      -5.73471554
Ni       2.73212288       5.70410617       2.82750142       0.00220162      -0.00822787      -0.00454729      -5.90363224
Ni       4.34347702       7.07894189       4.20050113      -0.00343500       0.00673393       0.00091823      -5.69069538
Ni       2.93959972       5.63976389       5.61362840      -0.00396847      -0.00988211      -0.00400152      -5.86514011
Al       4.27754532       7.17190016       6.95000741       0.00427304       0.00172627       0.00033467      -5.00471867
Ni       2.90157283       5.69049922       8.41760220       0.00501377       0.00020270       0.00669189      -5.92948203
Ni       4.19084181       7.14460525       9.92395473      -0.00172184       0.00327353      -0.00847634      -5.65392884
Ni       2.84069822       8.52265644       0.04509123       0.00190255      -0.00661282       0.00920427      -5.84483525
Al       4.18035675       9.65402382       1.74097087       0.00358666      -0.01018586       0.00739575      -4.97661200
Ni       2.59313473       8.32080252       3.03665146       0.01043027       0.00478121       0.00021814      -5.83003940
Ni       4.26601964       9.73062044       4.22201136       0.00159657      -0.00316136      -0.00443480      -5.64460168
Ni       2.65940404       8.43376127       5.55976305       0.00105708       0.00249381      -0.00080763      -5.99996023
Ni       4.25439898       9.76368170       6.89741856      -0.00035183       0.00349406      -0.00573184      -5.71223768
Ni       2.81399719       8.51326434       8.40357557       0.00629948      -0.00108261      -0.00900735      -5.96538208
Ni       4.21411278       9.92908436       9.86939207      -0.00048044       0.00909917      -0.00418199      -5.71342561
Ni       5.50486751      -0.18266260       0.25490279       0.00641603       0.00627631      -0.00191518      -5.96262323
Al       7.03582058       1.38285636       1.30965333      -0.00270662      -0.00136284       0.00217377      -4.96822128
Ni       5.69607507      -0.11613736       2.88493991       0.00001193       0.01019538       0.00102189      -6.00571009
Al       7.07802993       1.31739100       4.26306142       0.00014145       0.00482252      -0.00870015      -4.96202122
Ni       5.59711300      -0.05153726       5.61312330       0.00221585       0.00462337       0.00233879      -5.86208861
Al       6.94471025       1.42779627       7.11139005       0.00536212       0.00573432      -0.00025307      -4.93134908
Ni       5.48788360      -0.01582957       8.31435216      -0.00327438      -0.00405057       0.00291906      -5.87971909
Ni       6.83594698       1.21251068      10.02348395       0.00199071      -0.01153977       0.01153448      -5.74877728
Ni       5.49052434       2.71712955       0.02573037      -0.00173822      -0.00083649       0.00447012      -5.84412867
Ni       7.03211253       4.20881281       1.31681499      -0.00296552       0.00715803      -0.00286817      -5.81308386
Ni       5.73902786       2.78140978       2.86239651      -0.00723390      -0.00297025      -0.00745085      -5.99207645
Al       7.20647385       4.39945535       4.11498170      -0.00222510      -0.00460734       0.00398321      -5.08808047
Ni       5.70354983       2.94058611       5.48206709      -0.00366016      -0.00086199       0.00409940      -5.97712423
Al       6.87961471       4.16857717       7.22770767       0.00583933       0.00081639      -0.00089970      -4.85683943
Ni       5.51286002       2.69238180       8.66703263      -0.00802439       0.00080523      -0.00212954      -5.86424317
Al       6.83318798       4.23125337      10.08765039       0.00510721      -0.00203986       0.00006823      -5.00460275
Ni       5.68633736       5.94409769       0.06550716       0.00076345      -0.00001234      -0.00289931      -5.78554041
Ni       7.35140353       7.33476512       1.20001331      -0.00750145      -0.01256678       0.00605551      -5.68075621
Ni       6.00575512       5.96648886       2.65336145      -0.00057119      -0.00220805      -0.00127388      -5.66888222
Ni       7.32724215       6.95899350       4.38377288       0.00043858      -0.00360161      -0.01146711      -5.75640816
Ni       5.73530430       5.66881894       5.73166403       0.00763141      -0.00461996       0.00583597      -5.89841471
Al       7.16902051       7.11623511       7.05069587      -0.00709740       0.00318990      -0.00528348      -4.91664480
Ni       5.66542673       5.80659689       8.52781045       0.00178896       0.00499827      -0.00060473      -5.93751480
Al       7.08023560       7.19901927      10.00724743       0.00726520       0.00192333       0.00835171      -4.96516362
Ni       5.56350906       8.55882024       0.02855525      -0.00029743      -0.00057670       0.01105710      -5.91260528
Al       7.19656855       9.83065870       1.47511827       0.00295132       0.00051513      -0.00096232      -5.00992461
Ni       5.96528609       8.43188646       2.95274782      -0.00893719      -0.00269130      -0.00417747      -5.72324660
Ni       7.28124059      10.02290879       4.27834663      -0.00497611      -0.00157855       0.00071302      -5.70132246
Ni       5.85235444       8.46404369       5.53931535      -0.00008898      -0.00117435       0.00603444      -5.77093887
Al       7.07140356       9.94392081       6.97019021       0.00349294       0.00143006       0.00077591      -4.97659722
Ni       5.67606802       8.51472594       8.46943827      -0.00319558      -0.00139357      -0.00289519      -5.97504938
Al       6.86992946      10.06470383       9.92503101       0.00326295      -0.00239150      -0.00231496      -4.94835787
Ni       8.55778986      -0.02031824      -0.02926962      -0.00106970       0.00362059       0.00133958      -6.09367136
Al       9.97088041       1.55223621       1.20770187       0.00065814      -0.00214648      -0.00514806      -4.92974789
Ni       8.59549101       0.07986442       2.72704333       0.00194557      -0.00013033       0.00120960      -6.07977560
Al       9.88365971       1.49058801       4.26908218      -0.00118204       0.00240726      -0.00035317      -4.86648208
Ni       8.58632777       0.10095172       5.79371034      -0.00216394      -0.00201519      -0.00175519      -5.93902349
Al      10.00344837       1.35559772       7.32106805      -0.00110819       0.00408557       0.00765439      -4.99658538
Ni       8.33928171       0.03538932       8.52191593      -0.00030284       0.00257985      -0.00042980      -5.93409960
Ni      10.00406304       1.41637316       9.90244632       0.00154364      -0.00052067      -0.00045502      -5.85458477
Ni       8.34780906       2.74700542      -0.12965214       0.00163998       0.00238983       0.00255783      -5.84913698
Ni       9.95016632       4.10018800       1.24098227       0.00321954       0.00191551       0.00256312      -5.70609861
Ni       8.47052031       2.78231315       2.73227655       0.00815543       0.00216898       0.00168123      -5.95164412
Ni       9.82044950       4.24880461       4.19235594      -0.00478728      -0.00191570      -0.00181832      -5.74937506
Ni       8.45766650       2.82904046       5.78384844      -0.00010854       0.00119738       0.00882679      -6.20214960
Al       9.93322170       4.07500379       7.33173910      -0.00374466      -0.00601310       0.00107276      -4.76688462
Ni       8.30324861       2.75078675       8.65341992       0.00367880       0.00207494      -0.00208994      -6.05478406
Al       9.97245958       4.04041566      10.03764793       0.00270119      -0.00250527      -0.00973496      -4.92378621
Ni       8.51513238       5.59906420      -0.07069550      -0.00914731       0.00744819       0.00124932      -5.83377218
Ni       9.94906874       7.22457662       1.20338907      -0.00140118      -0.00096816       0.00276657      -5.77045229
Ni       8.57240684       5.68931964       2.52744205       0.00343874      -0.01160090       0.00336574      -5.68219799
Al       9.77538138       6.82485581       4.32466297      -0.00064536      -0.00369254      -0.00052845      -4.98863225
Ni       8.54192413       5.45502542       5.97221377      -0.00176852      -0.00023532      -0.00037205      -5.97301187
Al       9.92921784       7.11600977       7.20667667       0.00048304       0.00345380       0.00040741      -4.79766763
Ni       8.46659953       5.59193014       8.61763595       0.00349070       0.00498098      -0.00266120      -6.33770295
Al       9.95992879       7.07000325       9.99473647      -0.00991855       0.00774944       0.00168593      -4.82777766
Ni       8.67306694       8.79007075      -0.24330827      -0.00136247      -0.00084814      -0.00483481      -6.00536295
Al      10.10678349       9.85948589       1.50430429      -0.00256613      -0.00440632      -0.00106685      -5.03192348
Ni       8.61932832       8.47723806       2.94130607       0.00829496      -0.00134305       0.00509019      -5.78473049
Ni       9.97425301      10.07585085       4.25085211       0.00128965      -0.00167641      -0.00352880      -5.70286658
Ni       8.66142132       8.57752174       5.71309743      -0.00197683      -0.00273107       0.00101038      -5.87236150
Ni      10.07055133      10.04601046       7.16168054      -0.00233022       0.00419006       0.00028458      -5.80437365
Ni       8.50818021       8.61463728       8.53669340       0.00301377       0.00321008       0.00505093      -6.18084890
Al      10.08101169      10.19840232       9.68291037      -0.00463239      -0.00057132      -0.00218991      -4.84384125
