160
Lattice="13.621596366625226 -0.05677734282569316 0.18370018414435138 -0.05722268662473892 13.637903215368018 0.08570748084000639 0.18259412860608853 0.08565959427882547 13.697632993827883" Properties=species:S:1:pos:R:3:forces:R:3:energies:R:1 rep=5 n_sites=250 energy=-716.4420623968834 stress="-0.0005222612119926874 0.0004230655532180314 -0.0007673907448979855 0.0004230655532180314 0.00019399313982208476 0.00011488942670252552 -0.0007673907448979855 0.00011488942670252552 0.0003860672152150792" free_energy=-716.4420623968834 pbc="T T T"
Al       0.85450797       1.09626098       0.86660239       0.01179528       0.00484588      -0.00670879      -3.88534379
Al       1.79595288       1.06989531       3.55122501       0.00428963       0.00687473      -0.01324501      -3.84947694
Ni       0.26013906       0.15525450       5.11866062      -0.00697952       0.00889980       0.00482034      -5.88641646
Al       1.59442626       1.88933297       6.22650874       0.00267107       0.00615754       0.00391881      -4.06525080
Ni       0.41117394       0.32041145       7.78474054      -0.00578336       0.00027998      -0.00069648      -6.03720513
Al       1.80231242       2.01380716       9.04293413       0.00313951       0.00409630      -0.00386969      -3.87381016
Al       1.46473540       1.73749645      11.76769355       0.00374199       0.00213062      -0.00174130      -3.82296283
Al       1.30022849       3.41303368       2.22016071      -0.00543105      -0.00166325      -0.00392554      -3.88332384
Al       1.15136872       4.18004151       4.81970000      -0.00176110      -0.00031719      -0.00099263      -3.81814800
Al       1.10676361       4.24749439       7.56684520      -0.00348280       0.00316193      -0.00114258      -3.83500952
Al       1.32493718       4.60622344      10.53516453       0.00123269       0.00086150      -0.00273827      -3.98085749
Al       1.51715919       4.06545604      13.23091962      -0.00154583       0.00225972      -0.00382996      -3.71445002
Al       0.83286289       6.04849885       1.40511714       0.00094989      -0.00048635       0.00242452      -4.23347981
Al       1.10585200       6.86604397       4.16936144      -0.00312605      -0.01276958      -0.00034832      -4.07325609
Al       1.40144323       6.94028355       7.00462152      -0.00269987       0.00125258      -0.00268319      -4.33217753
Al       1.37306128       7.24226342       9.94874124       0.00193432      -0.00258427      -0.01086351      -4.23201379
Al       2.12231633       7.08751444      12.62653799      -0.00290689      -0.00363265       0.00227049      -4.09816641
Ni       0.00393500       7.89387949       0.10403992      -0.00185311       0.00687004       0.00430852      -5.76539319
Al       1.57420247       8.92192210       1.52303119      -0.00766256      -0.00360518      -0.00282323      -4.14681964
Al       1.77614738       9.48353019       4.31599613       0.00278520       0.00689697      -0.00905062      -4.07623303
Ni       0.03776969       8.43297131       5.64133922      -0.01132655      -0.00017450       0.00085780      -5.88068246
Al       1.29007757       9.96680305       6.95184916       0.00232432       0.00666442       0.00972901      -4.33563330
Ni      -0.06909208       8.43749921       8.31917652       0.01028758       0.00404549       0.00738625      -6.12871145
Al       1.35254068      10.04273111       9.65867509       0.00000197       0.00059136      -0.00103084      -4.43799677
Al       1.25641031       9.79465505      12.47509041      -0.00392371      -0.00279138      -0.00349302      -4.12382520
Al       1.27140494      11.87586158       0.81971350       0.00012347      -0.00066643       0.00196544      -3.92002320
Al       0.76438512      12.00487546       3.58942992       0.00384550       0.00581813      -0.00010430      -4.10260919
Al       1.98896251      12.66352530       6.38509805      -0.00161621       0.00448151       0.00012547      -4.27910507
Al       2.05134771      12.93195848       9.17386081       0.00355049       0.01152843      -0.00131834      -4.32283415
Al       1.42883410      12.51180915      11.87390192      -0.00790766      -0.00091005      -0.00605243      -3.96419420
Ni       2.63130325       0.18410611      -0.35503889      -0.00448096       0.01184728       0.00310820      -5.87787264
Al       3.80061368       1.23551640       1.58100781       0.00612789       0.00109124       0.00433397      -4.31819490
Al       4.29276218       1.36003828       4.57555279       0.00299040       0.00055211       0.00418765      -3.91122476
Al       3.99754197       1.14047155       7.25901483      -0.00371647      -0.00105037      -0.00086861      -3.55647854
Al       4.61220199       1.44126662       9.79991664       0.00166598      -0.00836519       0.00034612      -3.61411966
Al       4.14512247       2.19803052      12.49195421       0.00034469      -0.00217336       0.00068846      -4.09150999
Al       3.88008826       4.06200592       1.32708635      -0.00458772       0.00412784       0.00052505      -4.30781800
Al       3.91528504       4.03554836       4.37700772      -0.00136042       0.00054630       0.00762616      -4.23997726
Al       3.80159576       3.93795795       7.05147296       0.00356803      -0.00446080      -0.01119954      -4.14976553
Al       3.87328499       3.92664821      10.00641620       0.00316052      -0.00349280       0.00534132      -3.98588575
Al       3.93831759       4.95313527      12.45570585       0.00557656       0.00543820       0.00666738      -3.83334336
Al       3.58846223       6.81164372       1.41142710       0.00359658      -0.00283423      -0.00459644      -4.22236078
Ni       2.50273734       5.37853774       3.01508366      -0.00530081       0.00519788      -0.00490397      -5.89817625
Al       3.86957900       6.96459177       4.38969925      -0.00216829      -0.00326180      -0.00247941      -4.10483986
Al       4.11355470       6.84991934       7.14224891       0.00297822       0.00198790       0.00625465      -4.28824653
Ni       2.72715960       5.58502036       8.66527595      -0.00618640      -0.00004746      -0.00150816      -6.00141806
Al       4.20406801       6.91195987       9.99003056      -0.00187070       0.00942514      -0.00458655      -4.40371389
Al       4.87214238       7.72334845      12.55515573      -0.00379403       0.00285423      -0.00109664      -4.16922924
Al       4.31357832       9.42579187       1.29144074       0.00735183       0.00593317      -0.00681222      -3.91544441
Al       4.47680136       9.96081840       4.00245740      -0.00385272      -0.00174170       0.00532628      -3.82006968
Al       4.23186109       9.43885212       6.59246014       0.00204268      -0.00811359      -0.00188618      -3.99121772
Ni       2.76232350       8.44084180       8.39075024      -0.00223263       0.00152577       0.00590672      -6.15666500
Al       4.53549039       9.71591814       9.46815573      -0.00437494      -0.00878197       0.00410281      -4.30176599
Ni       3.02146628       8.74541753      11.08645718       0.00319203      -0.00627851      -0.00871220      -5.97189720
Al       4.47114123      10.35120769      12.27862513       0.00409006      -0.00613617       0.01042049      -4.05074131
Al       3.91589090      12.08966806       0.90975063      -0.00640628       0.00483254      -0.00047854      -4.27042698
Ni       2.65562724      10.79694163       2.52446563      -0.00508317       0.00012567       0.00024309      -5.75564400
Al       3.58698834      12.58196840       3.76583006      -0.00614437      -0.00277113       0.00502607      -3.82887714
Al       4.68777420      12.20825930       6.29105559      -0.00814041      -0.00330714      -0.00274438      -3.91648365
Ni       3.15214626      11.11915341       7.94009254      -0.00767613      -0.00346641      -0.00434853      -5.98905655
Al       4.85712809      12.47513763       9.04747694       0.00504658      -0.00041313       0.00148203      -4.08481395
Ni       3.12736170      11.31234997      10.53720434      -0.00154084      -0.00031032      -0.00337891      -5.86125034
Al       4.13940037      13.12779773      11.64199241      -0.00067808      -0.00704903      -0.01247263      -4.33961942
Ni       5.18583905       0.15935100      -0.21716331       0.01504855       0.00396300       0.00519525      -5.85729384
Al       6.60281802       1.46422920       1.16727585      -0.01192920      -0.01462043      -0.00386557      -4.24719955
Al       6.91655774       1.43379299       3.88334628       0.00460994       0.00107609       0.00271543      -4.21491721
Al       6.57635399       0.91625120       6.53615144      -0.00255784      -0.01018762       0.00077767      -3.82050242
Al       7.10329189       0.58021920       9.18054287       0.00232187       0.01037637       0.00344770      -3.87151528
Al       7.02725524       1.43387842      12.02084205      -0.00271407       0.00327033       0.00505619      -4.24179034
Al       6.85356542       4.20676158       1.41607134      -0.00130460       0.00477031       0.00277910      -4.38337060
Ni       5.27326710       2.78622136       2.77218133       0.00411917      -0.00810243       0.00430722      -5.89093991
Al       6.72947686       4.12161664       4.17910959       0.00102647      -0.01100082       0.00394168      -4.52036976
Al       6.67878842       3.78900530       7.04882876      -0.00589410      -0.00133681       0.00568704      -4.36278882
Al       6.57277551       3.36994096       9.73468939       0.00383272      -0.00476413       0.00090299      -3.76798473
Al       6.83165354       4.32622397      12.30475857       0.00603759      -0.00117309      -0.00262228      -4.00362071
Ni       5.44422270       5.74555662       0.18081415      -0.00310717       0.00052237       0.00060354      -5.88672875
Al       6.37373746       7.30516441       1.69355206      -0.00527759      -0.00789681       0.00116226      -4.07934368
Ni       5.16286080       5.51088373       2.84515920       0.00236709       0.00264644       0.00125431      -6.15137052
Al       6.62171424       7.06618380       4.39451159       0.00122515       0.00348289      -0.00341855      -4.08841883
Ni       5.44349059       5.46406766       5.76623254      -0.00633665      -0.00846864       0.00111417      -6.11256167
Al       6.84940187       6.70892638       7.36064113       0.01240381      -0.00469028      -0.00108647      -4.29485100
Ni       5.28535867       5.18626954       8.50630605       0.00282761       0.00078350      -0.00153116      -5.99380480
Al       6.88922799       6.17385013      10.09505779       0.00492774      -0.00256406      -0.00343385      -4.02493583
Al       7.58919108       6.98765709      12.85378308       0.00097328      -0.00492573       0.00145210      -3.93930022
Al       6.74363619       9.77571430       2.59928333       0.00389914       0.00593476      -0.00019264      -3.58747718
Al       6.95502288       9.80537281       5.31701285      -0.00758895      -0.00602878       0.00382862      -3.60485876
Al       6.66455267       9.44754421       7.94747005       0.00251844       0.00165912       0.00282715      -3.81538102
Al       6.88045068       8.89416368      10.86811431       0.00225781       0.00331722       0.00205450      -3.90111664
Al       6.79095555       9.78065045      13.54713897       0.00589516       0.00209346       0.00429012      -3.72666084
Al       6.62566594      12.26487461       1.30782587      -0.00304464       0.00923003       0.00765756      -4.01812353
Al       6.35021055      12.27273952       4.15278088       0.01268819      -0.00618330       0.00775552      -3.93449082
Al       7.44290666      11.99077025       6.96014535       0.00036888      -0.00527523       0.00360109      -3.71375223
Al       7.30621970      11.44963660       9.76166503       0.00875513      -0.00269510      -0.00039814      -3.86059896
Al       6.70040865      12.25847377      12.33051962       0.00058377       0.00248842       0.00235899      -4.05896584
Al       9.20790043       1.65123360       1.57879466       0.01150231       0.00313658      -0.00289921      -4.45830430
Ni       8.07588004      -0.15763896       2.67427150      -0.00680858      -0.00066376       0.00341211      -5.71711047
Al       9.75248749       1.23643578       4.16930482      -0.00181358      -0.00139407      -0.00577106      -4.13221565
Al       9.42524696       1.08832213       7.01233087       0.00185336      -0.00204496      -0.00138324      -4.24483373
Al       9.77872052       1.21798803       9.73151434      -0.00302545       0.01067452      -0.00446929      -4.30955324
Ni       8.49335301      -0.35201877      10.92731165      -0.00014104      -0.00950489       0.00679702      -5.86305725
Al       9.71666424       1.05684780      12.52555995      -0.00264343      -0.00435818       0.00024672      -4.46346321
Ni       8.19718656       2.84543123      -0.18100382       0.00621716       0.00366889       0.00090216      -5.86356361
Al       9.66204364       4.45985151       1.24647599       0.00111900      -0.00414169       0.00123729      -4.20444384
Al       9.49072779       4.02702788       4.11918476      -0.00851079      -0.00270474       0.00878363      -4.37185870
Ni       8.13901633       2.55024589       5.58585573      -0.00105934      -0.00080867      -0.00251821      -5.85603376
Al       9.50552540       3.90854208       6.95251796      -0.00946123       0.00320817      -0.00559401      -4.46030381
Al       9.29187026       3.82337214       9.61969405      -0.00200373       0.00439322      -0.00074357      -3.85071446
Al       9.91750557       4.15267905      12.15344075      -0.00738116      -0.00056599      -0.00453671      -3.91752026
Al       9.10515158       7.22435045       1.57222565      -0.00650784       0.00888809      -0.00420283      -3.79462846
Al       9.30170988       6.95529862       4.31042193      -0.01935922      -0.00306906      -0.00153513      -4.23563324
Ni       8.09047219       5.42909320       5.66558917      -0.00100944      -0.00094022       0.00335301      -6.12149430
Al       9.45839214       6.84317753       7.21689022      -0.01269596       0.01049060       0.00141753      -4.51586360
Al       9.65674081       6.41099469      10.21302641       0.00115678      -0.00108151      -0.00252924      -4.13345217
Al      10.40278569       6.68625814      12.83130810       0.00594536       0.00701240       0.00393717      -3.63353119
Al       9.37962295      10.08358562       2.16674329      -0.00284454      -0.00727141       0.00403682      -4.02440523
Al       9.77077859       9.61373740       4.98353136      -0.00765728      -0.00023942      -0.00114603      -3.85497041
Al       9.31565383       9.71417901       7.69153789      -0.00288607       0.00291308       0.00462431      -4.06618309
Ni       8.24961554       7.95262196       9.01364872      -0.00398529      -0.00099551       0.00268521      -5.92410005
Al       9.61431656       9.30402064      10.51979378      -0.00239419       0.00280251       0.00171736      -4.03618883
Al       9.35316724       9.15809346      13.19275075       0.00135909      -0.00587686      -0.00478738      -3.82266006
Al       9.70489341      12.62973631       1.31181689       0.00146230      -0.00032218      -0.00112358      -4.15639928
Al       9.09665545      12.07591020       4.28387196       0.00269047      -0.00040213      -0.00669515      -3.87976474
Al      10.18590280      12.08751985       6.72325103       0.00733025      -0.00403334       0.00349509      -3.85924919
Al       9.95689518      11.92035243       9.47883405       0.00150896       0.00086121      -0.00319529      -4.18301176
Al       9.62743465      11.73690681      12.29946634       0.00207143       0.00021199      -0.00425962      -4.34715775
Al      11.87435420       0.97273579       1.60039414      -0.00731273       0.01732882      -0.00249827      -4.03501457
Al      12.84742434       1.96031425       4.01783950       0.00175169       0.00851328       0.00023511      -4.19220313
Al      12.27427393       1.34216077       6.59867492       0.00294365      -0.00369849      -0.00125954      -4.35076786
Ni      11.34702941      -0.01951040       8.28429588       0.00141144       0.00294477      -0.00367063      -6.06688669
Al      12.67327829       1.37661890       9.78235778       0.00033849      -0.00440061       0.00056467      -4.24771378
Ni      11.17394267      -0.30391391      10.96096316       0.00821678      -0.00140648       0.00446745      -6.00446833
Al      12.50213583       0.88289091      12.61000267      -0.00249540      -0.01373609      -0.00117857      -3.98116501
Ni      10.87015737       2.59923655       0.04149410      -0.00697553      -0.00081129       0.00480691      -6.00897663
Al      12.53192614       3.97855186       1.13959039       0.00469133      -0.00300449      -0.00117403      -4.13414326
Ni      11.00029222       2.88593410       2.65970436       0.00865788      -0.01225279      -0.01003980      -5.88313567
Al      12.20903187       4.60084970       3.87648086       0.00737443       0.00224402       0.00486314      -4.04878146
Al      12.31900984       4.02117314       6.65229663       0.00424571      -0.00320792      -0.00634589      -4.15037712
Ni      11.04200560       2.60530268       8.27153227      -0.00045562       0.00014934       0.00657463      -6.05299086
Al      12.58464181       4.00685545       9.53038499      -0.00846201      -0.00107256      -0.00804811      -3.94224151
Al      12.74829256       3.47677808      12.13886396       0.00426024      -0.00178869      -0.00418618      -3.87392707
Al      11.81378423       6.70697111       1.59116570      -0.00020928      -0.00292849       0.00612379      -4.08239803
Al      12.07276908       7.17399780       4.48907514       0.00671715      -0.00128959       0.01565420      -4.13461984
Ni      10.73618572       5.53686067       5.66993353       0.00052378      -0.00563613      -0.00145697      -5.99767757
Al      12.27328881       6.80068193       7.14230288       0.00425519       0.00769568      -0.00623011      -4.51778130
Ni      10.94195992       5.26375451       8.41080246      -0.00092703       0.00261297       0.00645813      -6.10380120
Al      12.38005239       6.71588351      10.00085331      -0.00964269       0.00017958      -0.00730494      -4.09972448
Al      13.17179534       6.12428706      12.53255921       0.00651795      -0.00362064      -0.00340141      -3.97046235
Al      12.34852766       9.38148998       1.60514452      -0.00036288      -0.00139453       0.00094883      -4.13053983
Ni      10.71274280       8.40001183       3.07265916       0.00006751       0.00333328      -0.00877554      -5.72500473
Al      12.43184486       9.92536559       4.30137154      -0.00632084      -0.00166697      -0.00288338      -3.98649234
Al      11.95238753       9.61391190       7.07528993      -0.00294724       0.00364432      -0.00108629      -4.19751558
Ni      10.85853830       8.09462267       8.77429416       0.00423793      -0.00668101      -0.00053130      -6.13464769
Al      12.27141650       9.71217001      10.04759260       0.00346954       0.00132722      -0.00402471      -3.97240257
Al      12.06502683       8.96162988      12.63957549      -0.00330376      -0.00651964       0.01128172      -4.02294603
Ni      10.77999420      10.71717198       0.32305686       0.00652981      -0.00392806       0.00009933      -5.77106624
Al      12.34965233      12.05734708       1.70715320       0.00794044       0.00330040       0.00244657      -3.77690017
Al      11.80722569      12.83515821       4.31586355       0.00214531       0.00397925       0.00357453      -3.89498846
Al      12.82886181      12.12985444       6.87948805      -0.00191982       0.00966991       0.00202244      -4.11871783
Al      12.92417378      12.31891552       9.71631454       0.00845818       0.00038548      -0.00131649      -4.16429229
Al      12.47303692      11.72108240      12.40267975       0.00881611       0.00864612      -0.00284883      -4.05702928
