32
Lattice="7.112341182797973 -0.10159905815430899 -1.9965751503907384e-16 -0.10347914419712045 7.215399303409861 -7.064117105234989e-16 -2.0341210596575715e-16 4.15285633582714e-16 7.573740680720822" Properties=species:S:1:pos:R:3:forces:R:3:energies:R:1 energy=-185.64826294082206 stress="0.0004192624182902489 -1.8249186774234006e-05 2.211726683248519e-17 -1.8249186774234006e-05 -0.000742749069082917 3.1348284244285484e-17 2.211726683248519e-17 3.1348284244285484e-17 -2.3616864788385784e-05" free_energy=-185.64826294082206 pbc="T T T"
Al      -0.27333025      -0.27223678      -0.00000000       0.01558883      -0.00259773      -0.00000000      -5.09146683
Al      -0.02601015       1.83234305       1.82788931      -0.00166184      -0.00991379       0.01003474      -4.65887560
Al       1.84165122      -0.03481542       1.81384073      -0.00593682       0.01123173       0.00045303      -4.67800273
Co       1.53016794       1.57230255      -0.00000000      -0.01290229      -0.00023114      -0.00000000      -6.82903105
Al       0.08971558      -0.02308009       3.78687034       0.00921811       0.00167328       0.00000000      -4.58248988
Al      -0.02601015       1.83234305       5.74585137      -0.00166184      -0.00991379      -0.01003474      -4.65887560
Al       1.84165122      -0.03481542       5.75989995      -0.00593682       0.01123173      -0.00045303      -4.67800273
Al       2.03431332       2.05511277       3.78687034      -0.01179132      -0.00630634       0.00000000      -4.96736038
Al       0.19810678       3.93494724      -0.00000000      -0.00028124      -0.00136924       0.00000000      -5.04739445
Co      -0.05404635       5.42570756       1.96025672      -0.00183419      -0.00090981      -0.00648649      -6.70745799
Co       1.68527311       3.59686647       1.94814977      -0.00342289       0.00173298      -0.00573086      -6.66225595
Co       1.97677365       5.58697520      -0.00000000      -0.00116957      -0.00268098      -0.00000000      -6.78291850
Co      -0.23661917       3.39862962       3.78687034      -0.00484230       0.00298041       0.00000000      -6.88109135
Co      -0.05404635       5.42570756       5.61348396      -0.00183419      -0.00090981       0.00648649      -6.70745799
Co       1.68527311       3.59686647       5.62559091      -0.00342289       0.00173298       0.00573086      -6.66225595
Co       1.57990430       5.25145878       3.78687034       0.00665227      -0.00302681       0.00000000      -6.99044202
Al       3.90802371       0.17283787      -0.00000000      -0.00452895      -0.00570086      -0.00000000      -5.07806991
Co       3.51869959       1.76764627       1.86139449       0.00153217       0.00324192      -0.00108651      -6.62806862
Co       5.38176400      -0.07187009       1.99990151       0.00277982      -0.00440136      -0.00357362      -6.73818841
Co       5.52819037       1.96219713      -0.00000000       0.00094825       0.00264714       0.00000000      -6.80133925
Co       3.35640655      -0.17202422       3.78687034       0.00678188       0.00572925       0.00000000      -6.65792036
Co       3.51869959       1.76764627       5.71234619       0.00153217       0.00324192       0.00108651      -6.62806862
Co       5.38176400      -0.07187009       5.57383918       0.00277982      -0.00440136       0.00357362      -6.73818841
Al       4.99750715       1.57646750       3.78687034       0.00650572       0.00098062       0.00000000      -5.00434452
Al       3.20716692       3.31703244      -0.00000000       0.00223436       0.01419666      -0.00000000      -5.07192553
Al       3.43653257       5.34032194       1.95463450       0.00542384      -0.00662517      -0.00422911      -4.82106468
Al       5.27603257       3.53202619       1.85765244      -0.00034306       0.00450982      -0.00415729      -4.80264420
Co       5.00234115       5.12361166      -0.00000000      -0.00437288       0.00739401      -0.00000000      -6.86579879
Co       3.72238052       3.69887382       3.78687034       0.01235720      -0.00435690       0.00000000      -6.71763620
Al       3.43653257       5.34032194       5.61910618       0.00542384      -0.00662517       0.00422911      -4.82106468
Al       5.27603257       3.53202619       5.71608824      -0.00034306       0.00450982       0.00415729      -4.80264420
Al       5.36550283       5.40604552       3.78687034      -0.01347212      -0.00706400       0.00000000      -4.88591753
