32
Lattice="7.834596930442003 0.05003900086009694 -0.08732960040094177 0.04752423846488707 7.413086805235858 -0.05700891432284359 -0.08772628520258688 -0.06024409927713701 7.912800537511533" Properties=species:S:1:pos:R:3:forces:R:3:energies:R:1 energy=-223.50754685009065 stress="-0.0007682958692574167 0.00016139367847656854 -0.00020622591500659703 0.00016139367847656854 -0.0005241510618078172 -0.00022456050059738823 -0.00020622591500659703 -0.00022456050059738823 -0.0003602017245201442" free_energy=-223.50754685009065 pbc="T T T"
Ir       0.17624935       0.28778477      -0.05235015       0.00246222       0.00025484      -0.00193320      -8.85017308
Al      -0.17384083       1.76053995       2.04160383      -0.00653245      -0.00262824      -0.00876300      -5.54256133
Al       1.82385128      -0.03680042       1.96409145      -0.00811310       0.00400513       0.00216685      -5.35542261
Al       2.09203607       1.94391285      -0.09942117       0.01475188       0.00174617      -0.00003061      -4.80170426
Ir      -0.09655301       0.12549073       4.02087712      -0.00264311       0.00547054      -0.00096343      -8.57509300
Al       0.00628477       1.99953242       5.86673407       0.00157992      -0.00668731       0.00587381      -5.78514660
Al       1.73959912      -0.07467613       5.85872034      -0.00006399      -0.00270210      -0.01558059      -5.10974472
Ir       2.16031075       1.59841640       3.83208511       0.00514994      -0.00073246       0.01115514      -8.65916848
Ir       0.10891887       3.43342959       0.10797960      -0.00420889      -0.00104287      -0.00559351      -8.72495637
Ir       0.17060727       5.55834364       1.96783840      -0.00013494      -0.00094127       0.00111844      -8.53536632
Al       1.86397938       3.64325530       2.09599291      -0.00463737      -0.01397367      -0.00844133      -5.32769298
Al       1.75078004       5.53484881      -0.04339847       0.00221758      -0.01140374       0.00136250      -5.56178714
Ir       0.03717435       3.49707271       3.88396107      -0.00985762       0.01294673       0.00173069      -8.33367115
Ir      -0.00845640       5.50897228       5.90296759      -0.00535668      -0.00630436       0.00447971      -8.36174645
Ir       2.14059259       3.73876630       6.06522803      -0.00053083      -0.00129248      -0.00027521      -8.73709788
Al       1.77205913       5.38265700       3.98611074      -0.00205499       0.00037825      -0.00616209      -5.56679878
Ir       3.66910555       0.01227652      -0.20193274       0.01364643      -0.00388904      -0.00154073      -8.75319835
Al       3.94747301       1.84821582       1.93564705      -0.00764416       0.00652106      -0.00119602      -5.09012889
Ir       5.74104850       0.08944242       1.87851521      -0.00352226      -0.00741570       0.00587522      -8.50600866
Al       5.85508818       1.74958700      -0.07525603       0.00178397      -0.00018292       0.00296632      -5.53226421
Al       4.04818275      -0.12678292       3.77352632       0.00211987       0.00254167       0.00780670      -5.25102232
Al       3.82542011       1.86878194       5.76511022       0.00815302      -0.00256037      -0.00164806      -5.37778591
Ir       5.70030788       0.21603415       5.79094850       0.00224935      -0.00797158      -0.00555849      -8.61295870
Al       5.84450942       2.03378507       3.88686980       0.00834808       0.00316619       0.00181589      -5.56694312
Al       4.04756629       3.97506951      -0.03807259      -0.00579451      -0.00339057       0.00555339      -4.92660861
Ir       3.57385115       5.56320045       1.86562934      -0.01237870      -0.00454630      -0.00541940      -8.58280882
Ir       5.77343571       3.59721646       1.76909967      -0.00056359       0.01637376       0.00753363      -8.65379725
Al       6.32634876       5.73369940      -0.06091714       0.01373992      -0.00020592       0.00572045      -6.03349375
Ir       3.84855974       3.73607837       3.86672773      -0.00025305       0.00476222       0.00703810      -8.46850490
Al       4.16028549       5.54842400       5.77181305       0.00214457       0.00821804      -0.00954475      -5.36434150
Ir       5.73059808       3.57956966       6.06150149       0.00135222       0.00767968       0.00187051      -8.73859280
Ir       5.87736525       5.50843643       3.83331392      -0.00540871       0.00380660      -0.00141696      -8.22095791
