32
Lattice="7.945517928958502 -0.10878374442168234 -0.17629021301006215 -0.108345249479652 7.809771926538565 -0.008579021663410498 -0.1761687217736593 -0.008484146920704115 7.978537797004795" Properties=species:S:1:pos:R:3:forces:R:3:energies:R:1 energy=-165.51498035194527 stress="-0.000283638072965967 -0.00013183818482961432 -0.0003426599307425058 -0.00013183818482961432 0.001232661104008906 -0.0001615810195803807 -0.0003426599307425058 -0.0001615810195803807 -0.0003252089980152933" free_energy=-165.51498035194527 pbc="T T T"
Pd       0.16866936       0.37589876       0.02526109       0.00097010      -0.00117140      -0.00887789      -5.56023398
Al      -0.21421104       1.99686599       2.11231571      -0.00324304       0.00042862       0.00500762      -4.83260703
Al       2.13356083      -0.25459631       1.68298728       0.01252526       0.00453169      -0.00109877      -4.85611630
Al       2.03327938       2.05813007       0.06860384       0.00655894       0.00474423      -0.00207562      -4.86213560
Al      -0.42776442      -0.08064470       3.92657486       0.00023509       0.01249206      -0.00104471      -4.81447372
Al      -0.29836594       2.00464562       6.01947605      -0.01054812       0.00953499      -0.00293457      -4.89855720
Al       1.76814871      -0.04251347       5.95712712       0.00288788       0.00236721      -0.00829606      -4.61371462
Al       1.91218462       1.95504285       3.87424983      -0.00139183      -0.01112258      -0.00136738      -4.61254168
Al      -0.14316685       4.22778455       0.25786242       0.00647996      -0.00764395       0.00470247      -4.88183635
Pd       0.04845521       6.05183539       2.09915623      -0.00285805      -0.00119537       0.00966434      -5.35580793
Pd       1.77265529       3.78257865       1.89936065      -0.00100684      -0.01017292      -0.00444655      -5.41887681
Pd       1.76598008       5.81151955      -0.22673001       0.00048322      -0.01072810      -0.01191638      -5.43532540
Pd       0.12087493       3.85766487       4.25501911      -0.00039679      -0.00447003       0.00342916      -5.58181661
Al      -0.40519054       5.90917798       6.04846781       0.00738512      -0.01465592       0.00339125      -4.86779988
Al       1.98612538       3.99141129       5.97903723       0.00194927       0.00754861       0.00366009      -4.84557271
Al       1.89126963       5.66079356       3.74941670      -0.00009501       0.00634617      -0.00029932      -4.84386579
Pd       3.80361287       0.19282461      -0.31335670      -0.00064016      -0.00304165      -0.00349955      -5.42591757
Pd       3.71169159       1.68211370       2.07104049      -0.00721210      -0.00030535      -0.00313472      -5.48620536
Pd       5.84855921      -0.24016777       1.67983212       0.00309517      -0.00161550       0.00034796      -5.35686589
Al       5.72715847       1.81783670       0.11105522      -0.00441220       0.00601861      -0.00001546      -5.19776404
Al       4.33341026      -0.18126807       3.76204357      -0.00173939       0.01072783       0.00551163      -5.09800209
Al       4.13541012       1.93495905       5.79061141      -0.00273291      -0.00020826       0.00881949      -5.01902081
Pd       5.90877475      -0.05137407       5.91551243       0.00337378       0.00054287       0.00426442      -5.41956544
Pd       5.96273415       1.84774269       3.85516730       0.01137522      -0.00025044      -0.00012653      -5.44548975
Pd       3.88964776       3.76383992      -0.17477470      -0.01507094      -0.00750297       0.00316365      -5.37917231
Al       3.97647273       5.31177451       1.90683558       0.00581869       0.00376939       0.00941862      -5.06705506
Pd       5.99179258       3.77134190       1.77200976       0.00383631      -0.00046023       0.00325478      -5.37712752
Al       5.46016794       5.92111352      -0.29614682      -0.00054492       0.00687526      -0.00097088      -5.21194629
Pd       3.72936001       3.74113267       4.04124525      -0.01047835       0.00436248      -0.00624096      -5.44310627
Pd       3.53568020       6.02513379       5.65205572      -0.00840440      -0.00429100      -0.00819337      -5.43839472
Pd       5.96099055       3.81279146       6.14099392      -0.00043089      -0.00217122       0.00116840      -5.49868777
Pd       5.84407968       5.65465917       3.88171228       0.00423195       0.00071688      -0.00126518      -5.36937785
