Be8Co8 E-V NM V/Vref=1.04 (ISIF=4)
1
  5.386483375320  0.000000000000  0.000000000000
  0.000000000000  5.386483375320  0.000000000000
  0.000000000000  0.000000000000  5.386483375320
  Be  Co
  8  8
Direct
  0.000000  0.000000  0.000000
  0.250000  0.250000  0.750000
  0.000000  0.500000  0.000000
  0.000000  0.500000  0.500000
  0.750000  0.250000  0.250000
  0.500000  0.000000  0.500000
  0.750000  0.750000  0.250000
  0.750000  0.750000  0.750000
  0.250000  0.250000  0.250000
  0.000000  0.000000  0.500000
  0.250000  0.750000  0.250000
  0.250000  0.750000  0.750000
  0.500000  0.000000  0.000000
  0.750000  0.250000  0.750000
  0.500000  0.500000  0.000000
  0.500000  0.500000  0.500000
