128
Lattice="13.20746475798188 0.0 0.0 0.0 13.20746475798188 0.0 0.0 0.0 13.20746475798188" Properties=species:S:1:pos:R:3 pbc="T T T"
Ta       0.00000000       0.00000000       0.00000000
Ta       1.65093309       1.65093309       1.65093309
Ta       0.00000000       0.00000000       3.30186619
Nb       1.65093309       1.65093309       4.95279928
Ta       0.00000000       0.00000000       6.60373238
Ta       1.65093309       1.65093309       8.25466547
Ta       0.00000000       0.00000000       9.90559857
Nb       1.65093309       1.65093309      11.55653166
Ta       0.00000000       3.30186619       0.00000000
Ta       1.65093309       4.95279928       1.65093309
Ta       0.00000000       3.30186619       3.30186619
Ta       1.65093309       4.95279928       4.95279928
Ta       0.00000000       3.30186619       6.60373238
Ta       1.65093309       4.95279928       8.25466547
Ta       0.00000000       3.30186619       9.90559857
Ta       1.65093309       4.95279928      11.55653166
Nb       0.00000000       6.60373238       0.00000000
Ta       1.65093309       8.25466547       1.65093309
Ta       0.00000000       6.60373238       3.30186619
Ta       1.65093309       8.25466547       4.95279928
Ta       0.00000000       6.60373238       6.60373238
Nb       1.65093309       8.25466547       8.25466547
Ta       0.00000000       6.60373238       9.90559857
Nb       1.65093309       8.25466547      11.55653166
Ta       0.00000000       9.90559857       0.00000000
Ta       1.65093309      11.55653166       1.65093309
Nb       0.00000000       9.90559857       3.30186619
Ta       1.65093309      11.55653166       4.95279928
Nb       0.00000000       9.90559857       6.60373238
Ta       1.65093309      11.55653166       8.25466547
Ta       0.00000000       9.90559857       9.90559857
Ta       1.65093309      11.55653166      11.55653166
Ta       3.30186619       0.00000000       0.00000000
Ta       4.95279928       1.65093309       1.65093309
Ta       3.30186619       0.00000000       3.30186619
Ta       4.95279928       1.65093309       4.95279928
Nb       3.30186619       0.00000000       6.60373238
Ta       4.95279928       1.65093309       8.25466547
Nb       3.30186619       0.00000000       9.90559857
Nb       4.95279928       1.65093309      11.55653166
Ta       3.30186619       3.30186619       0.00000000
Ta       4.95279928       4.95279928       1.65093309
Ta       3.30186619       3.30186619       3.30186619
Ta       4.95279928       4.95279928       4.95279928
Ta       3.30186619       3.30186619       6.60373238
Ta       4.95279928       4.95279928       8.25466547
Nb       3.30186619       3.30186619       9.90559857
Ta       4.95279928       4.95279928      11.55653166
Ta       3.30186619       6.60373238       0.00000000
Ta       4.95279928       8.25466547       1.65093309
Nb       3.30186619       6.60373238       3.30186619
Ta       4.95279928       8.25466547       4.95279928
Ta       3.30186619       6.60373238       6.60373238
Ta       4.95279928       8.25466547       8.25466547
Ta       3.30186619       6.60373238       9.90559857
Ta       4.95279928       8.25466547      11.55653166
Nb       3.30186619       9.90559857       0.00000000
Nb       4.95279928      11.55653166       1.65093309
Ta       3.30186619       9.90559857       3.30186619
Ta       4.95279928      11.55653166       4.95279928
Ta       3.30186619       9.90559857       6.60373238
Ta       4.95279928      11.55653166       8.25466547
Nb       3.30186619       9.90559857       9.90559857
Nb       4.95279928      11.55653166      11.55653166
Ta       6.60373238       0.00000000       0.00000000
Ta       8.25466547       1.65093309       1.65093309
Nb       6.60373238       0.00000000       3.30186619
Ta       8.25466547       1.65093309       4.95279928
Nb       6.60373238       0.00000000       6.60373238
Ta       8.25466547       1.65093309       8.25466547
Ta       6.60373238       0.00000000       9.90559857
Ta       8.25466547       1.65093309      11.55653166
Ta       6.60373238       3.30186619       0.00000000
Nb       8.25466547       4.95279928       1.65093309
Ta       6.60373238       3.30186619       3.30186619
Nb       8.25466547       4.95279928       4.95279928
Ta       6.60373238       3.30186619       6.60373238
Ta       8.25466547       4.95279928       8.25466547
Ta       6.60373238       3.30186619       9.90559857
Nb       8.25466547       4.95279928      11.55653166
Nb       6.60373238       6.60373238       0.00000000
Ta       8.25466547       8.25466547       1.65093309
Ta       6.60373238       6.60373238       3.30186619
Ta       8.25466547       8.25466547       4.95279928
Nb       6.60373238       6.60373238       6.60373238
Ta       8.25466547       8.25466547       8.25466547
Ta       6.60373238       6.60373238       9.90559857
Nb       8.25466547       8.25466547      11.55653166
Nb       6.60373238       9.90559857       0.00000000
Ta       8.25466547      11.55653166       1.65093309
Nb       6.60373238       9.90559857       3.30186619
Ta       8.25466547      11.55653166       4.95279928
Ta       6.60373238       9.90559857       6.60373238
Ta       8.25466547      11.55653166       8.25466547
Ta       6.60373238       9.90559857       9.90559857
Ta       8.25466547      11.55653166      11.55653166
Ta       9.90559857       0.00000000       0.00000000
Ta      11.55653166       1.65093309       1.65093309
Nb       9.90559857       0.00000000       3.30186619
Ta      11.55653166       1.65093309       4.95279928
Ta       9.90559857       0.00000000       6.60373238
Ta      11.55653166       1.65093309       8.25466547
Ta       9.90559857       0.00000000       9.90559857
Ta      11.55653166       1.65093309      11.55653166
Ta       9.90559857       3.30186619       0.00000000
Ta      11.55653166       4.95279928       1.65093309
Ta       9.90559857       3.30186619       3.30186619
Ta      11.55653166       4.95279928       4.95279928
Ta       9.90559857       3.30186619       6.60373238
Ta      11.55653166       4.95279928       8.25466547
Ta       9.90559857       3.30186619       9.90559857
Ta      11.55653166       4.95279928      11.55653166
Ta       9.90559857       6.60373238       0.00000000
Nb      11.55653166       8.25466547       1.65093309
Ta       9.90559857       6.60373238       3.30186619
Nb      11.55653166       8.25466547       4.95279928
Nb       9.90559857       6.60373238       6.60373238
Ta      11.55653166       8.25466547       8.25466547
Ta       9.90559857       6.60373238       9.90559857
Ta      11.55653166       8.25466547      11.55653166
Nb       9.90559857       9.90559857       0.00000000
Ta      11.55653166      11.55653166       1.65093309
Ta       9.90559857       9.90559857       3.30186619
Ta      11.55653166      11.55653166       4.95279928
Nb       9.90559857       9.90559857       6.60373238
Ta      11.55653166      11.55653166       8.25466547
Ta       9.90559857       9.90559857       9.90559857
Ta      11.55653166      11.55653166      11.55653166
